!Murata Part Number: GRM2195C1H103JA01
!These Parameters are Measured in Series Mode Connection
!       o--ll--o
!Port1            Port2
!       o------o
!Operation Temp=25[degC], DC Bias Voltage=0[V]
!Freq. Start=1[MHz] Stop=6[GHz], 401[Steps]
!Data Generated on Jan 10, 2017
# Hz S RI R 50
!Freq.(Hz) S11(Real) S11(Imag) S21(Real) S21(Imag) S12(Real) S12(Imag) S22(Real) S22(Imag)
1000000.0 0.025490264148983886 -0.15747566079647035 0.9745097358510161 0.15747566079647035 0.9745097358510161 0.15747566079647035 0.025490264148983886 -0.15747566079647035
1021987.0156634536 0.024433029148064604 -0.1542531985227058 0.9755669708519352 0.1542531985227058 0.9755669708519352 0.1542531985227058 0.024433029148064604 -0.1542531985227058
1044457.4601846923 0.02341864668972066 -0.1510897972176112 0.9765813533102794 0.1510897972176112 0.9765813533102794 0.1510897972176112 0.02341864668972066 -0.1510897972176112
1067421.9627215841 0.022445466020065367 -0.1479847981415252 0.9775545339799345 0.1479847981415252 0.9775545339799345 0.1479847981415252 0.022445466020065367 -0.1479847981415252
1090891.386135458 0.021511892961953338 -0.14493752132068374 0.9784881070380465 0.14493752132068374 0.9784881070380465 0.14493752132068374 0.021511892961953338 -0.14493752132068374
1114876.832129545 0.020616388561783935 -0.1419472679155253 0.9793836114382161 0.1419472679155253 0.9793836114382161 0.1419472679155253 0.020616388561783935 -0.1419472679155253
1139389.6465003989 0.01975746771602925 -0.13901332244825035 0.980242532283971 0.13901332244825035 0.980242532283971 0.13901332244825035 0.01975746771602925 -0.13901332244825035
1164441.4245047802 0.01893369778369609 -0.13613495489546482 0.9810663022163041 0.13613495489546482 0.9810663022163041 0.13613495489546482 0.01893369778369609 -0.13613495489546482
1190044.0163445412 0.018143697190348754 -0.13331142265168844 0.981856302809651 0.13331142265168844 0.981856302809651 0.13331142265168844 0.018143697190348754 -0.13331142265168844
1216209.5327721077 0.017386134028775105 -0.13054197236943627 0.9826138659712248 0.13054197236943627 0.9826138659712248 0.13054197236943627 0.017386134028775105 -0.13054197236943627
1242950.3508192098 0.016659724660868944 -0.12782584168148473 0.9833402753391309 0.12782584168148473 0.9833402753391309 0.12782584168148473 0.016659724660868944 -0.12782584168148473
1270279.119651567 0.01596323232482951 -0.12516226081082685 0.9840367676751706 0.12516226081082685 0.9840367676751706 0.12516226081082685 0.01596323232482951 -0.12516226081082685
1298208.7665523042 0.015295465751337403 -0.12255045407368928 0.9847045342486626 0.12255045407368928 0.9847045342486626 0.12255045407368928 0.015295465751337403 -0.12255045407368928
1326752.5030369225 0.014655277791959204 -0.11998964128084927 0.9853447222080408 0.11998964128084927 0.9853447222080408 0.11998964128084927 0.014655277791959204 -0.11998964128084927
1355923.8311027219 0.014041564062654685 -0.11747903904233883 0.9859584359373454 0.11747903904233883 0.9859584359373454 0.11747903904233883 0.014041564062654685 -0.11747903904233883
1385736.5496156274 0.013453261604912376 -0.11501786198046976 0.9865467383950874 0.11501786198046976 0.9865467383950874 0.11501786198046976 0.013453261604912376 -0.11501786198046976
1416204.7608374464 0.012889347566717477 -0.11260532385594983 0.9871106524332824 0.11260532385594983 0.9871106524332824 0.11260532385594983 0.012889347566717477 -0.11260532385594983
1447342.877096637 0.012348837905260859 -0.11024063861169578 0.9876511620947392 0.11024063861169578 0.9876511620947392 0.11024063861169578 0.012348837905260859 -0.11024063861169578
1479165.6276057488 0.011830786113026646 -0.10792302133878039 0.9881692138869733 0.10792302133878039 0.9881692138869733 0.10792302133878039 0.011830786113026646 -0.10792302133878039
1511688.0654287587 0.01133428196864774 -0.10565168916878157 0.9886657180313523 0.10565168916878157 0.9886657180313523 0.10565168916878157 0.01133428196864774 -0.10565168916878157
1544925.574601597 0.010858450313691677 -0.1034258620966309 0.9891415496863083 0.1034258620966309 0.9891415496863083 0.1034258620966309 0.010858450313691677 -0.1034258620966309
1578893.8774092323 0.010402449856332567 -0.10124476373789112 0.9895975501436672 0.10124476373789112 0.9895975501436672 0.10124476373789112 0.010402449856332567 -0.10124476373789112
1613609.04182276 0.00996547200267699 -0.09910762202422436 0.9900345279973233 0.09910762202422436 0.9900345279973233 0.09910762202422436 0.00996547200267699 -0.09910762202422436
1649087.4891000076 0.00954673971634086 -0.09701366984064694 0.9904532602836591 0.09701366984064694 0.9904532602836591 0.09701366984064694 0.00954673971634086 -0.09701366984064694
1685346.001553255 0.009145506406720497 -0.0949621456080067 0.9908544935932794 0.0949621456080067 0.9908544935932794 0.0949621456080067 0.009145506406720497 -0.0949621456080067
1722401.7304877453 0.008761054846261352 -0.09295229381395688 0.9912389451537386 0.09295229381395688 0.9912389451537386 0.09295229381395688 0.008761054846261352 -0.09295229381395688
1760272.2043147392 0.00839269611690323 -0.09098336549554871 0.9916073038830966 0.09098336549554871 0.9916073038830966 0.09098336549554871 0.00839269611690323 -0.09098336549554871
1798975.3368429495 0.00803976858576806 -0.08905461867641189 0.9919602314142317 0.08905461867641189 0.9919602314142317 0.08905461867641189 0.00803976858576806 -0.08905461867641189
1838529.4357522824 0.00770163691005635 -0.08716531876134723 0.9922983630899436 0.08716531876134723 0.9922983630899436 0.08716531876134723 0.00770163691005635 -0.08716531876134723
1878953.211253888 0.007377691071028932 -0.08531473889101346 0.9926223089289711 0.08531473889101346 0.9926223089289711 0.08531473889101346 0.007377691071028932 -0.08531473889101346
1920265.784940624 0.00706734543687137 -0.08350216025925195 0.9929326545631287 0.08350216025925195 0.9929326545631287 0.08350216025925195 0.00706734543687137 -0.08350216025925195
1962486.6988321077 0.006770037854168961 -0.08172687239546422 0.993229962145831 0.08172687239546422 0.993229962145831 0.08172687239546422 0.006770037854168961 -0.08172687239546422
2005635.9246186486 0.006485228767658447 -0.07998817341432626 0.9935147712323418 0.07998817341432626 0.9935147712323418 0.07998817341432626 0.006485228767658447 -0.07998817341432626
2049733.8731084245 0.006212400367869491 -0.07828537023500326 0.9937875996321307 0.07828537023500326 0.9937875996321307 0.07828537023500326 0.006212400367869491 -0.07828537023500326
2094801.403882371 0.005951055766222554 -0.07661777877191187 0.9940489442337774 0.07661777877191187 0.9940489442337774 0.07661777877191187 0.005951055766222554 -0.07661777877191187
2140859.835161357 0.005700718197109997 -0.07498472409896227 0.99429928180289 0.07498472409896227 0.99429928180289 0.07498472409896227 0.005700718197109997 -0.07498472409896227
2187930.9538903087 0.005460930246453496 -0.07338554058910692 0.9945390697535464 0.07338554058910692 0.9945390697535464 0.07338554058910692 0.005460930246453496 -0.07338554058910692
2236037.02604405 0.005231253106202459 -0.07181957203091864 0.9947687468937978 0.07181957203091864 0.9947687468937978 0.07181957203091864 0.005231253106202459 -0.07181957203091864
2285200.8071597433 0.005011265854214696 -0.07028617172382379 0.9949887341457854 0.07028617172382379 0.9949887341457854 0.07028617172382379 0.005011265854214696 -0.07028617172382379
2335445.553100901 0.004800564758941359 -0.06878470255352051 0.9951994352410587 0.06878470255352051 0.9951994352410587 0.06878470255352051 0.004800564758941359 -0.06878470255352051
2386795.031058074 0.004598762608323525 -0.06731453704902539 0.9954012373916765 0.06731453704902539 0.9954012373916765 0.06731453704902539 0.004598762608323525 -0.06731453704902539
2439273.530791401 0.004405488062296074 -0.0658750574227052 0.9955945119377038 0.0658750574227052 0.9955945119377038 0.0658750574227052 0.004405488062296074 -0.0658750574227052
2492905.876120359 0.004220385028286547 -0.06446565559456995 0.9957796149717135 0.06446565559456995 0.9957796149717135 0.06446565559456995 0.004220385028286547 -0.06446565559456995
2547717.4366661333 0.004043112059091522 -0.06308573320202726 0.9959568879409082 0.06308573320202726 0.9959568879409082 0.06308573320202726 0.004043112059091522 -0.06308573320202726
2603734.139852166 0.0038733417725103194 -0.06173470159622482 0.9961266582274897 0.06173470159622482 0.9961266582274897 0.06173470159622482 0.0038733417725103194 -0.06173470159622482
2660982.4831685643 0.0037107602921157626 -0.06041198182603848 0.9962892397078842 0.06041198182603848 0.9962892397078842 0.06041198182603848 0.0037107602921157626 -0.06041198182603848
2719489.5467061675 0.003555066708543474 -0.05911700461069862 0.9964449332914564 0.05911700461069862 0.9964449332914564 0.05911700461069862 0.003555066708543474 -0.05911700461069862
2779283.0059661944 0.003405972560684885 -0.05784921030198469 0.9965940274393152 0.05784921030198469 0.9965940274393152 0.05784921030198469 0.003405972560684885 -0.05784921030198469
2840391.144951544 0.0032632013361744397 -0.0566080488368593 0.9967367986638255 0.0566080488368593 0.9967367986638255 0.0566080488368593 0.0032632013361744397 -0.0566080488368593
2902842.8695459287 0.0031264879905682627 -0.055392979681358374 0.9968735120094315 0.055392979681358374 0.9968735120094315 0.055392979681358374 0.0031264879905682627 -0.055392979681358374
2966667.72118718 0.0029955784846194167 -0.054203471766499985 0.9970044215153805 0.054203471766499985 0.9970044215153805 0.054203471766499985 0.0029955784846194167 -0.054203471766499985
3031895.8908411846 0.002870229339064099 -0.05303900341692591 0.997129770660936 0.05303900341692591 0.997129770660936 0.05303900341692591 0.002870229339064099 -0.05303900341692591
3098558.233283071 0.002750207206343042 -0.05189906227294329 0.9972497927936569 0.05189906227294329 0.9972497927936569 0.05189906227294329 0.002750207206343042 -0.05189906227294329
3166686.281692389 0.0026352884586931823 -0.05078314520658809 0.9973647115413067 0.05078314520658809 0.9973647115413067 0.05078314520658809 0.0026352884586931823 -0.05078314520658809
3236312.2625692035 0.002525258792056214 -0.049690758232291854 0.9974747412079437 0.049690758232291854 0.9974747412079437 0.049690758232291854 0.002525258792056214 -0.049690758232291854
3307469.1109781396 0.0024199128452626986 -0.048621416412693484 0.9975800871547373 0.048621416412693484 0.9975800871547373 0.048621416412693484 0.0024199128452626986 -0.048621416412693484
3380190.486127605 0.0023190538339629015 -0.04757464376010017 0.9976809461660371 0.04757464376010017 0.9976809461660371 0.04757464376010017 0.0023190538339629015 -0.04757464376010017
3454510.787291549 0.0022224931987884656 -0.0465499731340673 0.9977775068012115 0.0465499731340673 0.9977775068012115 0.0465499731340673 0.0022224931987884656 -0.0465499731340673
3530465.1700812983 0.002130050267242326 -0.04554694613553456 0.9978699497327578 0.04554694613553456 0.9978699497327578 0.04554694613553456 0.002130050267242326 -0.04554694613553456
3608089.563075153 0.0020415519288276176 -0.04456511299792361 0.9979584480711724 0.04456511299792361 0.9979584480711724 0.04456511299792361 0.0020415519288276176 -0.04456511299792361
3687420.6848136308 0.001956832322940023 -0.04360403247557498 0.99804316767706 0.04360403247557498 0.99804316767706 0.04360403247557498 0.001956832322940023 -0.04360403247557498
3768496.0611683712 0.0018757325390617436 -0.04266327172987381 0.9981242674609382 0.04266327172987381 0.9981242674609382 0.04266327172987381 0.0018757325390617436 -0.04266327172987381
3851354.0430929437 0.0017981003288089796 -0.04174240621338855 0.998201899671191 0.04174240621338855 0.998201899671191 0.04174240621338855 0.0017981003288089796 -0.04174240621338855
3936033.8247639337 0.001723789829398704 -0.04084101955232372 0.9982762101706013 0.04084101955232372 0.9982762101706013 0.04084101955232372 0.001723789829398704 -0.04084101955232372
4022575.4621209023 0.001652661298114135 -0.03995870342756414 0.9983473387018859 0.03995870342756414 0.9983473387018859 0.03995870342756414 0.001652661298114135 -0.03995870342756414
4111019.891813979 0.0015845808573620552 -0.03909505745456823 0.998415419142638 0.03909505745456823 0.998415419142638 0.03909505745456823 0.0015845808573620552 -0.03909505745456823
4201408.950568062 0.0015194202499286178 -0.03824968906234781 0.9984805797500715 0.03824968906234781 0.9984805797500715 0.03824968906234781 0.0015194202499286178 -0.03824968906234781
4293785.394972777 0.0014570566040536994 -0.03742221337175399 0.9985429433959464 0.03742221337175399 0.9985429433959464 0.03742221337175399 0.0014570566040536994 -0.03742221337175399
4388192.921707552 0.0013973722079570461 -0.036612253073271823 0.998602627792043 0.036612253073271823 0.998602627792043 0.036612253073271823 0.0013973722079570461 -0.036612253073271823
4484676.188211391 0.0013402542934624017 -0.03581943830450982 0.9986597457065376 0.03581943830450982 0.9986597457065376 0.03581943830450982 0.0013402542934624017 -0.03581943830450982
4583280.833807113 0.0012855948283786336 -0.035043406527557164 0.9987144051716214 0.035043406527557164 0.9987144051716214 0.035043406527557164 0.0012855948283786336 -0.035043406527557164
4684053.501290036 0.0012332903173092793 -0.03428380240636671 0.9987667096826909 0.03428380240636671 0.9987667096826909 0.03428380240636671 0.0012332903173092793 -0.03428380240636671
4787041.858991356 0.0011832416105741154 -0.033540277684309845 0.9988167583894257 0.033540277684309845 0.9988167583894257 0.033540277684309845 0.0011832416105741154 -0.033540277684309845
4892294.623326608 0.001135353720938263 -0.032812491062037714 0.9988646462790617 0.032812491062037714 0.9988646462790617 0.032812491062037714 0.001135353720938263 -0.032812491062037714
4999861.581839919 0.0010895356478558033 -0.03210010807577244 0.9989104643521443 0.03210010807577244 0.9989104643521443 0.03210010807577244 0.0010895356478558033 -0.03210010807577244
5109793.616754934 0.0010457002089460771 -0.03140280097614231 0.998954299791054 0.03140280097614231 0.998954299791054 0.03140280097614231 0.0010457002089460771 -0.03140280097614231
5222142.729043541 0.0010037638784316308 -0.030720248607665913 0.9989962361215684 0.030720248607665913 0.9989962361215684 0.030720248607665913 0.0010037638784316308 -0.030720248607665913
5336962.063023812 9.636466322771137E-4 -0.030052136288981842 0.9990363533677228 0.030052136288981842 0.9990363533677228 0.030052136288981842 9.636466322771137E-4 -0.030052136288981842
5454305.931498774 9.252717997784622E-4 -0.029398155693913 0.9990747282002216 0.029398155693913 0.9990747282002216 0.029398155693913 9.252717997784622E-4 -0.029398155693913
5574229.841447907 8.885659213612116E-4 -0.028758004733447817 0.9991114340786386 0.028758004733447817 0.9991114340786386 0.028758004733447817 8.885659213612116E-4 -0.028758004733447817
5696790.520283512 8.534586123559308E-4 -0.028131387438714375 0.9991465413876441 0.028131387438714375 0.9991465413876441 0.028131387438714375 8.534586123559308E-4 -0.028131387438714375
5822045.942684401 8.198824325273927E-4 -0.027518013845017127 0.9991801175674727 0.027518013845017127 0.9991801175674727 0.027518013845017127 8.198824325273927E-4 -0.027518013845017127
5950055.3580195485 7.877727611423856E-4 -0.026917599877001756 0.9992122272388576 0.026917599877001756 0.9992122272388576 0.026917599877001756 7.877727611423856E-4 -0.026917599877001756
6080879.31837474 7.570676773687559E-4 -0.02632986723500733 0.9992429323226312 0.02632986723500733 0.9992429323226312 0.02632986723500733 7.570676773687559E-4 -0.02632986723500733
6214579.707195417 7.277078458056739E-4 -0.025754543282662058 0.9992722921541943 0.025754543282662058 0.9992722921541943 0.025754543282662058 7.277078458056739E-4 -0.025754543282662058
6351219.768559305 6.996364069519295E-4 -0.025191360935773375 0.9993003635930483 0.025191360935773375 0.9993003635930483 0.025191360935773375 6.996364069519295E-4 -0.025191360935773375
6490864.137092655 6.727988724255463E-4 -0.02464005855256036 0.9993272011275743 0.02464005855256036 0.9993272011275743 0.02464005855256036 6.727988724255463E-4 -0.02464005855256036
6633578.86854426 6.471430247540133E-4 -0.024100379825272147 0.999352856975246 0.024100379825272147 0.999352856975246 0.024100379825272147 6.471430247540133E-4 -0.024100379825272147
6779431.471031698 6.226188215600526E-4 -0.02357207367323266 0.9993773811784402 0.02357207367323266 0.9993773811784402 0.02357207367323266 6.226188215600526E-4 -0.02357207367323266
6928490.936974583 5.991783039731118E-4 -0.02305489413734927 0.999400821696027 0.02305489413734927 0.999400821696027 0.02305489413734927 5.991783039731118E-4 -0.02305489413734927
7080827.77572994 5.76775509101629E-4 -0.02254860027611863 0.9994232244908984 0.02254860027611863 0.9994232244908984 0.02254860027611863 5.76775509101629E-4 -0.02254860027611863
7236514.046945133 5.55366386405739E-4 -0.022052956063161024 0.9994446336135943 0.022052956063161024 0.9994446336135943 0.022052956063161024 5.55366386405739E-4 -0.022052956063161024
7395623.394644118 5.349087178143477E-4 -0.021567730286310566 0.9994650912821855 0.021567730286310566 0.9994650912821855 0.021567730286310566 5.349087178143477E-4 -0.021567730286310566
7558231.082063163 5.153620414345521E-4 -0.021092696448285736 0.9994846379585653 0.021092696448285736 0.9994846379585653 0.021092696448285736 5.153620414345521E-4 -0.021092696448285736
7724414.027252486 4.966875787052244E-4 -0.02062763266896166 0.9995033124212949 0.02062763266896166 0.9995033124212949 0.02062763266896166 4.966875787052244E-4 -0.02062763266896166
7894250.839460687 4.7884816485023734E-4 -0.02017232158926223 0.9995211518351499 0.02017232158926223 0.9995211518351499 0.02017232158926223 4.7884816485023734E-4 -0.02017232158926223
8067821.8563191425 4.6180818249033347E-4 -0.019726550276686895 0.9995381918175098 0.019726550276686895 0.9995381918175098 0.019726550276686895 4.6180818249033347E-4 -0.019726550276686895
8245209.181843984 4.455334982761007E-4 -0.019290110132483728 0.999554466501724 0.019290110132483728 0.999554466501724 0.019290110132483728 4.455334982761007E-4 -0.019290110132483728
8426496.72527364 4.2999140240790833E-4 -0.01886279680047681 0.9995700085975922 0.01886279680047681 0.9995700085975922 0.01886279680047681 4.2999140240790833E-4 -0.01886279680047681
8611770.240760274 4.15150550912052E-4 -0.018444410077552882 0.999584849449088 0.018444410077552882 0.999584849449088 0.018444410077552882 4.15150550912052E-4 -0.018444410077552882
8801117.367933933 4.009809105457665E-4 -0.018034753825808422 0.999599019089454 0.018034753825808422 0.999599019089454 0.018034753825808422 4.009809105457665E-4 -0.018034753825808422
8994627.673358591 3.874537062072332E-4 -0.017633635886355043 0.9996125462937926 0.017633635886355043 0.9996125462937926 0.017633635886355043 3.874537062072332E-4 -0.017633635886355043
9192392.692899661 3.7454137073026625E-4 -0.01724086799477761 0.9996254586292697 0.01724086799477761 0.9996254586292697 0.01724086799477761 3.7454137073026625E-4 -0.01724086799477761
9394505.975023063 3.622174969470115E-4 -0.01685626569823602 0.999637782503053 0.01685626569823602 0.999637782503053 0.01685626569823602 3.622174969470115E-4 -0.01685626569823602
9601063.125046303 3.5045679190576283E-4 -0.016479648274198157 0.9996495432080943 0.016479648274198157 0.9996495432080943 0.016479648274198157 3.5045679190576283E-4 -0.016479648274198157
9812161.850362506 3.3923503313491366E-4 -0.0161108386507885 0.9996607649668652 0.0161108386507885 0.9996607649668652 0.0161108386507885 3.3923503313491366E-4 -0.0161108386507885
1.0027902006658768E7 3.2852902684808244E-4 -0.015749663328733374 0.9996714709731518 0.015749663328733374 0.9996714709731518 0.015749663328733374 3.2852902684808244E-4 -0.015749663328733374
1.0248385645150753E7 3.1831656798962925E-4 -0.015395952304881144 0.9996816834320105 0.015395952304881144 0.9996816834320105 0.015395952304881144 3.1831656798962925E-4 -0.015395952304881144
1.0473717060855797E7 3.0857640202406163E-4 -0.015049538997272618 0.999691423597976 0.015049538997272618 0.999691423597976 0.015049538997272618 3.0857640202406163E-4 -0.015049538997272618
1.0704002841927417E7 2.992881883772317E-4 -0.0147102601717345 0.9997007118116227 0.0147102601717345 0.9997007118116227 0.0147102601717345 2.992881883772317E-4 -0.0147102601717345
1.0939351920074524E7 2.904324654417157E-4 -0.014377955869966309 0.9997095675345583 0.014377955869966309 0.9997095675345583 0.014377955869966309 2.904324654417157E-4 -0.014377955869966309
1.1179875622089237E7 2.8199061706331996E-4 -0.01405246933908883 0.9997180093829365 0.01405246933908883 0.9997180093829365 0.01405246933908883 2.8199061706331996E-4 -0.01405246933908883
1.1425687722507577E7 2.7394484043028307E-4 -0.013733646962620983 0.9997260551595697 0.013733646962620983 0.9997260551595697 0.013733646962620983 2.7394484043028307E-4 -0.013733646962620983
1.1676904497428076E7 2.662781152913342E-4 -0.013421338192849583 0.9997337218847085 0.013421338192849583 0.9997337218847085 0.013421338192849583 2.662781152913342E-4 -0.013421338192849583
1.193364477951368E7 2.5897417443340205E-4 -0.013115395484556015 0.9997410258255667 0.013115395484556015 0.9997410258255667 0.013115395484556015 2.5897417443340205E-4 -0.013115395484556015
1.219603001420294E7 2.5201747535431027E-4 -0.012815674230062286 0.9997479825246456 0.012815674230062286 0.9997479825246456 0.012815674230062286 2.5201747535431027E-4 -0.012815674230062286
1.2464184317157172E7 2.4539317307029437E-4 -0.012522032695558663 0.9997546068269297 0.012522032695558663 0.9997546068269297 0.012522032695558663 2.4539317307029437E-4 -0.012522032695558663
1.273823453297068E7 2.3908709400254695E-4 -0.012234331958674464 0.9997609129059974 0.012234331958674464 0.9997609129059974 0.012234331958674464 2.3908709400254695E-4 -0.012234331958674464
1.3018310295171851E7 2.3308571089125145E-4 -0.011952435847253546 0.9997669142891087 0.011952435847253546 0.9997669142891087 0.011952435847253546 2.3308571089125145E-4 -0.011952435847253546
1.3304544087543497E7 2.2737611868965373E-4 -0.011676210879296267 0.9997726238813105 0.011676210879296267 0.9997726238813105 0.011676210879296267 2.2737611868965373E-4 -0.011676210879296267
1.3597071306791425E7 2.2194601139462178E-4 -0.011405526204029808 0.9997780539886052 0.011405526204029808 0.9997780539886052 0.011405526204029808 2.2194601139462178E-4 -0.011405526204029808
1.3896030326590944E7 2.1678365977385687E-4 -0.011140253544069645 0.999783216340226 0.011140253544069645 0.999783216340226 0.011140253544069645 2.1678365977385687E-4 -0.011140253544069645
1.4201562563041527E7 2.118778899534046E-4 -0.010880267138635456 0.9997881221100466 0.010880267138635456 0.9997881221100466 0.010880267138635456 2.118778899534046E-4 -0.010880267138635456
1.4513812541560639E7 2.0721806283237158E-4 -0.010625443687785792 0.9997927819371677 0.010625443687785792 0.9997927819371677 0.010625443687785792 2.0721806283237158E-4 -0.010625443687785792
1.4832927965248363E7 2.0279405429478157E-4 -0.010375662297636873 0.9997972059457053 0.010375662297636873 0.9997972059457053 0.010375662297636873 2.0279405429478157E-4 -0.010375662297636873
1.5159059784755157E7 1.9859623619127904E-4 -0.010130804426531997 0.9998014037638088 0.010130804426531997 0.9998014037638088 0.010130804426531997 1.9859623619127904E-4 -0.010130804426531997
1.5492362269685801E7 1.9461545806593214E-4 -0.00989075383212921 0.999805384541934 0.00989075383212921 0.999805384541934 0.00989075383212921 1.9461545806593214E-4 -0.00989075383212921
1.5832993081573281E7 1.9084302960568612E-4 -0.00965539651937625 0.9998091569703942 0.00965539651937625 0.9998091569703942 0.00965539651937625 1.9084302960568612E-4 -0.00965539651937625
1.6181113348457187E7 1.872707037920845E-4 -0.009424620689342949 0.9998127292962079 0.009424620689342949 0.9998127292962079 0.009424620689342949 1.872707037920845E-4 -0.009424620689342949
1.6536887741101837E7 1.8389066073672358E-4 -0.009198316688882519 0.9998161093392635 0.009198316688882519 0.9998161093392635 0.009198316688882519 1.8389066073672358E-4 -0.009198316688882519
1.6900484550890215E7 1.8069549218353793E-4 -0.008976376961094488 0.9998193045078165 0.008976376961094488 0.9998193045078165 0.008976376961094488 1.8069549218353793E-4 -0.008976376961094488
1.7272075769430596E7 1.7767818666245049E-4 -0.008758695996563065 0.9998223218133375 0.008758695996563065 0.9998223218133375 0.008758695996563065 1.7767818666245049E-4 -0.008758695996563065
1.7651837169913426E7 1.7483211528017674E-4 -0.008545170285345937 0.9998251678847198 0.008545170285345937 0.9998251678847198 0.008545170285345937 1.7483211528017674E-4 -0.008545170285345937
1.8039948390257046E7 1.7215101813505926E-4 -0.008335698269689367 0.9998278489818649 0.008335698269689367 0.9998278489818649 0.008335698269689367 1.7215101813505926E-4 -0.008335698269689367
1.8436593018081523E7 1.6962899134375116E-4 -0.008130180297446511 0.9998303710086563 0.008130180297446511 0.9998303710086563 0.008130180297446511 1.6962899134375116E-4 -0.008130180297446511
1.8841958677550804E7 1.6726047466837708E-4 -0.007928518576176486 0.9998327395253319 0.007928518576176486 0.9998327395253319 0.007928518576176486 1.6726047466837708E-4 -0.007928518576176486
1.925623711812426E7 1.6504023973349806E-4 -0.007730617127902476 0.9998349597602666 0.007730617127902476 0.9998349597602666 0.007730617127902476 1.6504023973349806E-4 -0.007730617127902476
1.9679624305259638E7 1.629633788228148E-4 -0.0075363817445076595 0.999837036621177 0.0075363817445076595 0.999837036621177 0.0075363817445076595 1.629633788228148E-4 -0.0075363817445076595
2.0112320513110254E7 1.610252942460655E-4 -0.007345719943747985 0.9998389747057539 0.007345719943747985 0.9998389747057539 0.007345719943747985 1.610252942460655E-4 -0.007345719943747985
2.055453041926041E7 1.5922168826705026E-4 -0.007158540925861209 0.9998407783117327 0.007158540925861209 0.9998407783117327 0.007158540925861209 1.5922168826705026E-4 -0.007158540925861209
2.1006463201543625E7 1.575485535841332E-4 -0.0069747555307515295 0.999842451446416 0.0069747555307515295 0.999842451446416 0.0069747555307515295 1.575485535841332E-4 -0.0069747555307515295
2.1468332636989724E7 1.5600216435497248E-4 -0.0067942761957290555 0.999843997835645 0.0067942761957290555 0.999843997835645 0.0067942761957290555 1.5600216435497248E-4 -0.0067942761957290555
2.1940357202947453E7 1.5457906775761024E-4 -0.006617016913783093 0.9998454209322424 0.006617016913783093 0.9998454209322424 0.006617016913783093 1.5457906775761024E-4 -0.006617016913783093
2.2422760180430427E7 1.532760760804379E-4 -0.0064428931923677666 0.9998467239239196 0.0064428931923677666 0.9998467239239196 0.0064428931923677666 1.532760760804379E-4 -0.0064428931923677666
2.291576975973542E7 1.5209025933394564E-4 -0.006271822012677853 0.9998479097406661 0.006271822012677853 0.9998479097406661 0.006271822012677853 1.5209025933394564E-4 -0.006271822012677853
2.3419619148382816E7 1.5101893837758519E-4 -0.006103721789391892 0.9998489810616225 0.006103721789391892 0.9998489810616225 0.006103721789391892 1.5101893837758519E-4 -0.006103721789391892
2.393454668143043E7 1.5005967855552695E-4 -0.005938512330858576 0.9998499403214446 0.005938512330858576 0.9998499403214446 0.005938512330858576 1.5005967855552695E-4 -0.005938512330858576
2.4460795934212703E7 1.4921028383559656E-4 -0.005776114799701296 0.9998507897161641 0.005776114799701296 0.9998507897161641 0.005776114799701296 1.4921028383559656E-4 -0.005776114799701296
2.4998615837558784E7 1.4846879144622978E-4 -0.005616451673814264 0.9998515312085539 0.005616451673814264 0.9998515312085539 0.005616451673814264 1.4846879144622978E-4 -0.005616451673814264
2.554826079554385E7 1.4783346700690726E-4 -0.005459446707721821 0.999852166532993 0.005459446707721821 0.999852166532993 0.005459446707721821 1.4783346700690726E-4 -0.005459446707721821
2.6109990805829473E7 1.4730280014823557E-4 -0.005305024894270927 0.9998526971998517 0.005305024894270927 0.9998526971998517 0.005305024894270927 1.4730280014823557E-4 -0.005305024894270927
2.668407158264988E7 1.4687550061862282E-4 -0.0051531124266243535 0.9998531244993815 0.0051531124266243535 0.9998531244993815 0.0051531124266243535 1.4687550061862282E-4 -0.0051531124266243535
2.7270774682502322E7 1.4655049487538778E-4 -0.005003636660519846 0.9998534495051246 0.005003636660519846 0.9998534495051246 0.005003636660519846 1.4655049487538778E-4 -0.005003636660519846
2.787037763260101E7 1.4632692315913947E-4 -0.004856526076757632 0.9998536730768408 0.004856526076757632 0.9998536730768408 0.004856526076757632 1.4632692315913947E-4 -0.004856526076757632
2.848316406215538E7 1.4620413705138544E-4 -0.004711710243875486 0.9998537958629484 0.004711710243875486 0.9998537958629484 0.004711710243875486 1.4620413705138544E-4 -0.004711710243875486
2.9109423836534712E7 1.4618169751659424E-4 -0.004569119780967114 0.9998538183024832 0.004569119780967114 0.9998538183024832 0.004569119780967114 1.4618169751659424E-4 -0.004569119780967114
2.9749453194382712E7 1.4625937343135993E-4 -0.004428686320595473 0.9998537406265688 0.004428686320595473 0.9998537406265688 0.004428686320595473 1.4625937343135993E-4 -0.004428686320595473
3.040355488774679E7 1.4643714060492218E-4 -0.004290342471748255 0.9998535628593951 0.004290342471748255 0.9998535628593951 0.004290342471748255 1.4643714060492218E-4 -0.004290342471748255
3.107203832528835E7 1.4671518129710475E-4 -0.0041540217827776005 0.9998532848187026 0.0041540217827776005 0.9998532848187026 0.0041540217827776005 1.4671518129710475E-4 -0.0041540217827776005
3.17552197186419E7 1.470938842417813E-4 -0.004019658704260316 0.9998529061157583 0.004019658704260316 0.9998529061157583 0.004019658704260316 1.470938842417813E-4 -0.004019658704260316
3.2453422231992092E7 1.4757384518629147E-4 -0.003887188551708497 0.9998524261548138 0.003887188551708497 0.9998524261548138 0.003887188551708497 1.4757384518629147E-4 -0.003887188551708497
3.316697613493958E7 1.4815586795985866E-4 -0.0037565474680529335 0.9998518441320401 0.0037565474680529335 0.9998518441320401 0.0037565474680529335 1.4815586795985866E-4 -0.0037565474680529335
3.3896218958727896E7 1.4884096608704672E-4 -0.0036276723858133914 0.999851159033913 0.0036276723858133914 0.999851159033913 0.0036276723858133914 1.4884096608704672E-4 -0.0036276723858133914
3.4641495655905284E7 1.4963036496570234E-4 -0.003500500988860352 0.9998503696350342 0.003500500988860352 0.9998503696350342 0.003500500988860352 1.4963036496570234E-4 -0.003500500988860352
3.540315876349713E7 1.5052550463273202E-4 -0.0033749716736619292 0.9998494744953673 0.0033749716736619292 0.9998494744953673 0.0033749716736619292 1.5052550463273202E-4 -0.0033749716736619292
3.618156856976588E7 1.5152804314553264E-4 -0.0032510235098973934 0.9998484719568546 0.0032510235098973934 0.9998484719568546 0.0032510235098973934 1.5152804314553264E-4 -0.0032510235098973934
3.6977093284637645E7 1.526398606120571E-4 -0.0031285962003045403 0.9998473601393879 0.0031285962003045403 0.9998473601393879 0.0031285962003045403 1.526398606120571E-4 -0.0031285962003045403
3.7790109213875964E7 1.5386306390844843E-4 -0.003007630039612026 0.9998461369360916 0.003007630039612026 0.9998461369360916 0.003007630039612026 1.5386306390844843E-4 -0.003007630039612026
3.862100093708508E7 1.5519999213008063E-4 -0.0028880658723891874 0.9998448000078701 0.0028880658723891874 0.9998448000078701 0.0028880658723891874 1.5519999213008063E-4 -0.0028880658723891874
3.9470161489627026E7 1.5665322282988413E-4 -0.002769845049624563 0.99984334677717 0.002769845049624563 0.99984334677717 0.002769845049624563 1.5665322282988413E-4 -0.002769845049624563
4.03379925485385E7 1.5822557910720694E-4 -0.0026529093838196524 0.9998417744208927 0.0026529093838196524 0.9998417744208927 0.0026529093838196524 1.5822557910720694E-4 -0.0026529093838196524
4.12249046225355E7 1.5992013762145338E-4 -0.0025372011023560566 0.9998400798623784 0.0025372011023560566 0.9998400798623784 0.0025372011023560566 1.5992013762145338E-4 -0.0025372011023560566
4.213131724619557E7 1.6174023761765673E-4 -0.00242266279886121 0.9998382597623823 0.00242266279886121 0.9998382597623823 0.00242266279886121 1.6174023761765673E-4 -0.00242266279886121
4.3057659178409606E7 1.6368949106637448E-4 -0.0023092373822596623 0.9998363105089337 0.0023092373822596623 0.9998363105089337 0.0023092373822596623 1.6368949106637448E-4 -0.0023092373822596623
4.400436860519695E7 1.6577179403832554E-4 -0.0021968680231523904 0.9998342282059618 0.0021968680231523904 0.9998342282059618 0.0021968680231523904 1.6577179403832554E-4 -0.0021968680231523904
4.4971893346979804E7 1.6799133945560207E-4 -0.0020854980971147987 0.9998320086605443 0.0020854980971147987 0.9998320086605443 0.0020854980971147987 1.6799133945560207E-4 -0.0020854980971147987
4.596069107041502E7 1.7035263138681165E-4 -0.0019750711244432865 0.9998296473686131 0.0019750711244432865 0.9998296473686131 0.0019750711244432865 1.7035263138681165E-4 -0.0019750711244432865
4.6971229504883386E7 1.7286050108402935E-4 -0.0018655307058091564 0.999827139498916 0.0018655307058091564 0.999827139498916 0.0018655307058091564 1.7286050108402935E-4 -0.0018655307058091564
4.8003986663738936E7 1.7552012499608247E-4 -0.001756820453194958 0.999824479875004 0.001756820453194958 0.999824479875004 0.001756820453194958 1.7552012499608247E-4 -0.001756820453194958
4.905945107042279E7 1.7833704503683343E-4 -0.0016488839153895804 0.9998216629549631 0.0016488839153895804 0.9998216629549631 0.0016488839153895804 1.7833704503683343E-4 -0.0016488839153895804
5.0138121989548616E7 1.8131719144051032E-4 -0.0015416644972016942 0.9998186828085596 0.0015416644972016942 0.9998186828085596 0.0015416644972016942 1.8131719144051032E-4 -0.0015416644972016942
5.124050966306897E7 1.8446690860093637E-4 -0.001435105371412459 0.999815533091399 0.001435105371412459 0.999815533091399 0.001435105371412459 1.8446690860093637E-4 -0.001435105371412459
5.236713555163422E7 1.8779298437049245E-4 -0.0013291493823234326 0.9998122070156295 0.0013291493823234326 0.9998122070156295 0.0013291493823234326 1.8779298437049245E-4 -0.0013291493823234326
5.35185325812582E7 1.9130268339130583E-4 -0.0012237389395583246 0.9998086973166085 0.0012237389395583246 0.9998086973166085 0.0012237389395583246 1.9130268339130583E-4 -0.0012237389395583246
5.4695245395407386E7 1.9500378514995215E-4 -0.0011188159005407644 0.9998049962148502 0.0011188159005407644 0.9998049962148502 0.0011188159005407644 1.9500378514995215E-4 -0.0011188159005407644
5.589783061263265E7 1.989046275936166E-4 -0.0010143214397855943 0.9998010953724065 0.0010143214397855943 0.9998010953724065 0.0010143214397855943 1.989046275936166E-4 -0.0010143214397855943
5.712685708986568E7 2.0301415732755184E-4 -9.101959027971213E-4 0.9997969858426724 9.101959027971213E-4 0.9997969858426724 9.101959027971213E-4 2.0301415732755184E-4 -9.101959027971213E-4
5.838290619150444E7 2.0734198764034306E-4 -8.063786419504208E-4 0.9997926580123596 8.063786419504208E-4 0.9997926580123596 8.063786419504208E-4 2.0734198764034306E-4 -8.063786419504208E-4
5.966657206441496E7 2.118984658874363E-4 -7.028078312231004E-4 0.9997881015341126 7.028078312231004E-4 0.9997881015341126 7.028078312231004E-4 2.118984658874363E-4 -7.028078312231004E-4
6.0978461918979846E7 2.1669475212092546E-4 -5.994202560223849E-4 0.9997833052478793 5.994202560223849E-4 0.9997833052478793 5.994202560223849E-4 2.1669475212092546E-4 -5.994202560223849E-4
6.231919631632577E7 2.217429113063391E-4 -4.961510735868701E-4 0.9997782570886936 4.961510735868701E-4 0.9997782570886936 4.961510735868701E-4 2.217429113063391E-4 -4.961510735868701E-4
6.368940946186667E7 2.2705602204384174E-4 -3.9293353849623517E-4 0.9997729439779561 3.9293353849623517E-4 0.9997729439779561 3.9293353849623517E-4 2.2705602204384174E-4 -3.9293353849623517E-4
6.508974950530084E7 2.3264830545028305E-4 -2.896986866474168E-4 0.9997673516945496 2.896986866474168E-4 0.9997673516945496 2.896986866474168E-4 2.3264830545028305E-4 -2.896986866474168E-4
6.652087884720417E7 2.3853527881179785E-4 -1.863749695887728E-4 0.9997614647211881 1.863749695887728E-4 0.9997614647211881 1.863749695887728E-4 2.3853527881179785E-4 -1.863749695887728E-4
6.798347445236436E7 2.4473393985466693E-4 -8.288782926210519E-5 0.9997552660601453 8.288782926210519E-5 0.9997552660601453 8.288782926210519E-5 2.4473393985466693E-4 -8.288782926210519E-5
6.94782281700045E7 2.512629891016018E-4 2.08407991233408E-5 0.9997487370108983 -2.08407991233408E-5 0.9997487370108983 -2.08407991233408E-5 2.512629891016018E-4 2.08407991233408E-5
7.100584706104739E7 2.581430999151764E-4 1.2489307131542118E-4 0.9997418569000849 -1.2489307131542118E-4 0.9997418569000849 -1.2489307131542118E-4 2.581430999151764E-4 1.2489307131542118E-4
7.256705373257545E7 2.653972486663664E-4 2.2935592435027928E-4 0.9997346027513337 -2.2935592435027928E-4 0.9997346027513337 -2.2935592435027928E-4 2.653972486663664E-4 2.2935592435027928E-4
7.416258667964426E7 2.730511212669141E-4 3.343218968596861E-4 0.9997269488787331 -3.343218968596861E-4 0.9997269488787331 -3.343218968596861E-4 2.730511212669141E-4 3.343218968596861E-4
7.579320063461183E7 2.8113361744361407E-4 4.3989010952360033E-4 0.9997188663825562 -4.3989010952360033E-4 0.9997188663825562 -4.3989010952360033E-4 2.8113361744361407E-4 4.3989010952360033E-4
7.745966692414834E7 2.896774811488507E-4 5.461674440584146E-4 0.9997103225188512 -5.461674440584146E-4 0.9997103225188512 -5.461674440584146E-4 2.896774811488507E-4 5.461674440584146E-4
7.916277383409546E7 2.9872009517798804E-4 6.532699699411803E-4 0.999701279904822 -6.532699699411803E-4 0.999701279904822 -6.532699699411803E-4 2.9872009517798804E-4 6.532699699411803E-4
8.090332698234819E7 3.083044915539624E-4 7.61324682392863E-4 0.999691695508446 -7.61324682392863E-4 0.999691695508446 -7.61324682392863E-4 3.083044915539624E-4 7.61324682392863E-4
8.268214969993456E7 3.184806482632983E-4 8.704716342722106E-4 0.9996815193517368 -8.704716342722106E-4 0.9996815193517368 -8.704716342722106E-4 3.184806482632983E-4 8.704716342722106E-4
8.450008342047508E7 3.293071700877318E-4 9.80866570287639E-4 0.9996706928299124 -9.80866570287639E-4 0.9996706928299124 -9.80866570287639E-4 3.293071700877318E-4 9.80866570287639E-4
8.635798807820417E7 3.408534905638075E-4 0.0010926842069008728 0.9996591465094363 -0.0010926842069008728 0.9996591465094363 -0.0010926842069008728 3.408534905638075E-4 0.0010926842069008728
8.825674251474403E7 3.5320278974003704E-4 0.0012061223491620194 0.9996467972102597 -0.0012061223491620194 0.9996467972102597 -0.0012061223491620194 3.5320278974003704E-4 0.0012061223491620194
9.019724489482106E7 3.664559082426129E-4 0.0013214071017709562 0.9996335440917572 -0.0013214071017709562 0.9996335440917572 -0.0013214071017709562 3.664559082426129E-4 0.0013214071017709562
9.218041313112392E7 3.8073666809847716E-4 0.0014387995235127461 0.9996192633319019 -0.0014387995235127461 0.9996192633319019 -0.0014387995235127461 3.8073666809847716E-4 0.0014387995235127461
9.420718531850152E7 3.961992109170459E-4 0.001558604202783302 0.9996038007890828 -0.001558604202783302 0.9996038007890828 -0.001558604202783302 3.961992109170459E-4 0.001558604202783302
9.627852017770934E7 4.1303827820745996E-4 0.0016811804127358303 0.9995869617217926 -0.0016811804127358303 0.9995869617217926 -0.0016811804127358303 4.1303827820745996E-4 0.0016811804127358303
9.839539750891073E7 4.315038619107242E-4 0.0018069567592127215 0.9995684961380893 -0.0018069567592127215 0.9995684961380893 -0.0018069567592127215 4.315038619107242E-4 0.0018069567592127215
1.0055881865515095E8 4.5192247746813556E-4 0.0019364505914967627 0.9995480775225317 -0.0019364505914967627 0.9995480775225317 -0.0019364505914967627 4.5192247746813556E-4 0.0019364505914967627
1.0276980697602011E8 4.7472869415214505E-4 0.0020702939377865116 0.9995252713058478 -0.0020702939377865116 0.9995252713058478 -0.0020702939377865116 4.7472869415214505E-4 0.0020702939377865116
1.0502940833173202E8 5.005129364684278E-4 0.0022092683775233085 0.9994994870635315 -0.0022092683775233085 0.9994994870635315 -0.0022092683775233085 5.005129364684278E-4 0.0022092683775233085
1.0733869157784502E8 5.300957800486933E-4 0.002354352036502637 0.9994699042199513 -0.002354352036502637 0.9994699042199513 -0.002354352036502637 5.300957800486933E-4 0.002354352036502637
1.0969874907086179E8 5.64646638353094E-4 0.0025067825419863633 0.9994353533616468 -0.0025067825419863633 0.9994353533616468 -0.0025067825419863633 5.64646638353094E-4 0.0025067825419863633
1.1211069718494405E8 6.058791647425885E-4 0.0026681393799601366 0.9993941208352575 -0.0026681393799601366 0.9993941208352575 -0.0026681393799601366 6.058791647425885E-4 0.0026681393799601366
1.1457567683999018E8 6.563836956079183E-4 0.002840444630229021 0.999343616304392 -0.002840444630229021 0.999343616304392 -0.002840444630229021 6.563836956079183E-4 0.002840444630229021
1.170948540413218E8 7.20213015677888E-4 0.003026262947529583 0.999279786984322 -0.003026262947529583 0.999279786984322 -0.003026262947529583 7.20213015677888E-4 0.003026262947529583
1.196694204312382E8 8.039518304507887E-4 0.003228719443384685 0.9991960481695493 -0.003228719443384685 0.9991960481695493 -0.003228719443384685 8.039518304507887E-4 0.003228719443384685
1.2230059385269621E8 9.187313791852836E-4 0.0034511483266904328 0.9990812686208148 -0.0034511483266904328 0.9990812686208148 -0.0034511483266904328 9.187313791852836E-4 0.0034511483266904328
1.249896189253852E8 0.001084075204927056 0.0036954017341947715 0.9989159247950732 -0.0036954017341947715 0.9989159247950732 -0.0036954017341947715 0.001084075204927056 0.0036954017341947715
1.2773776763446668E8 0.0013348865992761805 0.003955565585075958 0.9986651134007238 -0.003955565585075958 0.9986651134007238 -0.003955565585075958 0.0013348865992761805 0.003955565585075958
1.3054633993226036E8 0.00173054557359553 0.004196651994990992 0.9982694544264042 -0.004196651994990992 0.9982694544264042 -0.004196651994990992 0.00173054557359553 0.004196651994990992
1.3341666435315748E8 0.002341543512819888 0.004293106964272056 0.9976584564871801 -0.004293106964272056 0.9976584564871801 -0.004293106964272056 0.002341543512819888 0.004293106964272056
1.3635009864205602E8 0.0030883444066208913 0.00394856439478944 0.9969116555933791 -0.00394856439478944 0.9969116555933791 -0.00394856439478944 0.0030883444066208913 0.00394856439478944
1.393480303966124E8 0.0034055082004393546 0.003031487201151885 0.9965944917995606 -0.003031487201151885 0.9965944917995606 -0.003031487201151885 0.0034055082004393546 0.003031487201151885
1.424118777236141E8 0.0029194949345917806 0.0022647538845265843 0.997080505065408 -0.0022647538845265843 0.997080505065408 -0.0022647538845265843 0.0029194949345917806 0.0022647538845265843
1.4554308990978512E8 0.002235437376334664 0.002115124504213242 0.9977645626236653 -0.002115124504213242 0.9977645626236653 -0.002115124504213242 0.002235437376334664 0.002115124504213242
1.4874314810733896E8 0.0017560510360543791 0.0023045017442730425 0.9982439489639457 -0.0023045017442730425 0.9982439489639457 -0.0023045017442730425 0.0017560510360543791 0.0023045017442730425
1.520135660346065E8 0.001477297083640159 0.0025890493787492502 0.9985227029163599 -0.0025890493787492502 0.9985227029163599 -0.0025890493787492502 0.001477297083640159 0.0025890493787492502
1.5535589069206676E8 0.0013260372095565392 0.0028825621379260638 0.9986739627904433 -0.0028825621379260638 0.9986739627904433 -0.0028825621379260638 0.0013260372095565392 0.0028825621379260638
1.587717030941231E8 0.0012522771483255075 0.003164251362657086 0.9987477228516745 -0.003164251362657086 0.9987477228516745 -0.003164251362657086 0.0012522771483255075 0.003164251362657086
1.6226261901696673E8 0.0012286864778453942 0.0034328796108116493 0.9987713135221546 -0.0034328796108116493 0.9987713135221546 -0.0034328796108116493 0.0012286864778453942 0.0034328796108116493
1.6583028976288587E8 0.0012415045209805476 0.0036920689756902354 0.9987584954790194 -0.0036920689756902354 0.9987584954790194 -0.0036920689756902354 0.0012415045209805476 0.0036920689756902354
1.694764029413774E8 0.001284919343238661 0.003946032654899013 0.9987150806567613 -0.003946032654899013 0.9987150806567613 -0.003946032654899013 0.001284919343238661 0.003946032654899013
1.7320268326743537E8 0.0013583899770796503 0.004198286260268004 0.9986416100229205 -0.004198286260268004 0.9986416100229205 -0.004198286260268004 0.0013583899770796503 0.004198286260268004
1.770108933773886E8 0.0014657157950052028 0.004450945798302102 0.9985342842049949 -0.004450945798302102 0.9985342842049949 -0.004450945798302102 0.0014657157950052028 0.004450945798302102
1.8090283466267926E8 0.001615159765580389 0.004703602798423854 0.9983848402344193 -0.004703602798423854 0.9983848402344193 -0.004703602798423854 0.001615159765580389 0.004703602798423854
1.8488034812197065E8 0.0018201123509837855 0.004950857178184266 0.9981798876490163 -0.004950857178184266 0.9981798876490163 -0.004950857178184266 0.0018201123509837855 0.004950857178184266
1.889453152319933E8 0.0020992040439064864 0.005177090332727684 0.9979007959560934 -0.005177090332727684 0.9979007959560934 -0.005177090332727684 0.0020992040439064864 0.005177090332727684
1.9309965883753523E8 0.0024723860849991375 0.005346668443020626 0.9975276139150007 -0.005346668443020626 0.9975276139150007 -0.005346668443020626 0.0024723860849991375 0.005346668443020626
1.9734534406100377E8 0.0029436071614091816 0.005390890544072229 0.9970563928385907 -0.005390890544072229 0.9970563928385907 -0.005390890544072229 0.0029436071614091816 0.005390890544072229
2.016843792319826E8 0.0034560759328312297 0.0052107845605021815 0.9965439240671686 -0.0052107845605021815 0.9965439240671686 -0.0052107845605021815 0.0034560759328312297 0.0052107845605021815
2.0611881683723024E8 0.00384116641093849 0.004749843627218727 0.9961588335890614 -0.004749843627218727 0.9961588335890614 -0.004749843627218727 0.00384116641093849 0.004749843627218727
2.1065075449156287E8 0.0038902511378889914 0.0041341782314553155 0.9961097488621112 -0.0041341782314553155 0.9961097488621112 -0.0041341782314553155 0.0038902511378889914 0.0041341782314553155
2.152823359300873E8 0.0035839707913783475 0.003639446177230839 0.9964160292086218 -0.003639446177230839 0.9964160292086218 -0.003639446177230839 0.0035839707913783475 0.003639446177230839
2.2001575202224693E8 0.003118939031118693 0.0034234225691572914 0.9968810609688815 -0.0034234225691572914 0.9968810609688815 -0.0034234225691572914 0.003118939031118693 0.0034234225691572914
2.2485324180816674E8 0.0026798699673557603 0.003446504366976142 0.9973201300326442 -0.003446504366976142 0.9973201300326442 -0.003446504366976142 0.0026798699673557603 0.003446504366976142
2.297970935577811E8 0.0023370942445215207 0.0036073795456808455 0.9976629057554783 -0.0036073795456808455 0.9976629057554783 -0.0036073795456808455 0.0023370942445215207 0.0036073795456808455
2.3484964585325208E8 0.00209089299871419 0.00383087893381616 0.9979091070012859 -0.00383087893381616 0.9979091070012859 -0.00383087893381616 0.00209089299871419 0.00383087893381616
2.4001328869518417E8 0.0019209656514897148 0.004076744868456058 0.9980790343485104 -0.004076744868456058 0.9980790343485104 -0.004076744868456058 0.0019209656514897148 0.004076744868456058
2.452904646331621E8 0.001807020444226214 0.004326606219716009 0.9981929795557738 -0.004326606219716009 0.9981929795557738 -0.004326606219716009 0.001807020444226214 0.004326606219716009
2.5068366992114738E8 0.0017337194314365465 0.004573215474149486 0.9982662805685636 -0.004573215474149486 0.9982662805685636 -0.004573215474149486 0.0017337194314365465 0.004573215474149486
2.5619545569827557E8 0.0016906058285207268 0.004814520864627472 0.9983093941714791 -0.004814520864627472 0.9983093941714791 -0.004814520864627472 0.0016906058285207268 0.004814520864627472
2.6182842919561937E8 0.0016710944583394726 0.005050776213419735 0.9983289055416606 -0.005050776213419735 0.9983289055416606 -0.005050776213419735 0.0016710944583394726 0.005050776213419735
2.6758525496948078E8 0.001671715830136614 0.005283135794575952 0.9983282841698633 -0.005283135794575952 0.9983282841698633 -0.005283135794575952 0.001671715830136614 0.005283135794575952
2.7346865616180414E8 0.0016919390571804795 0.005512746567052014 0.9983080609428197 -0.005512746567052014 0.9983080609428197 -0.005512746567052014 0.0016919390571804795 0.005512746567052014
2.7948141578829724E8 0.0017347033594144004 0.005739370349758742 0.9982652966405854 -0.005739370349758742 0.9982652966405854 -0.005739370349758742 0.0017347033594144004 0.005739370349758742
2.8562637805487883E8 0.0018071693510852763 0.005957557141485318 0.9981928306489146 -0.005957557141485318 0.9981928306489146 -0.005957557141485318 0.0018071693510852763 0.005957557141485318
2.919064497030669E8 0.0019164112754851705 0.006146646812985547 0.9980835887245149 -0.006146646812985547 0.9980835887245149 -0.006146646812985547 0.0019164112754851705 0.006146646812985547
2.9832460138495153E8 0.00203907383269388 0.006264543759699149 0.9979609261673063 -0.006264543759699149 0.9979609261673063 -0.006264543759699149 0.00203907383269388 0.006264543759699149
3.0488386906839585E8 0.002088342718041652 0.006318401157358773 0.9979116572819584 -0.006318401157358773 0.9979116572819584 -0.006318401157358773 0.002088342718041652 0.006318401157358773
3.115873554731372E8 0.002050188218461306 0.006418866363747849 0.9979498117815385 -0.006418866363747849 0.9979498117815385 -0.006418866363747849 0.002050188218461306 0.006418866363747849
3.1843823153845906E8 0.0020151737156607606 0.006595167135162467 0.9979848262843393 -0.006595167135162467 0.9979848262843393 -0.006595167135162467 0.0020151737156607606 0.006595167135162467
3.254397379231378E8 0.0020193681812267533 0.006803185624924276 0.9979806318187734 -0.006803185624924276 0.9979806318187734 -0.006803185624924276 0.0020193681812267533 0.006803185624924276
3.3259518653836393E8 0.002058013789783719 0.007015352088193382 0.9979419862102163 -0.007015352088193382 0.9979419862102163 -0.007015352088193382 0.002058013789783719 0.007015352088193382
3.399079621143724E8 0.0021231408988026954 0.007220786501882051 0.9978768591011974 -0.007220786501882051 0.9978768591011974 -0.007220786501882051 0.0021231408988026954 0.007220786501882051
3.4738152380151355E8 0.002209817216676773 0.007413335265078602 0.9977901827833231 -0.007413335265078602 0.9977901827833231 -0.007413335265078602 0.002209817216676773 0.007413335265078602
3.55019406806532E8 0.0023140868502477467 0.007586553845769454 0.9976859131497522 -0.007586553845769454 0.9976859131497522 -0.007586553845769454 0.0023140868502477467 0.007586553845769454
3.628252240648171E8 0.002429839190590225 0.00773265262703341 0.99757016080941 -0.00773265262703341 0.99757016080941 -0.00773265262703341 0.002429839190590225 0.00773265262703341
3.7080266794942653E8 0.0025457938381789973 0.007844312091954143 0.9974542061618211 -0.007844312091954143 0.9974542061618211 -0.007844312091954143 0.0025457938381789973 0.007844312091954143
3.7895551201768076E8 0.0026444487858915057 0.007919541573157812 0.9973555512141085 -0.007919541573157812 0.9973555512141085 -0.007919541573157812 0.0026444487858915057 0.007919541573157812
3.872876127961658E8 0.002706212967721431 0.007967586258037191 0.9972937870322784 -0.007967586258037191 0.9972937870322784 -0.007967586258037191 0.002706212967721431 0.007967586258037191
3.958029116049765E8 0.0027190740624739064 0.008009777534516987 0.9972809259375262 -0.008009777534516987 0.9972809259375262 -0.008009777534516987 0.0027190740624739064 0.008009777534516987
4.045054364220755E8 0.002686423096456919 0.008070925490842864 0.9973135769035432 -0.008070925490842864 0.9973135769035432 -0.008070925490842864 0.002686423096456919 0.008070925490842864
4.133993037886401E8 0.0026245474519316914 0.00816740617437869 0.9973754525480681 -0.00816740617437869 0.9973754525480681 -0.00816740617437869 0.0026245474519316914 0.00816740617437869
4.224887207563015E8 0.002552546351447831 0.00830257219620943 0.9974474536485524 -0.00830257219620943 0.9974474536485524 -0.00830257219620943 0.002552546351447831 0.00830257219620943
4.3177798687720305E8 0.00248441811692418 0.008470733485338456 0.9975155818830758 -0.008470733485338456 0.9975155818830758 -0.008470733485338456 0.00248441811692418 0.008470733485338456
4.412714962378064E8 0.0024272868487162477 0.008663259732904643 0.9975727131512838 -0.008663259732904643 0.9975727131512838 -0.008663259732904643 0.0024272868487162477 0.008663259732904643
4.509737395374229E8 0.002383233646568624 0.008872370548863378 0.9976167663534313 -0.008872370548863378 0.9976167663534313 -0.008872370548863378 0.002383233646568624 0.008872370548863378
4.608893062124383E8 0.0023516447168645486 0.009092366216442363 0.9976483552831353 -0.009092366216442363 0.9976483552831353 -0.009092366216442363 0.0023516447168645486 0.009092366216442363
4.710228866072497E8 0.002330836711656431 0.009319523665269362 0.9976691632883437 -0.009319523665269362 0.9976691632883437 -0.009319523665269362 0.002330836711656431 0.009319523665269362
4.813792741929282E8 0.0023189156656532126 0.009551594536297111 0.9976810843343465 -0.009551594536297111 0.9976810843343465 -0.009551594536297111 0.0023189156656532126 0.009551594536297111
4.9196336783467036E8 0.002314145958985748 0.009787316921533408 0.9976858540410142 -0.009787316921533408 0.9976858540410142 -0.009787316921533408 0.002314145958985748 0.009787316921533408
5.027801741090964E8 0.00231506718590551 0.010026051623897837 0.9976849328140945 -0.010026051623897837 0.9976849328140945 -0.010026051623897837 0.00231506718590551 0.010026051623897837
5.138348096725073E8 0.002320499746700728 0.01026753919381831 0.9976795002532993 -0.01026753919381831 0.9976795002532993 -0.01026753919381831 0.002320499746700728 0.01026753919381831
5.251325036812042E8 0.0023295096303831415 0.010511746115286932 0.9976704903696169 -0.010511746115286932 0.9976704903696169 -0.010511746115286932 0.0023295096303831415 0.010511746115286932
5.366786002650318E8 0.0023413638165943086 0.010758770179100001 0.9976586361834058 -0.010758770179100001 0.9976586361834058 -0.010758770179100001 0.0023413638165943086 0.010758770179100001
5.484785610552993E8 0.0023554886510455436 0.011008783239225313 0.9976445113489544 -0.011008783239225313 0.9976445113489544 -0.011008783239225313 0.0023554886510455436 0.011008783239225313
5.605379677682909E8 0.0023714350061329595 0.011261997002383572 0.9976285649938673 -0.011261997002383572 0.9976285649938673 -0.011261997002383572 0.0023714350061329595 0.011261997002383572
5.728625248455725E8 0.002388850544249861 0.011518642834426454 0.9976111494557504 -0.011518642834426454 0.9976111494557504 -0.011518642834426454 0.002388850544249861 0.011518642834426454
5.85458062152358E8 0.0024074581727571787 0.011778960042458072 0.9975925418272428 -0.011778960042458072 0.9975925418272428 -0.011778960042458072 0.0024074581727571787 0.011778960042458072
5.983305377351968E8 0.0024270395016843227 0.012043189261318372 0.9975729604983156 -0.012043189261318372 0.9975729604983156 -0.012043189261318372 0.0024270395016843227 0.012043189261318372
6.114860406403036E8 0.0024474221971769535 0.012311568900750665 0.9975525778028231 -0.012311568900750665 0.9975525778028231 -0.012311568900750665 0.0024474221971769535 0.012311568900750665
6.249307937938449E8 0.0024684703130693196 0.012584333415282211 0.9975315296869307 -0.012584333415282211 0.9975315296869307 -0.012584333415282211 0.0024684703130693196 0.012584333415282211
6.38671156945565E8 0.0024900768795873625 0.012861712646745143 0.9975099231204124 -0.012861712646745143 0.9975099231204124 -0.012861712646745143 0.0024900768795873625 0.012861712646745143
6.527136296771228E8 0.0025121581978604975 0.013143931785143559 0.9974878418021396 -0.013143931785143559 0.9974878418021396 -0.013143931785143559 0.0025121581978604975 0.013143931785143559
6.670648544765838E8 0.0025346494244374612 0.013431211673346271 0.9974653505755625 -0.013431211673346271 0.9974653505755625 -0.013431211673346271 0.0025346494244374612 0.013431211673346271
6.817316198804996E8 0.002557501134172207 0.013723769290657512 0.9974424988658279 -0.013723769290657512 0.9974424988658279 -0.013723769290657512 0.002557501134172207 0.013723769290657512
6.967208636850835E8 0.0025806766283358916 0.014021818317247558 0.9974193233716642 -0.014021818317247558 0.9974193233716642 -0.014021818317247558 0.0025806766283358916 0.014021818317247558
7.120396762279826E8 0.002604149813356016 0.01432556972233354 0.9973958501866439 -0.01432556972233354 0.9973958501866439 -0.01432556972233354 0.002604149813356016 0.01432556972233354
7.276953037422075E8 0.002627903519062952 0.014635232343962992 0.9973720964809372 -0.014635232343962992 0.9973720964809372 -0.014635232343962992 0.002627903519062952 0.014635232343962992
7.436951517838094E8 0.0026519281575894385 0.014951013443406463 0.9973480718424106 -0.014951013443406463 0.9973480718424106 -0.014951013443406463 0.0026519281575894385 0.014951013443406463
7.600467887349143E8 0.002676220648048072 0.015273119226271134 0.9973237793519519 -0.015273119226271134 0.9973237793519519 -0.015273119226271134 0.002676220648048072 0.015273119226271134
7.767579493837869E8 0.002700783549986109 0.015601755327822384 0.9972992164500138 -0.015601755327822384 0.9972992164500138 -0.015601755327822384 0.002700783549986109 0.015601755327822384
7.938365385836E8 0.0027256243619925543 0.01593712726307641 0.9972743756380074 -0.01593712726307641 0.9972743756380074 -0.01593712726307641 0.0027256243619925543 0.01593712726307641
8.112906349916599E8 0.002750754951887303 0.016279440843896854 0.9972492450481127 -0.016279440843896854 0.9972492450481127 -0.016279440843896854 0.002750754951887303 0.016279440843896854
8.291284948908345E8 0.002776191092517511 0.01662890256614284 0.9972238089074826 -0.01662890256614284 0.9972238089074826 -0.01662890256614284 0.002776191092517511 0.01662890256614284
8.473585560950154E8 0.002801952082953765 0.016985719970223644 0.9971980479170461 -0.016985719970223644 0.9971980479170461 -0.016985719970223644 0.002801952082953765 0.016985719970223644
8.659894419404376E8 0.0028280604392807857 0.017350101978427648 0.9971719395607193 -0.017350101978427648 0.9971719395607193 -0.017350101978427648 0.0028280604392807857 0.017350101978427648
8.850299653647679E8 0.002854541642555697 0.017722259212245288 0.9971454583574443 -0.017722259212245288 0.9971454583574443 -0.017722259212245288 0.002854541642555697 0.017722259212245288
9.044891330758685E8 0.0028814239341130835 0.018102404292676903 0.9971185760658867 -0.018102404292676903 0.9971185760658867 -0.018102404292676903 0.0028814239341130835 0.018102404292676903
9.243761498122317E8 0.002908738150417595 0.018490752126257913 0.9970912618495826 -0.018490752126257913 0.9970912618495826 -0.018490752126257913 0.002908738150417595 0.018490752126257913
9.447004226970757E8 0.0029365175912410358 0.018887520179271113 0.9970634824087591 -0.018887520179271113 0.9970634824087591 -0.018887520179271113 0.0029365175912410358 0.018887520179271113
9.654715656881882E8 0.0029647979161767455 0.0192929287423697 0.9970352020838233 -0.0192929287423697 0.9970352020838233 -0.0192929287423697 0.0029647979161767455 0.0192929287423697
9.86699404125593E8 0.002993617065477919 0.019707201187608325 0.9970063829345219 -0.019707201187608325 0.9970063829345219 -0.019707201187608325 0.002993617065477919 0.019707201187608325
1.0083939793792233E9 0.003023015201978652 0.020130564219681873 0.9969769847980212 -0.020130564219681873 0.9969769847980212 -0.020130564219681873 0.003023015201978652 0.020130564219681873
1.0305655535987662E9 0.003053034671471662 0.020563248122998642 0.9969469653285281 -0.020563248122998642 0.9969469653285281 -0.020563248122998642 0.003053034671471662 0.020563248122998642
1.0532246145679587E9 0.0030837199794101545 0.021005487006070328 0.9969162800205897 -0.021005487006070328 0.9969162800205897 -0.021005487006070328 0.0030837199794101545 0.021005487006070328
1.0763818806655989E9 0.003115117782199284 0.021457519044579303 0.9968848822178006 -0.021457519044579303 0.9968848822178006 -0.021457519044579303 0.003115117782199284 0.021457519044579303
1.1000483059356515E9 0.0031472768916662656 0.021919586724387704 0.9968527231083337 -0.021919586724387704 0.9968527231083337 -0.021919586724387704 0.0031472768916662656 0.021919586724387704
1.1242350852688138E9 0.0031802482915628187 0.02239193708567434 0.9968197517084373 -0.02239193708567434 0.9968197517084373 -0.02239193708567434 0.0031802482915628187 0.02239193708567434
1.148953659698024E9 0.00321408516517236 0.022874821969330033 0.9967859148348277 -0.022874821969330033 0.9967859148348277 -0.022874821969330033 0.00321408516517236 0.022874821969330033
1.1742157218103864E9 0.0032488429332764167 0.02336849826670002 0.9967511570667238 -0.02336849826670002 0.9967511570667238 -0.02336849826670002 0.0032488429332764167 0.02336849826670002
1.2000332212781043E9 0.0032845793018883365 0.023873228173740033 0.9967154206981118 -0.023873228173740033 0.9967154206981118 -0.023873228173740033 0.0032845793018883365 0.023873228173740033
1.2264183705110114E9 0.0033213543192932246 0.024389279450641673 0.9966786456807067 -0.024389279450641673 0.9966786456807067 -0.024389279450641673 0.0033213543192932246 0.024389279450641673
1.2533836504333837E9 0.003359230442046446 0.024916925687988305 0.9966407695579537 -0.024916925687988305 0.9966407695579537 -0.024916925687988305 0.003359230442046446 0.024916925687988305
1.28094181638778E9 0.0033982726096826667 0.025456446580519907 0.9966017273903173 -0.025456446580519907 0.9966017273903173 -0.025456446580519907 0.0033982726096826667 0.025456446580519907
1.3091059041686702E9 0.0034385483279766164 0.02600812820961462 0.9965614516720233 -0.02600812820961462 0.9965614516720233 -0.02600812820961462 0.0034385483279766164 0.02600812820961462
1.3378892361887472E9 0.0034801277606783163 0.0265722633356376 0.9965198722393217 -0.0265722633356376 0.9965198722393217 -0.0265722633356376 0.0034801277606783163 0.0265722633356376
1.3673054277807946E9 0.003523083829721382 0.027149151701360588 0.9964769161702784 -0.027149151701360588 0.9964769161702784 -0.027149151701360588 0.003523083829721382 0.027149151701360588
1.3973683936381366E9 0.0035674923239755983 0.027739100347722673 0.9964325076760242 -0.027739100347722673 0.9964325076760242 -0.027739100347722673 0.0035674923239755983 0.027739100347722673
1.4280923543966727E9 0.003613432016685179 0.028342423943279446 0.9963865679833149 -0.028342423943279446 0.9963865679833149 -0.028342423943279446 0.003613432016685179 0.028342423943279446
1.4594918433616517E9 0.0036609847918044466 0.028959445128780067 0.9963390152081953 -0.028959445128780067 0.9963390152081953 -0.028959445128780067 0.0036609847918044466 0.028959445128780067
1.4915817133823266E9 0.003710235779513473 0.029590494878414142 0.9962897642204863 -0.029590494878414142 0.9962897642204863 -0.029590494878414142 0.003710235779513473 0.029590494878414142
1.5243771438777854E9 0.0037612735012696164 0.03023591287939026 0.9962387264987302 -0.03023591287939026 0.9962387264987302 -0.03023591287939026 0.0037612735012696164 0.03023591287939026
1.5578936480172365E9 0.003814190024827536 0.030896047931638956 0.9961858099751726 -0.030896047931638956 0.9961858099751726 -0.030896047931638956 0.003814190024827536 0.030896047931638956
1.5921470800581872E9 0.003869081129741962 0.03157125836958479 0.9961309188702582 -0.03157125836958479 0.9961309188702582 -0.03157125836958479 0.003869081129741962 0.03157125836958479
1.6271536428459477E9 0.00392604648395489 0.03226191250809653 0.9960739535160451 -0.03226191250809653 0.9960739535160451 -0.03226191250809653 0.00392604648395489 0.03226191250809653
1.662929895478048E9 0.003985189832164065 0.032968389114912844 0.9960148101678358 -0.032968389114912844 0.9960148101678358 -0.032968389114912844 0.003985189832164065 0.032968389114912844
1.6994927611371486E9 0.004046619196773209 0.033691077912046424 0.9959533808032265 -0.033691077912046424 0.9959533808032265 -0.033691077912046424 0.004046619196773209 0.033691077912046424
1.736859535096198E9 0.004110447092338826 0.03443038010890112 0.9958895529076612 -0.03443038010890112 0.9958895529076612 -0.03443038010890112 0.004110447092338826 0.03443038010890112
1.7750478928995762E9 0.004176790754554453 0.03518670897009156 0.9958232092454455 -0.03518670897009156 0.9958232092454455 -0.03518670897009156 0.004176790754554453 0.03518670897009156
1.8140758987241406E9 0.004245772384953473 0.035960490421240984 0.9957542276150464 -0.035960490421240984 0.9957542276150464 -0.035960490421240984 0.004245772384953473 0.035960490421240984
1.8539620139240813E9 0.004317519412667533 0.036752163696346776 0.9956824805873324 -0.036752163696346776 0.9956824805873324 -0.036752163696346776 0.004317519412667533 0.036752163696346776
1.894725105763679E9 0.004392164774752085 0.03756218203065752 0.9956078352252479 -0.03756218203065752 0.9956078352252479 -0.03756218203065752 0.004392164774752085 0.03756218203065752
1.936384456342043E9 0.004469847216785521 0.038391013403393535 0.9955301527832143 -0.038391013403393535 0.9955301527832143 -0.038391013403393535 0.004469847216785521 0.038391013403393535
1.9789597717141047E9 0.0045507116156674535 0.039239141335080586 0.9954492883843327 -0.039239141335080586 0.9954492883843327 -0.039239141335080586 0.0045507116156674535 0.039239141335080586
2.0224711912121265E9 0.004634909326787384 0.040107065744748656 0.9953650906732123 -0.040107065744748656 0.9953650906732123 -0.040107065744748656 0.004634909326787384 0.040107065744748656
2.0669392969721904E9 0.004722598558011918 0.040995303872791086 0.995277401441988 -0.040995303872791086 0.995277401441988 -0.040995303872791086 0.004722598558011918 0.040995303872791086
2.1123851236701267E9 0.004813944773250113 0.041904391275880484 0.9951860552267501 -0.041904391275880484 0.9951860552267501 -0.041904391275880484 0.004813944773250113 0.041904391275880484
2.1588301684715075E9 0.004909121128708285 0.042834882901014636 0.9950908788712914 -0.042834882901014636 0.9950908788712914 -0.042834882901014636 0.004909121128708285 0.042834882901014636
2.2062964012004275E9 0.00500830894534254 0.04378735424652123 0.9949916910546576 -0.04378735424652123 0.9949916910546576 -0.04378735424652123 0.00500830894534254 0.04378735424652123
2.254806274731842E9 0.005111698221465974 0.04476240261869695 0.9948883017785342 -0.04476240261869695 0.9948883017785342 -0.04476240261869695 0.005111698221465974 0.04476240261869695
2.304382735612426E9 0.005219488189975743 0.045760648493710594 0.9947805118100244 -0.045760648493710594 0.9947805118100244 -0.045760648493710594 0.005219488189975743 0.045760648493710594
2.355049234914927E9 0.005331887925240568 0.04678273699546998 0.9946681120747596 -0.04678273699546998 0.9946681120747596 -0.04678273699546998 0.005331887925240568 0.04678273699546998
2.4068297393312078E9 0.005449117005342843 0.047829339501363255 0.9945508829946572 -0.047829339501363255 0.9945508829946572 -0.047829339501363255 0.005449117005342843 0.047829339501363255
2.459748742509148E9 0.005571406236111614 0.048901155389148715 0.9944285937638885 -0.048901155389148715 0.9944285937638885 -0.048901155389148715 0.005571406236111614 0.048901155389148715
2.513831276638858E9 0.005698998444227689 0.04999891393981639 0.9943010015557725 -0.04999891393981639 0.9943010015557725 -0.04999891393981639 0.005698998444227689 0.04999891393981639
2.5691029242935953E9 0.00583214934764512 0.05112337641299715 0.9941678506523549 -0.05112337641299715 0.9941678506523549 -0.05112337641299715 0.00583214934764512 0.05112337641299715
2.625589830531065E9 0.005971128512673204 0.052275338313494055 0.994028871487327 -0.052275338313494055 0.994028871487327 -0.052275338313494055 0.005971128512673204 0.052275338313494055
2.683318715260754E9 0.0061162204083212825 0.05345563186978402 0.9938837795916787 -0.05345563186978402 0.9938837795916787 -0.05345563186978402 0.0061162204083212825 0.05345563186978402
2.742316885883232E9 0.006267725569951681 0.05466512874794243 0.9937322744300483 -0.05466512874794243 0.9937322744300483 -0.05466512874794243 0.006267725569951681 0.05466512874794243
2.802612250207299E9 0.006425961885943621 0.0559047430274202 0.9935740381140563 -0.0559047430274202 0.9935740381140563 -0.0559047430274202 0.006425961885943621 0.0559047430274202
2.8642333296511955E9 0.006591266022981138 0.05717543446853135 0.9934087339770189 -0.05717543446853135 0.9934087339770189 -0.05717543446853135 0.006591266022981138 0.05717543446853135
2.927209272734021E9 0.006763995007783103 0.058478212105448985 0.993236004992217 -0.058478212105448985 0.993236004992217 -0.058478212105448985 0.006763995007783103 0.058478212105448985
2.9915698688638325E9 0.006944527985647893 0.059814138203065796 0.9930554720143522 -0.059814138203065796 0.9930554720143522 -0.059814138203065796 0.006944527985647893 0.059814138203065796
3.0573455624288564E9 0.00713326817915125 0.06118433262134734 0.992866731820849 -0.06118433262134734 0.992866731820849 -0.06118433262134734 0.00713326817915125 0.06118433262134734
3.1245674671985717E9 0.007330645073792003 0.06258997763693487 0.9926693549262079 -0.06258997763693487 0.9926693549262079 -0.06258997763693487 0.007330645073792003 0.06258997763693487
3.193267381041383E9 0.007537116861418793 0.06403232327888582 0.9924628831385812 -0.06403232327888582 0.9924628831385812 -0.06403232327888582 0.007537116861418793 0.06403232327888582
3.263477800965937E9 0.007753173177007457 0.06551269324377396 0.9922468268229926 -0.06551269324377396 0.9922468268229926 -0.06551269324377396 0.007753173177007457 0.06551269324377396
3.3352319384931064E9 0.007979338169932215 0.06703249146513086 0.9920206618300678 -0.06703249146513086 0.9920206618300678 -0.06703249146513086 0.007979338169932215 0.06703249146513086
3.4085637353660073E9 0.008216173957456498 0.06859320942367726 0.9917838260425436 -0.06859320942367726 0.9917838260425436 -0.06859320942367726 0.008216173957456498 0.06859320942367726
3.483507879605378E9 0.008464284515973024 0.0701964342983038 0.991535715484027 -0.0701964342983038 0.991535715484027 -0.0701964342983038 0.008464284515973024 0.0701964342983038
3.560099821918024E9 0.00872432007481037 0.07184385807373805 0.9912756799251895 -0.07184385807373805 0.9912756799251895 -0.07184385807373805 0.00872432007481037 0.07184385807373805
3.6383757924659963E9 0.008996982088519668 0.07353728773977036 0.9910030179114805 -0.07353728773977036 0.9910030179114805 -0.07353728773977036 0.008996982088519668 0.07353728773977036
3.718372818004475E9 0.00928302887686877 0.07527865673944927 0.9907169711231313 -0.07527865673944927 0.9907169711231313 -0.07527865673944927 0.00928302887686877 0.07527865673944927
3.8001287393965015E9 0.009583282037810704 0.07707003785055361 0.9904167179621892 -0.07707003785055361 0.9904167179621892 -0.07707003785055361 0.009583282037810704 0.07707003785055361
3.883682229512751E9 0.009898633758100184 0.07891365771686167 0.9901013662418998 -0.07891365771686167 0.9901013662418998 -0.07891365771686167 0.009898633758100184 0.07891365771686167
3.9690728115249267E9 0.010230055169818746 0.08081191328446478 0.9897699448301813 -0.08081191328446478 0.9897699448301813 -0.08081191328446478 0.010230055169818746 0.08081191328446478
4.0563408776013117E9 0.010578605929863538 0.08276739044508391 0.9894213940701365 -0.08276739044508391 0.9894213940701365 -0.08276739044508391 0.010578605929863538 0.08276739044508391
4.145527708013441E9 0.010945445234774486 0.08478288524492351 0.9890545547652254 -0.08478288524492351 0.9890545547652254 -0.08478288524492351 0.010945445234774486 0.08478288524492351
4.236675490662812E9 0.011331844526803655 0.08686142808637344 0.9886681554731966 -0.08686142808637344 0.9886681554731966 -0.08686142808637344 0.011331844526803655 0.08686142808637344
4.329827341036987E9 0.011739202201048193 0.08900631143384208 0.9882607977989516 -0.08900631143384208 0.9882607977989516 -0.08900631143384208 0.011739202201048193 0.08900631143384208
4.425027322604416E9 0.012169060690595182 0.09122112163795683 0.9878309393094048 -0.09122112163795683 0.9878309393094048 -0.09122112163795683 0.012169060690595182 0.09122112163795683
4.522320467657732E9 0.012623126390649652 0.09350977561917134 0.9873768736093503 -0.09350977561917134 0.9873768736093503 -0.09350977561917134 0.012623126390649652 0.09350977561917134
4.621752798615277E9 0.013103292988375457 0.09587656330873809 0.9868967070116246 -0.09587656330873809 0.9868967070116246 -0.09587656330873809 0.013103292988375457 0.09587656330873809
4.723371349791044E9 0.013611668899072183 0.09832619694015293 0.9863883311009277 -0.09832619694015293 0.9863883311009277 -0.09832619694015293 0.013611668899072183 0.09832619694015293
4.827224189643206E9 0.014150609679859419 0.1008638685281363 0.9858493903201406 -0.1008638685281363 0.9858493903201406 -0.1008638685281363 0.014150609679859419 0.1008638685281363
4.933360443511896E9 0.014722756510673372 0.10349531717887801 0.9852772434893267 -0.10349531717887801 0.9852772434893267 -0.10349531717887801 0.014722756510673372 0.10349531717887801
5.041830316856853E9 0.01533108211454425 0.10622690826296086 0.9846689178854557 -0.10622690826296086 0.9846689178854557 -0.10622690826296086 0.01533108211454425 0.10622690826296086
5.1526851190060625E9 0.015978945855874692 0.10906572697551294 0.9840210541441253 -0.10906572697551294 0.9840210541441253 -0.10906572697551294 0.015978945855874692 0.10906572697551294
5.265977287426491E9 0.01667016023571664 0.11201968943939379 0.9833298397642832 -0.11201968943939379 0.9833298397642832 -0.11201968943939379 0.01667016023571664 0.11201968943939379
5.381760412528531E9 0.017409071637004107 0.11509767532077934 0.9825909283629958 -0.11509767532077934 0.9825909283629958 -0.11509767532077934 0.017409071637004107 0.11509767532077934
5.500089263015748E9 0.018200659016580873 0.11830968698247889 0.981799340983419 -0.11830968698247889 0.981799340983419 -0.11830968698247889 0.018200659016580873 0.11830968698247889
5.621019811792071E9 0.01905065537427257 0.12166704158130302 0.9809493446257276 -0.12166704158130302 0.9809493446257276 -0.12166704158130302 0.01905065537427257 0.12166704158130302
5.744609262438524E9 0.01996569836607249 0.1251826043362018 0.9800343016339276 -0.1251826043362018 0.9800343016339276 -0.1251826043362018 0.01996569836607249 0.1251826043362018
5.870916076272184E9 0.02095351853358939 0.12887107361381825 0.9790464814664106 -0.12887107361381825 0.9790464814664106 -0.12887107361381825 0.02095351853358939 0.12887107361381825
6.0E9 0.0220231765367947 0.13274933172368786 0.9779768234632054 -0.13274933172368786 0.9779768234632054 -0.13274933172368786 0.0220231765367947 0.13274933172368786
