!Murata Part Number: LQH32PB4R7_N0
!These Parameters are Measured in Series Mode Connection
! o--[L]--o
!Port1 Port2
! o-------o
!
# Hz S RI R 50
!Freq.(Hz) S11(Real) S11(Imag) S21(Real) S21(Imag) S12(Real) S12(Imag) S22(Real) S22(Imag)
100000 0.0028264 0.0272900 0.9971736 -0.0272900 0.9971736 -0.0272900 0.0028264 0.0272900
103564 0.0029240 0.0282398 0.9970760 -0.0282398 0.9970760 -0.0282398 0.0029240 0.0282398
107254 0.0029904 0.0292462 0.9970096 -0.0292462 0.9970096 -0.0292462 0.0029904 0.0292462
111076 0.0030685 0.0302808 0.9969315 -0.0302808 0.9969315 -0.0302808 0.0030685 0.0302808
115034 0.0031754 0.0313313 0.9968246 -0.0313313 0.9968246 -0.0313313 0.0031754 0.0313313
119134 0.0032993 0.0324344 0.9967007 -0.0324344 0.9967007 -0.0324344 0.0032993 0.0324344
123379 0.0034010 0.0335827 0.9965990 -0.0335827 0.9965990 -0.0335827 0.0034010 0.0335827
127776 0.0035040 0.0347366 0.9964960 -0.0347366 0.9964960 -0.0347366 0.0035040 0.0347366
132329 0.0036457 0.0359604 0.9963543 -0.0359604 0.9963543 -0.0359604 0.0036457 0.0359604
137045 0.0037546 0.0372147 0.9962454 -0.0372147 0.9962454 -0.0372147 0.0037546 0.0372147
141929 0.0038977 0.0385026 0.9961023 -0.0385026 0.9961023 -0.0385026 0.0038977 0.0385026
146986 0.0040509 0.0398648 0.9959491 -0.0398648 0.9959491 -0.0398648 0.0040509 0.0398648
152224 0.0041997 0.0412305 0.9958003 -0.0412305 0.9958003 -0.0412305 0.0041997 0.0412305
157649 0.0043949 0.0426839 0.9956051 -0.0426839 0.9956051 -0.0426839 0.0043949 0.0426839
163267 0.0045650 0.0441598 0.9954350 -0.0441598 0.9954350 -0.0441598 0.0045650 0.0441598
169085 0.0047389 0.0457056 0.9952611 -0.0457056 0.9952611 -0.0457056 0.0047389 0.0457056
175110 0.0049463 0.0472963 0.9950537 -0.0472963 0.9950537 -0.0472963 0.0049463 0.0472963
181350 0.0051459 0.0489487 0.9948541 -0.0489487 0.9948541 -0.0489487 0.0051459 0.0489487
187813 0.0053667 0.0506450 0.9946333 -0.0506450 0.9946333 -0.0506450 0.0053667 0.0506450
194506 0.0056393 0.0523832 0.9943607 -0.0523832 0.9943607 -0.0523832 0.0056393 0.0523832
201437 0.0058500 0.0542092 0.9941500 -0.0542092 0.9941500 -0.0542092 0.0058500 0.0542092
208615 0.0061403 0.0561049 0.9938597 -0.0561049 0.9938597 -0.0561049 0.0061403 0.0561049
216049 0.0064071 0.0580440 0.9935929 -0.0580440 0.9935929 -0.0580440 0.0064071 0.0580440
223749 0.0067271 0.0600489 0.9932729 -0.0600489 0.9932729 -0.0600489 0.0067271 0.0600489
231722 0.0070636 0.0621310 0.9929364 -0.0621310 0.9929364 -0.0621310 0.0070636 0.0621310
239979 0.0074171 0.0642577 0.9925829 -0.0642577 0.9925829 -0.0642577 0.0074171 0.0642577
248531 0.0077766 0.0664804 0.9922234 -0.0664804 0.9922234 -0.0664804 0.0077766 0.0664804
257388 0.0081386 0.0687815 0.9918614 -0.0687815 0.9918614 -0.0687815 0.0081386 0.0687815
266560 0.0085547 0.0711565 0.9914453 -0.0711565 0.9914453 -0.0711565 0.0085547 0.0711565
276059 0.0090230 0.0735998 0.9909770 -0.0735998 0.9909770 -0.0735998 0.0090230 0.0735998
285897 0.0094696 0.0761082 0.9905304 -0.0761082 0.9905304 -0.0761082 0.0094696 0.0761082
296085 0.0099739 0.0787434 0.9900261 -0.0787434 0.9900261 -0.0787434 0.0099739 0.0787434
306636 0.0105096 0.0814355 0.9894904 -0.0814355 0.9894904 -0.0814355 0.0105096 0.0814355
317563 0.0110821 0.0842035 0.9889179 -0.0842035 0.9889179 -0.0842035 0.0110821 0.0842035
328879 0.0116534 0.0870845 0.9883466 -0.0870845 0.9883466 -0.0870845 0.0116534 0.0870845
340599 0.0123244 0.0900932 0.9876756 -0.0900932 0.9876756 -0.0900932 0.0123244 0.0900932
352737 0.0129654 0.0931572 0.9870346 -0.0931572 0.9870346 -0.0931572 0.0129654 0.0931572
365307 0.0136951 0.0963595 0.9863049 -0.0963595 0.9863049 -0.0963595 0.0136951 0.0963595
378325 0.0144854 0.0996263 0.9855146 -0.0996263 0.9855146 -0.0996263 0.0144854 0.0996263
391806 0.0153107 0.1029593 0.9846893 -0.1029593 0.9846893 -0.1029593 0.0153107 0.1029593
405769 0.0161989 0.1064640 0.9838011 -0.1064640 0.9838011 -0.1064640 0.0161989 0.1064640
420228 0.0171143 0.1100447 0.9828857 -0.1100447 0.9828857 -0.1100447 0.0171143 0.1100447
435204 0.0180866 0.1137640 0.9819134 -0.1137640 0.9819134 -0.1137640 0.0180866 0.1137640
450712 0.0191503 0.1176182 0.9808497 -0.1176182 0.9808497 -0.1176182 0.0191503 0.1176182
466774 0.0202176 0.1215635 0.9797824 -0.1215635 0.9797824 -0.1215635 0.0202176 0.1215635
483407 0.0214734 0.1256365 0.9785266 -0.1256365 0.9785266 -0.1256365 0.0214734 0.1256365
500634 0.0226784 0.1298445 0.9773216 -0.1298445 0.9773216 -0.1298445 0.0226784 0.1298445
518474 0.0240872 0.1341755 0.9759128 -0.1341755 0.9759128 -0.1341755 0.0240872 0.1341755
536950 0.0255169 0.1386252 0.9744831 -0.1386252 0.9744831 -0.1386252 0.0255169 0.1386252
556085 0.0270119 0.1431945 0.9729881 -0.1431945 0.9729881 -0.1431945 0.0270119 0.1431945
575901 0.0286375 0.1479167 0.9713625 -0.1479167 0.9713625 -0.1479167 0.0286375 0.1479167
596424 0.0304031 0.1528040 0.9695969 -0.1528040 0.9695969 -0.1528040 0.0304031 0.1528040
617678 0.0322311 0.1578200 0.9677689 -0.1578200 0.9677689 -0.1578200 0.0322311 0.1578200
639689 0.0341645 0.1630238 0.9658355 -0.1630238 0.9658355 -0.1630238 0.0341645 0.1630238
662485 0.0363132 0.1682781 0.9636868 -0.1682781 0.9636868 -0.1682781 0.0363132 0.1682781
686093 0.0385159 0.1737457 0.9614841 -0.1737457 0.9614841 -0.1737457 0.0385159 0.1737457
710542 0.0408300 0.1793778 0.9591700 -0.1793778 0.9591700 -0.1793778 0.0408300 0.1793778
735863 0.0434139 0.1850458 0.9565861 -0.1850458 0.9565861 -0.1850458 0.0434139 0.1850458
762086 0.0460425 0.1909215 0.9539575 -0.1909215 0.9539575 -0.1909215 0.0460425 0.1909215
789243 0.0488067 0.1970452 0.9511933 -0.1970452 0.9511933 -0.1970452 0.0488067 0.1970452
817368 0.0518614 0.2032252 0.9481386 -0.2032252 0.9481386 -0.2032252 0.0518614 0.2032252
846496 0.0550693 0.2095345 0.9449307 -0.2095345 0.9449307 -0.2095345 0.0550693 0.2095345
876661 0.0584578 0.2160088 0.9415422 -0.2160088 0.9415422 -0.2160088 0.0584578 0.2160088
907901 0.0619505 0.2226724 0.9380495 -0.2226724 0.9380495 -0.2226724 0.0619505 0.2226724
940255 0.0658242 0.2293718 0.9341758 -0.2293718 0.9341758 -0.2293718 0.0658242 0.2293718
973762 0.0698826 0.2363494 0.9301174 -0.2363494 0.9301174 -0.2363494 0.0698826 0.2363494
1008462 0.0742045 0.2433854 0.9257955 -0.2433854 0.9257955 -0.2433854 0.0742045 0.2433854
1044399 0.0786776 0.2505105 0.9213224 -0.2505105 0.9213224 -0.2505105 0.0786776 0.2505105
1081617 0.0835626 0.2578154 0.9164374 -0.2578154 0.9164374 -0.2578154 0.0835626 0.2578154
1120161 0.0886181 0.2651675 0.9113819 -0.2651675 0.9113819 -0.2651675 0.0886181 0.2651675
1160079 0.0939625 0.2727448 0.9060375 -0.2727448 0.9060375 -0.2727448 0.0939625 0.2727448
1201419 0.0996333 0.2803446 0.9003667 -0.2803446 0.9003667 -0.2803446 0.0996333 0.2803446
1244232 0.1055800 0.2881219 0.8944200 -0.2881219 0.8944200 -0.2881219 0.1055800 0.2881219
1288571 0.1118652 0.2958742 0.8881348 -0.2958742 0.8881348 -0.2958742 0.1118652 0.2958742
1334490 0.1185252 0.3038175 0.8814748 -0.3038175 0.8814748 -0.3038175 0.1185252 0.3038175
1382045 0.1255890 0.3116995 0.8744110 -0.3116995 0.8744110 -0.3116995 0.1255890 0.3116995
1431295 0.1327744 0.3196460 0.8672256 -0.3196460 0.8672256 -0.3196460 0.1327744 0.3196460
1482300 0.1405178 0.3276702 0.8594822 -0.3276702 0.8594822 -0.3276702 0.1405178 0.3276702
1535123 0.1485831 0.3356462 0.8514169 -0.3356462 0.8514169 -0.3356462 0.1485831 0.3356462
1589828 0.1569216 0.3437136 0.8430784 -0.3437136 0.8430784 -0.3437136 0.1569216 0.3437136
1646482 0.1658333 0.3516208 0.8341667 -0.3516208 0.8341667 -0.3516208 0.1658333 0.3516208
1705156 0.1749847 0.3596609 0.8250153 -0.3596609 0.8250153 -0.3596609 0.1749847 0.3596609
1765920 0.1846262 0.3675782 0.8153738 -0.3675782 0.8153738 -0.3675782 0.1846262 0.3675782
1828849 0.1947422 0.3753567 0.8052578 -0.3753567 0.8052578 -0.3753567 0.1947422 0.3753567
1894022 0.2051410 0.3829924 0.7948590 -0.3829924 0.7948590 -0.3829924 0.2051410 0.3829924
1961516 0.2159987 0.3906408 0.7840013 -0.3906408 0.7840013 -0.3906408 0.2159987 0.3906408
2031416 0.2273315 0.3979906 0.7726685 -0.3979906 0.7726685 -0.3979906 0.2273315 0.3979906
2103807 0.2389179 0.4052733 0.7610821 -0.4052733 0.7610821 -0.4052733 0.2389179 0.4052733
2178777 0.2510963 0.4122431 0.7489037 -0.4122431 0.7489037 -0.4122431 0.2510963 0.4122431
2256419 0.2635047 0.4189435 0.7364953 -0.4189435 0.7364953 -0.4189435 0.2635047 0.4189435
2336828 0.2763657 0.4254594 0.7236343 -0.4254594 0.7236343 -0.4254594 0.2763657 0.4254594
2420102 0.2896754 0.4317883 0.7103246 -0.4317883 0.7103246 -0.4317883 0.2896754 0.4317883
2506344 0.3031534 0.4375794 0.6968466 -0.4375794 0.6968466 -0.4375794 0.3031534 0.4375794
2595659 0.3172783 0.4432406 0.6827217 -0.4432406 0.6827217 -0.4432406 0.3172783 0.4432406
2688157 0.3315457 0.4484588 0.6684543 -0.4484588 0.6684543 -0.4484588 0.3315457 0.4484588
2783951 0.3460799 0.4533738 0.6539201 -0.4533738 0.6539201 -0.4533738 0.3460799 0.4533738
2883158 0.3610330 0.4577920 0.6389670 -0.4577920 0.6389670 -0.4577920 0.3610330 0.4577920
2985901 0.3762231 0.4618189 0.6237769 -0.4618189 0.6237769 -0.4618189 0.3762231 0.4618189
3092306 0.3915438 0.4654620 0.6084562 -0.4654620 0.6084562 -0.4654620 0.3915438 0.4654620
3202502 0.4072978 0.4685111 0.5927022 -0.4685111 0.5927022 -0.4685111 0.4072978 0.4685111
3316625 0.4232232 0.4712033 0.5767768 -0.4712033 0.5767768 -0.4712033 0.4232232 0.4712033
3434815 0.4391497 0.4732362 0.5608503 -0.4732362 0.5608503 -0.4732362 0.4391497 0.4732362
3557216 0.4553217 0.4747900 0.5446783 -0.4747900 0.5446783 -0.4747900 0.4553217 0.4747900
3683980 0.4715830 0.4759839 0.5284170 -0.4759839 0.5284170 -0.4759839 0.4715830 0.4759839
3815261 0.4879862 0.4765876 0.5120138 -0.4765876 0.5120138 -0.4765876 0.4879862 0.4765876
3951220 0.5043578 0.4764129 0.4956422 -0.4764129 0.4956422 -0.4764129 0.5043578 0.4764129
4092024 0.5208253 0.4760679 0.4791747 -0.4760679 0.4791747 -0.4760679 0.5208253 0.4760679
4237845 0.5371289 0.4748529 0.4628711 -0.4748529 0.4628711 -0.4748529 0.5371289 0.4748529
4388863 0.5532976 0.4733021 0.4467024 -0.4733021 0.4467024 -0.4733021 0.5532976 0.4733021
4545263 0.5695644 0.4709085 0.4304356 -0.4709085 0.4304356 -0.4709085 0.5695644 0.4709085
4707236 0.5854606 0.4682211 0.4145394 -0.4682211 0.4145394 -0.4682211 0.5854606 0.4682211
4874981 0.6013040 0.4649214 0.3986960 -0.4649214 0.3986960 -0.4649214 0.6013040 0.4649214
5048704 0.6168900 0.4611978 0.3831100 -0.4611978 0.3831100 -0.4611978 0.6168900 0.4611978
5228617 0.6321249 0.4569622 0.3678751 -0.4569622 0.3678751 -0.4569622 0.6321249 0.4569622
5414942 0.6471565 0.4522566 0.3528435 -0.4522566 0.3528435 -0.4522566 0.6471565 0.4522566
5607907 0.6618249 0.4471072 0.3381751 -0.4471072 0.3381751 -0.4471072 0.6618249 0.4471072
5807748 0.6762985 0.4416394 0.3237015 -0.4416394 0.3237015 -0.4416394 0.6762985 0.4416394
6014710 0.6902351 0.4358171 0.3097649 -0.4358171 0.3097649 -0.4358171 0.6902351 0.4358171
6229048 0.7038847 0.4295643 0.2961153 -0.4295643 0.2961153 -0.4295643 0.7038847 0.4295643
6451024 0.7171588 0.4230237 0.2828412 -0.4230237 0.2828412 -0.4230237 0.7171588 0.4230237
6680910 0.7300032 0.4161427 0.2699968 -0.4161427 0.2699968 -0.4161427 0.7300032 0.4161427
6918988 0.7425202 0.4091141 0.2574798 -0.4091141 0.2574798 -0.4091141 0.7425202 0.4091141
7165550 0.7545694 0.4018385 0.2454306 -0.4018385 0.2454306 -0.4018385 0.7545694 0.4018385
7420899 0.7662024 0.3943403 0.2337976 -0.3943403 0.2337976 -0.3943403 0.7662024 0.3943403
7685347 0.7775538 0.3866727 0.2224462 -0.3866727 0.2224462 -0.3866727 0.7775538 0.3866727
7959219 0.7883258 0.3788232 0.2116742 -0.3788232 0.2116742 -0.3788232 0.7883258 0.3788232
8242850 0.7986869 0.3708057 0.2013131 -0.3708057 0.2013131 -0.3708057 0.7986869 0.3708057
8536589 0.8086739 0.3628252 0.1913261 -0.3628252 0.1913261 -0.3628252 0.8086739 0.3628252
8840795 0.8182526 0.3546963 0.1817474 -0.3546963 0.1817474 -0.3546963 0.8182526 0.3546963
9155842 0.8275395 0.3465234 0.1724605 -0.3465234 0.1724605 -0.3465234 0.8275395 0.3465234
9482116 0.8361882 0.3382965 0.1638118 -0.3382965 0.1638118 -0.3382965 0.8361882 0.3382965
9820016 0.8445867 0.3299550 0.1554133 -0.3299550 0.1554133 -0.3299550 0.8445867 0.3299550
10169958 0.8526513 0.3218795 0.1473487 -0.3218795 0.1473487 -0.3218795 0.8526513 0.3218795
10532371 0.8603207 0.3135608 0.1396793 -0.3135608 0.1396793 -0.3135608 0.8603207 0.3135608
10907698 0.8676497 0.3053948 0.1323503 -0.3053948 0.1323503 -0.3053948 0.8676497 0.3053948
11296400 0.8745774 0.2972549 0.1254226 -0.2972549 0.1254226 -0.2972549 0.8745774 0.2972549
11698954 0.8811703 0.2891251 0.1188297 -0.2891251 0.1188297 -0.2891251 0.8811703 0.2891251
12115853 0.8875306 0.2810786 0.1124694 -0.2810786 0.1124694 -0.2810786 0.8875306 0.2810786
12547608 0.8934911 0.2730766 0.1065089 -0.2730766 0.1065089 -0.2730766 0.8934911 0.2730766
12994750 0.8992129 0.2652730 0.1007871 -0.2652730 0.1007871 -0.2652730 0.8992129 0.2652730
13457825 0.9046369 0.2574935 0.0953631 -0.2574935 0.0953631 -0.2574935 0.9046369 0.2574935
13937403 0.9097303 0.2498119 0.0902697 -0.2498119 0.0902697 -0.2498119 0.9097303 0.2498119
14434070 0.9145454 0.2422578 0.0854546 -0.2422578 0.0854546 -0.2422578 0.9145454 0.2422578
14948436 0.9192076 0.2348265 0.0807924 -0.2348265 0.0807924 -0.2348265 0.9192076 0.2348265
15481133 0.9235444 0.2274612 0.0764556 -0.2274612 0.0764556 -0.2274612 0.9235444 0.2274612
16032812 0.9276679 0.2201675 0.0723321 -0.2201675 0.0723321 -0.2201675 0.9276679 0.2201675
16604150 0.9316007 0.2130888 0.0683993 -0.2130888 0.0683993 -0.2130888 0.9316007 0.2130888
17195849 0.9352403 0.2060619 0.0647597 -0.2060619 0.0647597 -0.2060619 0.9352403 0.2060619
17808633 0.9388709 0.1991692 0.0611291 -0.1991692 0.0611291 -0.1991692 0.9388709 0.1991692
18443254 0.9420850 0.1925048 0.0579150 -0.1925048 0.0579150 -0.1925048 0.9420850 0.1925048
19100490 0.9452145 0.1859348 0.0547855 -0.1859348 0.0547855 -0.1859348 0.9452145 0.1859348
19781147 0.9481445 0.1793892 0.0518555 -0.1793892 0.0518555 -0.1793892 0.9481445 0.1793892
20486060 0.9509690 0.1729897 0.0490310 -0.1729897 0.0490310 -0.1729897 0.9509690 0.1729897
21216093 0.9535879 0.1667256 0.0464121 -0.1667256 0.0464121 -0.1667256 0.9535879 0.1667256
21972141 0.9560872 0.1606273 0.0439128 -0.1606273 0.0439128 -0.1606273 0.9560872 0.1606273
22755131 0.9584407 0.1545940 0.0415593 -0.1545940 0.0415593 -0.1545940 0.9584407 0.1545940
23566023 0.9606489 0.1487283 0.0393511 -0.1487283 0.0393511 -0.1487283 0.9606489 0.1487283
24405812 0.9627120 0.1429547 0.0372880 -0.1429547 0.0372880 -0.1429547 0.9627120 0.1429547
25275527 0.9646893 0.1372723 0.0353107 -0.1372723 0.0353107 -0.1372723 0.9646893 0.1372723
26176235 0.9665344 0.1317040 0.0334656 -0.1317040 0.0334656 -0.1317040 0.9665344 0.1317040
27109041 0.9682683 0.1262929 0.0317317 -0.1262929 0.0317317 -0.1262929 0.9682683 0.1262929
28075087 0.9699167 0.1209405 0.0300833 -0.1209405 0.0300833 -0.1209405 0.9699167 0.1209405
29075559 0.9714470 0.1157142 0.0285530 -0.1157142 0.0285530 -0.1157142 0.9714470 0.1157142
30111684 0.9728902 0.1106066 0.0271098 -0.1106066 0.0271098 -0.1106066 0.9728902 0.1106066
31184731 0.9742517 0.1055574 0.0257483 -0.1055574 0.0257483 -0.1055574 0.9742517 0.1055574
32296017 0.9755549 0.1005914 0.0244451 -0.1005914 0.0244451 -0.1005914 0.9755549 0.1005914
33446904 0.9767210 0.0957442 0.0232790 -0.0957442 0.0232790 -0.0957442 0.9767210 0.0957442
34638804 0.9778732 0.0909901 0.0221268 -0.0909901 0.0221268 -0.0909901 0.9778732 0.0909901
35873178 0.9789050 0.0862965 0.0210950 -0.0862965 0.0210950 -0.0862965 0.9789050 0.0862965
37151540 0.9798848 0.0816539 0.0201152 -0.0816539 0.0201152 -0.0816539 0.9798848 0.0816539
38475457 0.9808272 0.0771457 0.0191728 -0.0771457 0.0191728 -0.0771457 0.9808272 0.0771457
39846552 0.9816788 0.0726768 0.0183212 -0.0726768 0.0183212 -0.0726768 0.9816788 0.0726768
41266507 0.9824676 0.0682838 0.0175324 -0.0682838 0.0175324 -0.0682838 0.9824676 0.0682838
42737063 0.9832725 0.0639552 0.0167275 -0.0639552 0.0167275 -0.0639552 0.9832725 0.0639552
44260023 0.9839337 0.0596921 0.0160663 -0.0596921 0.0160663 -0.0596921 0.9839337 0.0596921
45837255 0.9845817 0.0554473 0.0154183 -0.0554473 0.0154183 -0.0554473 0.9845817 0.0554473
47470692 0.9851604 0.0512753 0.0148396 -0.0512753 0.0148396 -0.0512753 0.9851604 0.0512753
49162338 0.9857505 0.0471546 0.0142495 -0.0471546 0.0142495 -0.0471546 0.9857505 0.0471546
50914266 0.9862435 0.0430934 0.0137565 -0.0430934 0.0137565 -0.0430934 0.9862435 0.0430934
52728626 0.9866971 0.0390383 0.0133029 -0.0390383 0.0133029 -0.0390383 0.9866971 0.0390383
54607641 0.9871137 0.0350457 0.0128863 -0.0350457 0.0128863 -0.0350457 0.9871137 0.0350457
56553616 0.9875025 0.0310793 0.0124975 -0.0310793 0.0124975 -0.0310793 0.9875025 0.0310793
58568937 0.9878465 0.0271519 0.0121535 -0.0271519 0.0121535 -0.0271519 0.9878465 0.0271519
60656075 0.9881528 0.0232057 0.0118472 -0.0232057 0.0118472 -0.0232057 0.9881528 0.0232057
62817590 0.9884295 0.0193047 0.0115705 -0.0193047 0.0115705 -0.0193047 0.9884295 0.0193047
65056131 0.9886807 0.0154159 0.0113193 -0.0154159 0.0113193 -0.0154159 0.9886807 0.0154159
67374444 0.9888836 0.0115537 0.0111164 -0.0115537 0.0111164 -0.0115537 0.9888836 0.0115537
69775372 0.9890296 0.0076702 0.0109704 -0.0076702 0.0109704 -0.0076702 0.9890296 0.0076702
72261858 0.9891642 0.0038063 0.0108358 -0.0038063 0.0108358 -0.0038063 0.9891642 0.0038063
74836951 0.9892708 -0.0000437 0.0107292 0.0000437 0.0107292 0.0000437 0.9892708 -0.0000437
77503810 0.9893235 -0.0039308 0.0106765 0.0039308 0.0106765 0.0039308 0.9893235 -0.0039308
80265703 0.9893593 -0.0078174 0.0106407 0.0078174 0.0106407 0.0078174 0.9893593 -0.0078174
83126018 0.9893648 -0.0117292 0.0106352 0.0117292 0.0106352 0.0117292 0.9893648 -0.0117292
86088262 0.9893073 -0.0156313 0.0106927 0.0156313 0.0106927 0.0156313 0.9893073 -0.0156313
89156068 0.9892532 -0.0195565 0.0107468 0.0195565 0.0107468 0.0195565 0.9892532 -0.0195565
92333196 0.9891166 -0.0235261 0.0108834 0.0235261 0.0108834 0.0235261 0.9891166 -0.0235261
95623543 0.9889796 -0.0275401 0.0110204 0.0275401 0.0110204 0.0275401 0.9889796 -0.0275401
99031144 0.9887716 -0.0315579 0.0112284 0.0315579 0.0112284 0.0315579 0.9887716 -0.0315579
102560176 0.9885553 -0.0356450 0.0114447 0.0356450 0.0114447 0.0356450 0.9885553 -0.0356450
106214968 0.9882956 -0.0397892 0.0117044 0.0397892 0.0117044 0.0397892 0.9882956 -0.0397892
110000000 0.9879485 -0.0439453 0.0120515 0.0439453 0.0120515 0.0439453 0.9879485 -0.0439453
112590446 0.9875810 -0.0456682 0.0124190 0.0456682 0.0124190 0.0456682 0.9875810 -0.0456682
117189080 0.9870698 -0.0505973 0.0129302 0.0505973 0.0129302 0.0505973 0.9870698 -0.0505973
121975541 0.9865349 -0.0555187 0.0134651 0.0555187 0.0134651 0.0555187 0.9865349 -0.0555187
126957499 0.9860072 -0.0605408 0.0139928 0.0605408 0.0139928 0.0605408 0.9860072 -0.0605408
132142940 0.9852241 -0.0657803 0.0147759 0.0657803 0.0147759 0.0657803 0.9852241 -0.0657803
137540175 0.9846481 -0.0710286 0.0153519 0.0710286 0.0153519 0.0710286 0.9846481 -0.0710286
143157853 0.9836780 -0.0763836 0.0163220 0.0763836 0.0163220 0.0763836 0.9836780 -0.0763836
149004980 0.9827911 -0.0819262 0.0172089 0.0819262 0.0172089 0.0819262 0.9827911 -0.0819262
155090927 0.9819270 -0.0874050 0.0180730 0.0874050 0.0180730 0.0874050 0.9819270 -0.0874050
161425447 0.9807909 -0.0931194 0.0192091 0.0931194 0.0192091 0.0931194 0.9807909 -0.0931194
168018693 0.9795438 -0.0989601 0.0204562 0.0989601 0.0204562 0.0989601 0.9795438 -0.0989601
174881234 0.9781654 -0.1049825 0.0218346 0.1049825 0.0218346 0.1049825 0.9781654 -0.1049825
182024068 0.9767411 -0.1110693 0.0232589 0.1110693 0.0232589 0.1110693 0.9767411 -0.1110693
189458643 0.9750978 -0.1174135 0.0249022 0.1174135 0.0249022 0.1174135 0.9750978 -0.1174135
197196875 0.9735648 -0.1237542 0.0264352 0.1237542 0.0264352 0.1237542 0.9735648 -0.1237542
205251167 0.9716728 -0.1304242 0.0283272 0.1304242 0.0283272 0.1304242 0.9716728 -0.1304242
213634427 0.9696131 -0.1372404 0.0303869 0.1372404 0.0303869 0.1372404 0.9696131 -0.1372404
222360093 0.9674674 -0.1441639 0.0325326 0.1441639 0.0325326 0.1441639 0.9674674 -0.1441639
231442149 0.9650553 -0.1513011 0.0349447 0.1513011 0.0349447 0.1513011 0.9650553 -0.1513011
240895152 0.9624864 -0.1587650 0.0375136 0.1587650 0.0375136 0.1587650 0.9624864 -0.1587650
250734252 0.9597037 -0.1663210 0.0402963 0.1663210 0.0402963 0.1663210 0.9597037 -0.1663210
260975220 0.9566224 -0.1740618 0.0433776 0.1740618 0.0433776 0.1740618 0.9566224 -0.1740618
271634469 0.9534941 -0.1819943 0.0465059 0.1819943 0.0465059 0.1819943 0.9534941 -0.1819943
282729083 0.9498418 -0.1901263 0.0501582 0.1901263 0.0501582 0.1901263 0.9498418 -0.1901263
294276845 0.9460128 -0.1985099 0.0539872 0.1985099 0.0539872 0.1985099 0.9460128 -0.1985099
306296262 0.9419286 -0.2072246 0.0580714 0.2072246 0.0580714 0.2072246 0.9419286 -0.2072246
318806600 0.9375149 -0.2159491 0.0624851 0.2159491 0.0624851 0.2159491 0.9375149 -0.2159491
331827908 0.9325738 -0.2249652 0.0674262 0.2249652 0.0674262 0.2249652 0.9325738 -0.2249652
345381058 0.9273299 -0.2342664 0.0726701 0.2342664 0.0726701 0.2342664 0.9273299 -0.2342664
359487772 0.9215855 -0.2436313 0.0784145 0.2436313 0.0784145 0.2436313 0.9215855 -0.2436313
374170659 0.9153913 -0.2532108 0.0846087 0.2532108 0.0846087 0.2532108 0.9153913 -0.2532108
389453252 0.9088514 -0.2630924 0.0911486 0.2630924 0.0911486 0.2630924 0.9088514 -0.2630924
405360046 0.9017213 -0.2730703 0.0982787 0.2730703 0.0982787 0.2730703 0.9017213 -0.2730703
421916536 0.8939332 -0.2834202 0.1060668 0.2834202 0.1060668 0.2834202 0.8939332 -0.2834202
439149258 0.8856170 -0.2937048 0.1143830 0.2937048 0.1143830 0.2937048 0.8856170 -0.2937048
457085832 0.8768551 -0.3042208 0.1231449 0.3042208 0.1231449 0.3042208 0.8768551 -0.3042208
475755005 0.8669329 -0.3147549 0.1330671 0.3147549 0.1330671 0.3147549 0.8669329 -0.3147549
495186701 0.8567009 -0.3251330 0.1432991 0.3251330 0.1432991 0.3251330 0.8567009 -0.3251330
515412063 0.8456259 -0.3358897 0.1543741 0.3358897 0.1543741 0.3358897 0.8456259 -0.3358897
536463508 0.8335402 -0.3466379 0.1664598 0.3466379 0.1664598 0.3466379 0.8335402 -0.3466379
558374776 0.8207315 -0.3571961 0.1792685 0.3571961 0.1792685 0.3571961 0.8207315 -0.3571961
581180986 0.8067043 -0.3673548 0.1932957 0.3673548 0.1932957 0.3673548 0.8067043 -0.3673548
604918691 0.7923112 -0.3774215 0.2076888 0.3774215 0.2076888 0.3774215 0.7923112 -0.3774215
629625937 0.7763904 -0.3872609 0.2236096 0.3872609 0.2236096 0.3872609 0.7763904 -0.3872609
655342323 0.7597500 -0.3966129 0.2402500 0.3966129 0.2402500 0.3966129 0.7597500 -0.3966129
682109067 0.7416723 -0.4055625 0.2583277 0.4055625 0.2583277 0.4055625 0.7416723 -0.4055625
709969070 0.7227017 -0.4136129 0.2772983 0.4136129 0.2772983 0.4136129 0.7227017 -0.4136129
738966984 0.7027871 -0.4210787 0.2972129 0.4210787 0.2972129 0.4210787 0.7027871 -0.4210787
769149286 0.6816063 -0.4276008 0.3183937 0.4276008 0.3183937 0.4276008 0.6816063 -0.4276008
800564352 0.6592966 -0.4329333 0.3407034 0.4329333 0.3407034 0.4329333 0.6592966 -0.4329333
833262532 0.6360234 -0.4369695 0.3639766 0.4369695 0.3639766 0.4369695 0.6360234 -0.4369695
867296233 0.6115428 -0.4393173 0.3884572 0.4393173 0.3884572 0.4393173 0.6115428 -0.4393173
902720004 0.5858955 -0.4394741 0.4141045 0.4394741 0.4141045 0.4394741 0.5858955 -0.4394741
939590621 0.5610785 -0.4371770 0.4389215 0.4371770 0.4389215 0.4371770 0.5610785 -0.4371770
977967177 0.5359679 -0.4331601 0.4640321 0.4331601 0.4640321 0.4331601 0.5359679 -0.4331601
1017911182 0.5124994 -0.4269254 0.4875006 0.4269254 0.4875006 0.4269254 0.5124994 -0.4269254
1059486657 0.4908200 -0.4219381 0.5091800 0.4219381 0.5091800 0.4219381 0.4908200 -0.4219381
1102760237 0.4653277 -0.4183637 0.5346723 0.4183637 0.5346723 0.4183637 0.4653277 -0.4183637
1147801278 0.4361317 -0.4099300 0.5638683 0.4099300 0.5638683 0.4099300 0.4361317 -0.4099300
1194681973 0.4076689 -0.3962469 0.5923311 0.3962469 0.5923311 0.3962469 0.4076689 -0.3962469
1243477458 0.3809737 -0.3784433 0.6190263 0.3784433 0.6190263 0.3784433 0.3809737 -0.3784433
1294265942 0.3566976 -0.3568170 0.6433024 0.3568170 0.6433024 0.3568170 0.3566976 -0.3568170
1347128826 0.3360291 -0.3320815 0.6639709 0.3320815 0.6639709 0.3320815 0.3360291 -0.3320815
1402150837 0.3199144 -0.3048791 0.6800856 0.3048791 0.6800856 0.3048791 0.3199144 -0.3048791
1459420162 0.3098771 -0.2773621 0.6901229 0.2773621 0.6901229 0.2773621 0.3098771 -0.2773621
1519028591 0.3046540 -0.2539976 0.6953460 0.2539976 0.6953460 0.2539976 0.3046540 -0.2539976
1581071660 0.2970693 -0.2359967 0.7029307 0.2359967 0.7029307 0.2359967 0.2970693 -0.2359967
1645648812 0.2837528 -0.2149628 0.7162472 0.2149628 0.7162472 0.2149628 0.2837528 -0.2149628
1712863547 0.2711141 -0.1857544 0.7288859 0.1857544 0.7288859 0.1857544 0.2711141 -0.1857544
1782823595 0.2645969 -0.1502942 0.7354031 0.1502942 0.7354031 0.1502942 0.2645969 -0.1502942
1855641085 0.2664571 -0.1113896 0.7335429 0.1113896 0.7335429 0.1113896 0.2664571 -0.1113896
1931432726 0.2782212 -0.0712936 0.7217788 0.0712936 0.7217788 0.0712936 0.2782212 -0.0712936
2010319994 0.3020102 -0.0327162 0.6979898 0.0327162 0.6979898 0.0327162 0.3020102 -0.0327162
2092429326 0.3398360 -0.0004572 0.6601640 0.0004572 0.6601640 0.0004572 0.3398360 -0.0004572
2177892326 0.3919219 0.0170662 0.6080781 -0.0170662 0.6080781 -0.0170662 0.3919219 0.0170662
2266845968 0.4516346 0.0084793 0.5483654 -0.0084793 0.5483654 -0.0084793 0.4516346 0.0084793
2359432825 0.5004767 -0.0325162 0.4995233 0.0325162 0.4995233 0.0325162 0.5004767 -0.0325162
2455801291 0.5164086 -0.0937845 0.4835914 0.0937845 0.4835914 0.0937845 0.5164086 -0.0937845
2556105823 0.4946314 -0.1480771 0.5053686 0.1480771 0.5053686 0.1480771 0.4946314 -0.1480771
2660507184 0.4532515 -0.1756939 0.5467485 0.1756939 0.5467485 0.1756939 0.4532515 -0.1756939
2769172705 0.4107860 -0.1785140 0.5892140 0.1785140 0.5892140 0.1785140 0.4107860 -0.1785140
2882276551 0.3770898 -0.1654346 0.6229102 0.1654346 0.6229102 0.1654346 0.3770898 -0.1654346
3000000000 0.3535061 -0.1442413 0.6464939 0.1442413 0.6464939 0.1442413 0.3535061 -0.1442413
