!Murata Part Number: LQH32PB150_N0
!These Parameters are Measured in Series Mode Connection
! o--[L]--o
!Port1 Port2
! o-------o
!
# Hz S RI R 50
!Freq.(Hz) S11(Real) S11(Imag) S21(Real) S21(Imag) S12(Real) S12(Imag) S22(Real) S22(Imag)
100000 0.0229139 0.0916440 0.9770861 -0.0916440 0.9770861 -0.0916440 0.0229139 0.0916440
103564 0.0236010 0.0948116 0.9763990 -0.0948116 0.9763990 -0.0948116 0.0236010 0.0948116
107254 0.0243666 0.0980256 0.9756334 -0.0980256 0.9756334 -0.0980256 0.0243666 0.0980256
111076 0.0251193 0.1014281 0.9748807 -0.1014281 0.9748807 -0.1014281 0.0251193 0.1014281
115034 0.0259546 0.1049144 0.9740454 -0.1049144 0.9740454 -0.1049144 0.0259546 0.1049144
119134 0.0268612 0.1085496 0.9731388 -0.1085496 0.9731388 -0.1085496 0.0268612 0.1085496
123379 0.0278369 0.1122194 0.9721631 -0.1122194 0.9721631 -0.1122194 0.0278369 0.1122194
127776 0.0288198 0.1160116 0.9711802 -0.1160116 0.9711802 -0.1160116 0.0288198 0.1160116
132329 0.0298843 0.1199602 0.9701157 -0.1199602 0.9701157 -0.1199602 0.0298843 0.1199602
137045 0.0310090 0.1240348 0.9689910 -0.1240348 0.9689910 -0.1240348 0.0310090 0.1240348
141929 0.0322418 0.1282266 0.9677582 -0.1282266 0.9677582 -0.1282266 0.0322418 0.1282266
146986 0.0335556 0.1325073 0.9664444 -0.1325073 0.9664444 -0.1325073 0.0335556 0.1325073
152224 0.0349351 0.1369435 0.9650649 -0.1369435 0.9650649 -0.1369435 0.0349351 0.1369435
157649 0.0364191 0.1415092 0.9635809 -0.1415092 0.9635809 -0.1415092 0.0364191 0.1415092
163267 0.0379895 0.1462430 0.9620105 -0.1462430 0.9620105 -0.1462430 0.0379895 0.1462430
169085 0.0396957 0.1510673 0.9603043 -0.1510673 0.9603043 -0.1510673 0.0396957 0.1510673
175110 0.0414356 0.1560359 0.9585644 -0.1560359 0.9585644 -0.1560359 0.0414356 0.1560359
181350 0.0433026 0.1611906 0.9566974 -0.1611906 0.9566974 -0.1611906 0.0433026 0.1611906
187813 0.0453086 0.1664771 0.9546914 -0.1664771 0.9546914 -0.1664771 0.0453086 0.1664771
194506 0.0475863 0.1718515 0.9524137 -0.1718515 0.9524137 -0.1718515 0.0475863 0.1718515
201437 0.0497553 0.1773707 0.9502447 -0.1773707 0.9502447 -0.1773707 0.0497553 0.1773707
208615 0.0521451 0.1831798 0.9478549 -0.1831798 0.9478549 -0.1831798 0.0521451 0.1831798
216049 0.0547313 0.1890796 0.9452687 -0.1890796 0.9452687 -0.1890796 0.0547313 0.1890796
223749 0.0574347 0.1950283 0.9425653 -0.1950283 0.9425653 -0.1950283 0.0574347 0.1950283
231722 0.0603568 0.2012172 0.9396432 -0.2012172 0.9396432 -0.2012172 0.0603568 0.2012172
239979 0.0633974 0.2075101 0.9366026 -0.2075101 0.9366026 -0.2075101 0.0633974 0.2075101
248531 0.0667458 0.2139366 0.9332542 -0.2139366 0.9332542 -0.2139366 0.0667458 0.2139366
257388 0.0701507 0.2206028 0.9298493 -0.2206028 0.9298493 -0.2206028 0.0701507 0.2206028
266560 0.0738230 0.2273563 0.9261770 -0.2273563 0.9261770 -0.2273563 0.0738230 0.2273563
276059 0.0777298 0.2342620 0.9222702 -0.2342620 0.9222702 -0.2342620 0.0777298 0.2342620
285897 0.0818272 0.2413438 0.9181728 -0.2413438 0.9181728 -0.2413438 0.0818272 0.2413438
296085 0.0862108 0.2485787 0.9137892 -0.2485787 0.9137892 -0.2485787 0.0862108 0.2485787
306636 0.0908644 0.2557785 0.9091356 -0.2557785 0.9091356 -0.2557785 0.0908644 0.2557785
317563 0.0957504 0.2632380 0.9042496 -0.2632380 0.9042496 -0.2632380 0.0957504 0.2632380
328879 0.1008632 0.2708351 0.8991368 -0.2708351 0.8991368 -0.2708351 0.1008632 0.2708351
340599 0.1064217 0.2784914 0.8935783 -0.2784914 0.8935783 -0.2784914 0.1064217 0.2784914
352737 0.1121050 0.2863295 0.8878950 -0.2863295 0.8878950 -0.2863295 0.1121050 0.2863295
365307 0.1181870 0.2943412 0.8818130 -0.2943412 0.8818130 -0.2943412 0.1181870 0.2943412
378325 0.1247251 0.3021757 0.8752749 -0.3021757 0.8752749 -0.3021757 0.1247251 0.3021757
391806 0.1313859 0.3101844 0.8686141 -0.3101844 0.8686141 -0.3101844 0.1313859 0.3101844
405769 0.1385626 0.3183058 0.8614374 -0.3183058 0.8614374 -0.3183058 0.1385626 0.3183058
420228 0.1459833 0.3263613 0.8540167 -0.3263613 0.8540167 -0.3263613 0.1459833 0.3263613
435204 0.1537618 0.3346543 0.8462382 -0.3346543 0.8462382 -0.3346543 0.1537618 0.3346543
450712 0.1620813 0.3428313 0.8379187 -0.3428313 0.8379187 -0.3428313 0.1620813 0.3428313
466774 0.1706285 0.3510307 0.8293715 -0.3510307 0.8293715 -0.3510307 0.1706285 0.3510307
483407 0.1797494 0.3592478 0.8202506 -0.3592478 0.8202506 -0.3592478 0.1797494 0.3592478
500634 0.1891226 0.3674364 0.8108774 -0.3674364 0.8108774 -0.3674364 0.1891226 0.3674364
518474 0.1991196 0.3753727 0.8008804 -0.3753727 0.8008804 -0.3753727 0.1991196 0.3753727
536950 0.2093705 0.3834613 0.7906295 -0.3834613 0.7906295 -0.3834613 0.2093705 0.3834613
556085 0.2200929 0.3913364 0.7799071 -0.3913364 0.7799071 -0.3913364 0.2200929 0.3913364
575901 0.2312458 0.3990972 0.7687542 -0.3990972 0.7687542 -0.3990972 0.2312458 0.3990972
596424 0.2428854 0.4067485 0.7571146 -0.4067485 0.7571146 -0.4067485 0.2428854 0.4067485
617678 0.2549133 0.4140343 0.7450867 -0.4140343 0.7450867 -0.4140343 0.2549133 0.4140343
639689 0.2674536 0.4211582 0.7325464 -0.4211582 0.7325464 -0.4211582 0.2674536 0.4211582
662485 0.2802191 0.4281266 0.7197809 -0.4281266 0.7197809 -0.4281266 0.2802191 0.4281266
686093 0.2935470 0.4347492 0.7064530 -0.4347492 0.7064530 -0.4347492 0.2935470 0.4347492
710542 0.3073340 0.4410260 0.6926660 -0.4410260 0.6926660 -0.4410260 0.3073340 0.4410260
735863 0.3213701 0.4469962 0.6786299 -0.4469962 0.6786299 -0.4469962 0.3213701 0.4469962
762086 0.3358401 0.4525892 0.6641599 -0.4525892 0.6641599 -0.4525892 0.3358401 0.4525892
789243 0.3506260 0.4578953 0.6493740 -0.4578953 0.6493740 -0.4578953 0.3506260 0.4578953
817368 0.3658470 0.4625835 0.6341530 -0.4625835 0.6341530 -0.4625835 0.3658470 0.4625835
846496 0.3812943 0.4669076 0.6187057 -0.4669076 0.6187057 -0.4669076 0.3812943 0.4669076
876661 0.3970319 0.4707371 0.6029681 -0.4707371 0.6029681 -0.4707371 0.3970319 0.4707371
907901 0.4129342 0.4742657 0.5870658 -0.4742657 0.5870658 -0.4742657 0.4129342 0.4742657
940255 0.4291947 0.4768205 0.5708053 -0.4768205 0.5708053 -0.4768205 0.4291947 0.4768205
973762 0.4455640 0.4791033 0.5544360 -0.4791033 0.5544360 -0.4791033 0.4455640 0.4791033
1008462 0.4620959 0.4809986 0.5379041 -0.4809986 0.5379041 -0.4809986 0.4620959 0.4809986
1044399 0.4786676 0.4822087 0.5213324 -0.4822087 0.5213324 -0.4822087 0.4786676 0.4822087
1081617 0.4953732 0.4829021 0.5046268 -0.4829021 0.5046268 -0.4829021 0.4953732 0.4829021
1120161 0.5120245 0.4827451 0.4879755 -0.4827451 0.4879755 -0.4827451 0.5120245 0.4827451
1160079 0.5288100 0.4823650 0.4711900 -0.4823650 0.4711900 -0.4823650 0.5288100 0.4823650
1201419 0.5454702 0.4813120 0.4545298 -0.4813120 0.4545298 -0.4813120 0.5454702 0.4813120
1244232 0.5620168 0.4797156 0.4379832 -0.4797156 0.4379832 -0.4797156 0.5620168 0.4797156
1288571 0.5785061 0.4774910 0.4214939 -0.4774910 0.4214939 -0.4774910 0.5785061 0.4774910
1334490 0.5949468 0.4748579 0.4050532 -0.4748579 0.4050532 -0.4748579 0.5949468 0.4748579
1382045 0.6109960 0.4714625 0.3890040 -0.4714625 0.3890040 -0.4714625 0.6109960 0.4714625
1431295 0.6268014 0.4677446 0.3731986 -0.4677446 0.3731986 -0.4677446 0.6268014 0.4677446
1482300 0.6423926 0.4633709 0.3576074 -0.4633709 0.3576074 -0.4633709 0.6423926 0.4633709
1535123 0.6577435 0.4587365 0.3422565 -0.4587365 0.3422565 -0.4587365 0.6577435 0.4587365
1589828 0.6727466 0.4535116 0.3272534 -0.4535116 0.3272534 -0.4535116 0.6727466 0.4535116
1646482 0.6872867 0.4477188 0.3127133 -0.4477188 0.3127133 -0.4477188 0.6872867 0.4477188
1705156 0.7015756 0.4419350 0.2984244 -0.4419350 0.2984244 -0.4419350 0.7015756 0.4419350
1765920 0.7155700 0.4356588 0.2844300 -0.4356588 0.2844300 -0.4356588 0.7155700 0.4356588
1828849 0.7290981 0.4288838 0.2709019 -0.4288838 0.2709019 -0.4288838 0.7290981 0.4288838
1894022 0.7421120 0.4220171 0.2578880 -0.4220171 0.2578880 -0.4220171 0.7421120 0.4220171
1961516 0.7548488 0.4147665 0.2451512 -0.4147665 0.2451512 -0.4147665 0.7548488 0.4147665
2031416 0.7671095 0.4072842 0.2328905 -0.4072842 0.2328905 -0.4072842 0.7671095 0.4072842
2103807 0.7788753 0.3995977 0.2211247 -0.3995977 0.2211247 -0.3995977 0.7788753 0.3995977
2178777 0.7902431 0.3916909 0.2097569 -0.3916909 0.2097569 -0.3916909 0.7902431 0.3916909
2256419 0.8011636 0.3836329 0.1988364 -0.3836329 0.1988364 -0.3836329 0.8011636 0.3836329
2336828 0.8116257 0.3754905 0.1883743 -0.3754905 0.1883743 -0.3754905 0.8116257 0.3754905
2420102 0.8216683 0.3672610 0.1783317 -0.3672610 0.1783317 -0.3672610 0.8216683 0.3672610
2506344 0.8312879 0.3589004 0.1687121 -0.3589004 0.1687121 -0.3589004 0.8312879 0.3589004
2595659 0.8403958 0.3504987 0.1596042 -0.3504987 0.1596042 -0.3504987 0.8403958 0.3504987
2688157 0.8491854 0.3419713 0.1508146 -0.3419713 0.1508146 -0.3419713 0.8491854 0.3419713
2783951 0.8576155 0.3336442 0.1423845 -0.3336442 0.1423845 -0.3336442 0.8576155 0.3336442
2883158 0.8655692 0.3251886 0.1344308 -0.3251886 0.1344308 -0.3251886 0.8655692 0.3251886
2985901 0.8730645 0.3167877 0.1269355 -0.3167877 0.1269355 -0.3167877 0.8730645 0.3167877
3092306 0.8803271 0.3083449 0.1196729 -0.3083449 0.1196729 -0.3083449 0.8803271 0.3083449
3202502 0.8870765 0.3000917 0.1129235 -0.3000917 0.1129235 -0.3000917 0.8870765 0.3000917
3316625 0.8935748 0.2918830 0.1064252 -0.2918830 0.1064252 -0.2918830 0.8935748 0.2918830
3434815 0.8997247 0.2837338 0.1002753 -0.2837338 0.1002753 -0.2837338 0.8997247 0.2837338
3557216 0.9054468 0.2756171 0.0945532 -0.2756171 0.0945532 -0.2756171 0.9054468 0.2756171
3683980 0.9109768 0.2676316 0.0890232 -0.2676316 0.0890232 -0.2676316 0.9109768 0.2676316
3815261 0.9161592 0.2597575 0.0838408 -0.2597575 0.0838408 -0.2597575 0.9161592 0.2597575
3951220 0.9209371 0.2520103 0.0790629 -0.2520103 0.0790629 -0.2520103 0.9209371 0.2520103
4092024 0.9255401 0.2444804 0.0744599 -0.2444804 0.0744599 -0.2444804 0.9255401 0.2444804
4237845 0.9297669 0.2370077 0.0702331 -0.2370077 0.0702331 -0.2370077 0.9297669 0.2370077
4388863 0.9338099 0.2297282 0.0661901 -0.2297282 0.0661901 -0.2297282 0.9338099 0.2297282
4545263 0.9375633 0.2225219 0.0624367 -0.2225219 0.0624367 -0.2225219 0.9375633 0.2225219
4707236 0.9411918 0.2154949 0.0588082 -0.2154949 0.0588082 -0.2154949 0.9411918 0.2154949
4874981 0.9444839 0.2086206 0.0555161 -0.2086206 0.0555161 -0.2086206 0.9444839 0.2086206
5048704 0.9476000 0.2018818 0.0524000 -0.2018818 0.0524000 -0.2018818 0.9476000 0.2018818
5228617 0.9505534 0.1953459 0.0494466 -0.1953459 0.0494466 -0.1953459 0.9505534 0.1953459
5414942 0.9532506 0.1890279 0.0467494 -0.1890279 0.0467494 -0.1890279 0.9532506 0.1890279
5607907 0.9558545 0.1827631 0.0441455 -0.1827631 0.0441455 -0.1827631 0.9558545 0.1827631
5807748 0.9582840 0.1767999 0.0417160 -0.1767999 0.0417160 -0.1767999 0.9582840 0.1767999
6014710 0.9605409 0.1709117 0.0394591 -0.1709117 0.0394591 -0.1709117 0.9605409 0.1709117
6229048 0.9626906 0.1651218 0.0373094 -0.1651218 0.0373094 -0.1651218 0.9626906 0.1651218
6451024 0.9647342 0.1595350 0.0352658 -0.1595350 0.0352658 -0.1595350 0.9647342 0.1595350
6680910 0.9665903 0.1541219 0.0334097 -0.1541219 0.0334097 -0.1541219 0.9665903 0.1541219
6918988 0.9683755 0.1488104 0.0316245 -0.1488104 0.0316245 -0.1488104 0.9683755 0.1488104
7165550 0.9700286 0.1436834 0.0299714 -0.1436834 0.0299714 -0.1436834 0.9700286 0.1436834
7420899 0.9716270 0.1386920 0.0283730 -0.1386920 0.0283730 -0.1386920 0.9716270 0.1386920
7685347 0.9731198 0.1338189 0.0268802 -0.1338189 0.0268802 -0.1338189 0.9731198 0.1338189
7959219 0.9745062 0.1290867 0.0254938 -0.1290867 0.0254938 -0.1290867 0.9745062 0.1290867
8242850 0.9758101 0.1244610 0.0241899 -0.1244610 0.0241899 -0.1244610 0.9758101 0.1244610
8536589 0.9770332 0.1200081 0.0229668 -0.1200081 0.0229668 -0.1200081 0.9770332 0.1200081
8840795 0.9782086 0.1156489 0.0217914 -0.1156489 0.0217914 -0.1156489 0.9782086 0.1156489
9155842 0.9792994 0.1114120 0.0207006 -0.1114120 0.0207006 -0.1114120 0.9792994 0.1114120
9482116 0.9803224 0.1072837 0.0196776 -0.1072837 0.0196776 -0.1072837 0.9803224 0.1072837
9820016 0.9812889 0.1032760 0.0187111 -0.1032760 0.0187111 -0.1032760 0.9812889 0.1032760
10169958 0.9822324 0.0993766 0.0177676 -0.0993766 0.0177676 -0.0993766 0.9822324 0.0993766
10532371 0.9830981 0.0955661 0.0169019 -0.0955661 0.0169019 -0.0955661 0.9830981 0.0955661
10907698 0.9839109 0.0918514 0.0160891 -0.0918514 0.0160891 -0.0918514 0.9839109 0.0918514
11296400 0.9846871 0.0882516 0.0153129 -0.0882516 0.0153129 -0.0882516 0.9846871 0.0882516
11698954 0.9854060 0.0847174 0.0145940 -0.0847174 0.0145940 -0.0847174 0.9854060 0.0847174
12115853 0.9861037 0.0812871 0.0138963 -0.0812871 0.0138963 -0.0812871 0.9861037 0.0812871
12547608 0.9867517 0.0779370 0.0132483 -0.0779370 0.0132483 -0.0779370 0.9867517 0.0779370
12994750 0.9873714 0.0746819 0.0126286 -0.0746819 0.0126286 -0.0746819 0.9873714 0.0746819
13457825 0.9879576 0.0714749 0.0120424 -0.0714749 0.0120424 -0.0714749 0.9879576 0.0714749
13937403 0.9884887 0.0683760 0.0115113 -0.0683760 0.0115113 -0.0683760 0.9884887 0.0683760
14434070 0.9890061 0.0653308 0.0109939 -0.0653308 0.0109939 -0.0653308 0.9890061 0.0653308
14948436 0.9895034 0.0623562 0.0104966 -0.0623562 0.0104966 -0.0623562 0.9895034 0.0623562
15481133 0.9899553 0.0594518 0.0100447 -0.0594518 0.0100447 -0.0594518 0.9899553 0.0594518
16032812 0.9903891 0.0566178 0.0096109 -0.0566178 0.0096109 -0.0566178 0.9903891 0.0566178
16604150 0.9907989 0.0538128 0.0092011 -0.0538128 0.0092011 -0.0538128 0.9907989 0.0538128
17195849 0.9911781 0.0510826 0.0088219 -0.0510826 0.0088219 -0.0510826 0.9911781 0.0510826
17808633 0.9915517 0.0484138 0.0084483 -0.0484138 0.0084483 -0.0484138 0.9915517 0.0484138
18443254 0.9918846 0.0457828 0.0081154 -0.0457828 0.0081154 -0.0457828 0.9918846 0.0457828
19100490 0.9922050 0.0431895 0.0077950 -0.0431895 0.0077950 -0.0431895 0.9922050 0.0431895
19781147 0.9925153 0.0406674 0.0074847 -0.0406674 0.0074847 -0.0406674 0.9925153 0.0406674
20486060 0.9927858 0.0381838 0.0072142 -0.0381838 0.0072142 -0.0381838 0.9927858 0.0381838
21216093 0.9930338 0.0357235 0.0069662 -0.0357235 0.0069662 -0.0357235 0.9930338 0.0357235
21972141 0.9933222 0.0333086 0.0066778 -0.0333086 0.0066778 -0.0333086 0.9933222 0.0333086
22755131 0.9935247 0.0309055 0.0064753 -0.0309055 0.0064753 -0.0309055 0.9935247 0.0309055
23566023 0.9937289 0.0285668 0.0062711 -0.0285668 0.0062711 -0.0285668 0.9937289 0.0285668
24405812 0.9939227 0.0262446 0.0060773 -0.0262446 0.0060773 -0.0262446 0.9939227 0.0262446
25275527 0.9941558 0.0239258 0.0058442 -0.0239258 0.0058442 -0.0239258 0.9941558 0.0239258
26176235 0.9942985 0.0216400 0.0057015 -0.0216400 0.0057015 -0.0216400 0.9942985 0.0216400
27109041 0.9944519 0.0194045 0.0055481 -0.0194045 0.0055481 -0.0194045 0.9944519 0.0194045
28075087 0.9946157 0.0171596 0.0053843 -0.0171596 0.0053843 -0.0171596 0.9946157 0.0171596
29075559 0.9947256 0.0149363 0.0052744 -0.0149363 0.0052744 -0.0149363 0.9947256 0.0149363
30111684 0.9948442 0.0127458 0.0051558 -0.0127458 0.0051558 -0.0127458 0.9948442 0.0127458
31184731 0.9949599 0.0105217 0.0050401 -0.0105217 0.0050401 -0.0105217 0.9949599 0.0105217
32296017 0.9950652 0.0083517 0.0049348 -0.0083517 0.0049348 -0.0083517 0.9950652 0.0083517
33446904 0.9951225 0.0061783 0.0048775 -0.0061783 0.0048775 -0.0061783 0.9951225 0.0061783
34638804 0.9952031 0.0040119 0.0047969 -0.0040119 0.0047969 -0.0040119 0.9952031 0.0040119
35873178 0.9952465 0.0018480 0.0047535 -0.0018480 0.0047535 -0.0018480 0.9952465 0.0018480
37151540 0.9953042 -0.0003556 0.0046958 0.0003556 0.0046958 0.0003556 0.9953042 -0.0003556
38475457 0.9953575 -0.0025088 0.0046425 0.0025088 0.0046425 0.0025088 0.9953575 -0.0025088
39846552 0.9953764 -0.0046837 0.0046236 0.0046837 0.0046236 0.0046837 0.9953764 -0.0046837
41266507 0.9953675 -0.0068637 0.0046325 0.0068637 0.0046325 0.0068637 0.9953675 -0.0068637
42737063 0.9954024 -0.0090778 0.0045976 0.0090778 0.0045976 0.0090778 0.9954024 -0.0090778
44260023 0.9953848 -0.0112763 0.0046152 0.0112763 0.0046152 0.0112763 0.9953848 -0.0112763
45837255 0.9953458 -0.0134944 0.0046542 0.0134944 0.0046542 0.0134944 0.9953458 -0.0134944
47470692 0.9953064 -0.0157590 0.0046936 0.0157590 0.0046936 0.0157590 0.9953064 -0.0157590
49162338 0.9952810 -0.0180343 0.0047190 0.0180343 0.0047190 0.0180343 0.9952810 -0.0180343
50914266 0.9952063 -0.0203192 0.0047937 0.0203192 0.0047937 0.0203192 0.9952063 -0.0203192
52728626 0.9951292 -0.0226298 0.0048708 0.0226298 0.0048708 0.0226298 0.9951292 -0.0226298
54607641 0.9950313 -0.0249600 0.0049687 0.0249600 0.0049687 0.0249600 0.9950313 -0.0249600
56553616 0.9949406 -0.0273454 0.0050594 0.0273454 0.0050594 0.0273454 0.9949406 -0.0273454
58568937 0.9948208 -0.0297387 0.0051792 0.0297387 0.0051792 0.0297387 0.9948208 -0.0297387
60656075 0.9946781 -0.0322092 0.0053219 0.0322092 0.0053219 0.0322092 0.9946781 -0.0322092
62817590 0.9945268 -0.0347209 0.0054732 0.0347209 0.0054732 0.0347209 0.9945268 -0.0347209
65056131 0.9943666 -0.0372300 0.0056334 0.0372300 0.0056334 0.0372300 0.9943666 -0.0372300
67374444 0.9941453 -0.0398000 0.0058547 0.0398000 0.0058547 0.0398000 0.9941453 -0.0398000
69775372 0.9939636 -0.0424382 0.0060364 0.0424382 0.0060364 0.0424382 0.9939636 -0.0424382
72261858 0.9937341 -0.0451277 0.0062659 0.0451277 0.0062659 0.0451277 0.9937341 -0.0451277
74836951 0.9934767 -0.0478331 0.0065233 0.0478331 0.0065233 0.0478331 0.9934767 -0.0478331
77503810 0.9932124 -0.0506442 0.0067876 0.0506442 0.0067876 0.0506442 0.9932124 -0.0506442
80265703 0.9929123 -0.0535044 0.0070877 0.0535044 0.0070877 0.0535044 0.9929123 -0.0535044
83126018 0.9925754 -0.0564266 0.0074246 0.0564266 0.0074246 0.0564266 0.9925754 -0.0564266
86088262 0.9922287 -0.0594276 0.0077713 0.0594276 0.0077713 0.0594276 0.9922287 -0.0594276
89156068 0.9918560 -0.0624640 0.0081440 0.0624640 0.0081440 0.0624640 0.9918560 -0.0624640
92333196 0.9914195 -0.0656017 0.0085805 0.0656017 0.0085805 0.0656017 0.9914195 -0.0656017
95623543 0.9909972 -0.0688332 0.0090028 0.0688332 0.0090028 0.0688332 0.9909972 -0.0688332
99031144 0.9904731 -0.0721136 0.0095269 0.0721136 0.0095269 0.0721136 0.9904731 -0.0721136
102560176 0.9899708 -0.0755157 0.0100292 0.0755157 0.0100292 0.0755157 0.9899708 -0.0755157
106214968 0.9894080 -0.0789629 0.0105920 0.0789629 0.0105920 0.0789629 0.9894080 -0.0789629
110000000 0.9887947 -0.0825421 0.0112053 0.0825421 0.0112053 0.0825421 0.9887947 -0.0825421
112590446 0.9879717 -0.0862476 0.0120283 0.0862476 0.0120283 0.0862476 0.9879717 -0.0862476
117189080 0.9869889 -0.0906390 0.0130111 0.0906390 0.0130111 0.0906390 0.9869889 -0.0906390
121975541 0.9861514 -0.0950519 0.0138486 0.0950519 0.0138486 0.0950519 0.9861514 -0.0950519
126957499 0.9852052 -0.0995898 0.0147948 0.0995898 0.0147948 0.0995898 0.9852052 -0.0995898
132142940 0.9841283 -0.1044808 0.0158717 0.1044808 0.0158717 0.1044808 0.9841283 -0.1044808
137540175 0.9829596 -0.1093887 0.0170404 0.1093887 0.0170404 0.1093887 0.9829596 -0.1093887
143157853 0.9816449 -0.1144412 0.0183551 0.1144412 0.0183551 0.1144412 0.9816449 -0.1144412
149004980 0.9803146 -0.1197794 0.0196854 0.1197794 0.0196854 0.1197794 0.9803146 -0.1197794
155090927 0.9789421 -0.1251675 0.0210579 0.1251675 0.0210579 0.1251675 0.9789421 -0.1251675
161425447 0.9772657 -0.1306831 0.0227343 0.1306831 0.0227343 0.1306831 0.9772657 -0.1306831
168018693 0.9755045 -0.1365132 0.0244955 0.1365132 0.0244955 0.1365132 0.9755045 -0.1365132
174881234 0.9735228 -0.1425663 0.0264772 0.1425663 0.0264772 0.1425663 0.9735228 -0.1425663
182024068 0.9715580 -0.1487715 0.0284420 0.1487715 0.0284420 0.1487715 0.9715580 -0.1487715
189458643 0.9693241 -0.1552288 0.0306759 0.1552288 0.0306759 0.1552288 0.9693241 -0.1552288
197196875 0.9669610 -0.1617842 0.0330390 0.1617842 0.0330390 0.1617842 0.9669610 -0.1617842
205251167 0.9642517 -0.1687120 0.0357483 0.1687120 0.0357483 0.1687120 0.9642517 -0.1687120
213634427 0.9613959 -0.1758135 0.0386041 0.1758135 0.0386041 0.1758135 0.9613959 -0.1758135
222360093 0.9583608 -0.1830417 0.0416392 0.1830417 0.0416392 0.1830417 0.9583608 -0.1830417
231442149 0.9550159 -0.1905787 0.0449841 0.1905787 0.0449841 0.1905787 0.9550159 -0.1905787
240895152 0.9514144 -0.1984679 0.0485856 0.1984679 0.0485856 0.1984679 0.9514144 -0.1984679
250734252 0.9474995 -0.2066737 0.0525005 0.2066737 0.0525005 0.2066737 0.9474995 -0.2066737
260975220 0.9431279 -0.2149188 0.0568721 0.2149188 0.0568721 0.2149188 0.9431279 -0.2149188
271634469 0.9385217 -0.2234549 0.0614783 0.2234549 0.0614783 0.2234549 0.9385217 -0.2234549
282729083 0.9334138 -0.2322816 0.0665862 0.2322816 0.0665862 0.2322816 0.9334138 -0.2322816
294276845 0.9279027 -0.2414959 0.0720973 0.2414959 0.0720973 0.2414959 0.9279027 -0.2414959
306296262 0.9219143 -0.2508480 0.0780857 0.2508480 0.0780857 0.2508480 0.9219143 -0.2508480
318806600 0.9153867 -0.2604810 0.0846133 0.2604810 0.0846133 0.2604810 0.9153867 -0.2604810
331827908 0.9082780 -0.2703278 0.0917220 0.2703278 0.0917220 0.2703278 0.9082780 -0.2703278
345381058 0.9005673 -0.2804577 0.0994327 0.2804577 0.0994327 0.2804577 0.9005673 -0.2804577
359487772 0.8921888 -0.2905715 0.1078112 0.2905715 0.1078112 0.2905715 0.8921888 -0.2905715
374170659 0.8831274 -0.3010418 0.1168726 0.3010418 0.1168726 0.3010418 0.8831274 -0.3010418
389453252 0.8732370 -0.3116789 0.1267630 0.3116789 0.1267630 0.3116789 0.8732370 -0.3116789
405360046 0.8626431 -0.3222687 0.1373569 0.3222687 0.1373569 0.3222687 0.8626431 -0.3222687
421916536 0.8506785 -0.3333051 0.1493215 0.3333051 0.1493215 0.3333051 0.8506785 -0.3333051
439149258 0.8379001 -0.3439497 0.1620999 0.3439497 0.1620999 0.3439497 0.8379001 -0.3439497
457085832 0.8241101 -0.3547629 0.1758899 0.3547629 0.1758899 0.3547629 0.8241101 -0.3547629
475755005 0.8088772 -0.3654406 0.1911228 0.3654406 0.1911228 0.3654406 0.8088772 -0.3654406
495186701 0.7924833 -0.3756231 0.2075167 0.3756231 0.2075167 0.3756231 0.7924833 -0.3756231
515412063 0.7746103 -0.3858586 0.2253897 0.3858586 0.2253897 0.3858586 0.7746103 -0.3858586
536463508 0.7550786 -0.3952413 0.2449214 0.3952413 0.2449214 0.3952413 0.7550786 -0.3952413
558374776 0.7338545 -0.4039279 0.2661455 0.4039279 0.2661455 0.4039279 0.7338545 -0.4039279
581180986 0.7107489 -0.4109855 0.2892511 0.4109855 0.2892511 0.4109855 0.7107489 -0.4109855
604918691 0.6860495 -0.4168399 0.3139505 0.4168399 0.3139505 0.4168399 0.6860495 -0.4168399
629625937 0.6590808 -0.4202373 0.3409192 0.4202373 0.3409192 0.4202373 0.6590808 -0.4202373
655342323 0.6313716 -0.4205557 0.3686284 0.4205557 0.3686284 0.4205557 0.6313716 -0.4205557
682109067 0.6031434 -0.4185898 0.3968566 0.4185898 0.3968566 0.4185898 0.6031434 -0.4185898
709969070 0.5737430 -0.4135542 0.4262570 0.4135542 0.4262570 0.4135542 0.5737430 -0.4135542
738966984 0.5438953 -0.4039634 0.4561047 0.4039634 0.4561047 0.4039634 0.5438953 -0.4039634
769149286 0.5165490 -0.3890108 0.4834510 0.3890108 0.4834510 0.3890108 0.5165490 -0.3890108
800564352 0.4951203 -0.3713726 0.5048797 0.3713726 0.5048797 0.3713726 0.4951203 -0.3713726
833262532 0.4787231 -0.3575936 0.5212769 0.3575936 0.5212769 0.3575936 0.4787231 -0.3575936
867296233 0.4586441 -0.3492847 0.5413559 0.3492847 0.5413559 0.3492847 0.4586441 -0.3492847
902720004 0.4298701 -0.3387104 0.5701299 0.3387104 0.5701299 0.3387104 0.4298701 -0.3387104
939590621 0.3969333 -0.3184567 0.6030667 0.3184567 0.6030667 0.3184567 0.3969333 -0.3184567
977967177 0.3651065 -0.2871804 0.6348935 0.2871804 0.6348935 0.2871804 0.3651065 -0.2871804
1017911182 0.3387885 -0.2451905 0.6612115 0.2451905 0.6612115 0.2451905 0.3387885 -0.2451905
1059486657 0.3223148 -0.1938052 0.6776852 0.1938052 0.6776852 0.1938052 0.3223148 -0.1938052
1102760237 0.3192718 -0.1356164 0.6807282 0.1356164 0.6807282 0.1356164 0.3192718 -0.1356164
1147801278 0.3334985 -0.0744541 0.6665015 0.0744541 0.6665015 0.0744541 0.3334985 -0.0744541
1194681973 0.3683073 -0.0165718 0.6316927 0.0165718 0.6316927 0.0165718 0.3683073 -0.0165718
1243477458 0.4240841 0.0289527 0.5759159 -0.0289527 0.5759159 -0.0289527 0.4240841 0.0289527
1294265942 0.4960048 0.0513304 0.5039952 -0.0513304 0.5039952 -0.0513304 0.4960048 0.0513304
1347128826 0.5736866 0.0451160 0.4263134 -0.0451160 0.4263134 -0.0451160 0.5736866 0.0451160
1402150837 0.6444997 0.0049048 0.3555003 -0.0049048 0.3555003 -0.0049048 0.6444997 0.0049048
1459420162 0.6883579 -0.0627224 0.3116421 0.0627224 0.3116421 0.0627224 0.6883579 -0.0627224
1519028591 0.6965749 -0.1357077 0.3034251 0.1357077 0.3034251 0.1357077 0.6965749 -0.1357077
1581071660 0.6797254 -0.1985980 0.3202746 0.1985980 0.3202746 0.1985980 0.6797254 -0.1985980
1645648812 0.6462470 -0.2486926 0.3537530 0.2486926 0.3537530 0.2486926 0.6462470 -0.2486926
1712863547 0.6014436 -0.2835806 0.3985564 0.2835806 0.3985564 0.2835806 0.6014436 -0.2835806
1782823595 0.5512545 -0.3021541 0.4487455 0.3021541 0.4487455 0.3021541 0.5512545 -0.3021541
1855641085 0.5012449 -0.3056045 0.4987551 0.3056045 0.4987551 0.3056045 0.5012449 -0.3056045
1931432726 0.4542038 -0.2964648 0.5457962 0.2964648 0.5457962 0.2964648 0.4542038 -0.2964648
2010319994 0.4130220 -0.2764754 0.5869780 0.2764754 0.5869780 0.2764754 0.4130220 -0.2764754
2092429326 0.3794482 -0.2482603 0.6205518 0.2482603 0.6205518 0.2482603 0.3794482 -0.2482603
2177892326 0.3542108 -0.2140915 0.6457892 0.2140915 0.6457892 0.2140915 0.3542108 -0.2140915
2266845968 0.3381687 -0.1758150 0.6618313 0.1758150 0.6618313 0.1758150 0.3381687 -0.1758150
2359432825 0.3319075 -0.1350771 0.6680925 0.1350771 0.6680925 0.1350771 0.3319075 -0.1350771
2455801291 0.3362478 -0.0938388 0.6637522 0.0938388 0.6637522 0.0938388 0.3362478 -0.0938388
2556105823 0.3523149 -0.0544200 0.6476851 0.0544200 0.6476851 0.0544200 0.3523149 -0.0544200
2660507184 0.3811653 -0.0203594 0.6188347 0.0203594 0.6188347 0.0203594 0.3811653 -0.0203594
2769172705 0.4219516 0.0014330 0.5780484 -0.0014330 0.5780484 -0.0014330 0.4219516 0.0014330
2882276551 0.4690360 0.0025006 0.5309640 -0.0025006 0.5309640 -0.0025006 0.4690360 0.0025006
3000000000 0.5065748 -0.0200263 0.4934252 0.0200263 0.4934252 0.0200263 0.5065748 -0.0200263
