!Murata Part Number: LQW2UAS1R0J0C
!These Parameters are Measured in Series Mode Connection
!       o--[Z]--o
!Port1              Port2
!       o-------o
!
!Freq. Start=50[MHz] Stop=20[GHz], 401[Steps]
# Hz S RI R 50
!Freq.(Hz) S11(Real) S11(Imag) S21(Real) S21(Imag) S12(Real) S12(Imag) S22(Real) S22(Imag)
5.0E7 0.9029138959933011 0.28598778041519607 0.09708610400669901 -0.28598778041519607 0.09708610400669901 -0.28598778041519607 0.9029138959933011 0.28598778041519607
5.0754570186123446E7 0.9054855782399468 0.28252013992404357 0.09451442176005309 -0.28252013992404357 0.09451442176005309 -0.28252013992404357 0.9054855782399468 0.28252013992404357
5.152052789556263E7 0.9079981616135545 0.279069511708804 0.09200183838644543 -0.27906951170880406 0.09200183838644543 -0.27906951170880406 0.9079981616135545 0.279069511708804
5.229804498202928E7 0.9104526168242498 0.27563667092759037 0.08954738317575008 -0.27563667092759037 0.08954738317575008 -0.27563667092759037 0.9104526168242498 0.27563667092759037
5.308729589274893E7 0.9128499175337307 0.2722223551646224 0.08715008246626943 -0.27222235516462245 0.08715008246626943 -0.27222235516462245 0.9128499175337307 0.2722223551646224
5.388845770760058E7 0.9151910392369914 0.2688272651246659 0.08480896076300845 -0.2688272651246659 0.08480896076300845 -0.2688272651246659 0.9151910392369914 0.2688272651246659
5.470171017884717E7 0.9174769581938063 0.26545206534761384 0.08252304180619373 -0.26545206534761384 0.08252304180619373 -0.26545206534761384 0.9174769581938063 0.26545206534761384
5.5527235771465644E7 0.9197086504093135 0.2620973849408258 0.08029134959068654 -0.2620973849408258 0.08029134959068654 -0.2620973849408258 0.9197086504093135 0.2620973849408258
5.6365219704085544E7 0.9218870906629926 0.25876381832693796 0.07811290933700744 -0.25876381832693796 0.07811290933700744 -0.25876381832693796 0.9218870906629926 0.25876381832693796
5.721584999054556E7 0.9240132515852422 0.2554519260049572 0.07598674841475785 -0.2554519260049572 0.07598674841475785 -0.2554519260049572 0.9240132515852422 0.2554519260049572
5.807931748207712E7 0.9260881027807203 0.2521622353225498 0.07391189721927983 -0.2521622353225497 0.07391189721927983 -0.2521622353225497 0.9260881027807203 0.2521622353225498
5.8955815910124585E7 0.928112609997548 0.2488952412575349 0.07188739000245192 -0.2488952412575349 0.07188739000245192 -0.2488952412575349 0.928112609997548 0.2488952412575349
5.984554192981184E7 0.9300877343414385 0.2456514072066801 0.06991226565856141 -0.2456514072066801 0.06991226565856141 -0.2456514072066801 0.9300877343414385 0.2456514072066801
6.074869516406457E7 0.9320144315337582 0.24243116578000126 0.06798556846624193 -0.24243116578000126 0.06798556846624193 -0.24243116578000126 0.9320144315337582 0.24243116578000126
6.166547824839868E7 0.9338936512125029 0.23923491959885215 0.06610634878749716 -0.2392349195988521 0.06610634878749716 -0.2392349195988521 0.9338936512125029 0.23923491959885215
6.2596096876384385E7 0.9357263362751319 0.23606304209618387 0.06427366372486805 -0.23606304209618387 0.06427366372486805 -0.23606304209618387 0.9357263362751319 0.23606304209618387
6.354075984579668E7 0.9375134222621728 0.23291587831744381 0.0624865777378273 -0.23291587831744376 0.0624865777378273 -0.23291587831744376 0.9375134222621728 0.23291587831744381
6.449967910546205E7 0.9392558367804906 0.2297937457206671 0.0607441632195094 -0.2297937457206671 0.0607441632195094 -0.2297937457206671 0.9392558367804906 0.2297937457206671
6.547306980281226E7 0.9409544989650958 0.226696934974403 0.059045501034904385 -0.22669693497440305 0.059045501034904385 -0.22669693497440305 0.9409544989650958 0.226696934974403
6.646115033215589E7 0.9426103189783404 0.22362571075219842 0.05738968102165963 -0.22362571075219848 0.05738968102165963 -0.22362571075219848 0.9426103189783404 0.22362571075219842
6.746414238367817E7 0.9442241975453535 0.22058031252244387 0.05577580245464644 -0.22058031252244387 0.05577580245464644 -0.22058031252244387 0.9442241975453535 0.22058031252244387
6.848227099318038E7 0.9457970255245437 0.21756095533246333 0.05420297447545628 -0.21756095533246333 0.05420297447545628 -0.21756095533246333 0.9457970255245437 0.21756095533246333
6.951576459256999E7 0.9473296835120012 0.2145678305858114 0.052670316487998796 -0.21456783058581144 0.052670316487998796 -0.21456783058581144 0.9473296835120012 0.2145678305858114
7.056485506111258E7 0.9488230414786256 0.21160110681180871 0.05117695852137436 -0.21160110681180871 0.05117695852137436 -0.21160110681180871 0.9488230414786256 0.21160110681180871
7.162977777745734E7 0.9502779584388054 0.2086609304264241 0.04972204156119473 -0.2086609304264241 0.04972204156119473 -0.2086609304264241 0.9502779584388054 0.2086609304264241
7.271077167244768E7 0.9516952821494783 0.20574742648368036 0.048304717850521706 -0.20574742648368038 0.048304717850521706 -0.20574742648368038 0.9516952821494783 0.20574742648368036
7.380807928272885E7 0.9530758488384126 0.20286069941682539 0.04692415116158747 -0.20286069941682539 0.04692415116158747 -0.20286069941682539 0.9530758488384126 0.20286069941682539
7.492194680516452E7 0.9544204829605463 0.20000083376858155 0.04557951703945369 -0.20000083376858152 0.04557951703945369 -0.20000083376858152 0.9544204829605463 0.20000083376858155
7.60526241520746E7 0.9557299969812469 0.19716789490984094 0.04427000301875315 -0.19716789490984094 0.04427000301875315 -0.19716789490984094 0.9557299969812469 0.19716789490984094
7.720036500730675E7 0.957005191185352 0.1943619297462415 0.042994808814648004 -0.1943619297462415 0.042994808814648004 -0.1943619297462415 0.957005191185352 0.1943619297462415
7.836542688315398E7 0.9582468535108773 0.19158296741211298 0.041753146489122664 -0.19158296741211295 0.041753146489122664 -0.19158296741211295 0.9582468535108773 0.19158296741211298
7.954807117813127E7 0.9594557594062872 0.18883101995133683 0.040544240593712616 -0.18883101995133683 0.040544240593712616 -0.18883101995133683 0.9594557594062872 0.18883101995133683
8.074856323562416E7 0.960632671710245 0.1861060829847217 0.03936732828975499 -0.18610608298472167 0.03936732828975499 -0.18610608298472167 0.960632671710245 0.1861060829847217
8.196717240342227E7 0.9617783405527762 0.18340813636353892 0.03822165944722379 -0.18340813636353892 0.03822165944722379 -0.18340813636353892 0.9617783405527762 0.18340813636353892
8.320417209415154E7 0.9628935032768052 0.18073714480891762 0.03710649672319483 -0.18073714480891762 0.03710649672319483 -0.18073714480891762 0.9628935032768052 0.18073714480891762
8.445983984661816E7 0.9639788843790371 0.1780930585368415 0.03602111562096287 -0.17809305853684151 0.03602111562096287 -0.17809305853684151 0.9639788843790371 0.1780930585368415
8.573445738807854E7 0.9650351954691907 0.17547581386853228 0.034964804530809294 -0.1754758138685323 0.034964804530809294 -0.1754758138685323 0.9650351954691907 0.17547581386853228
8.702831069744885E7 0.9660631352466028 0.1728853338260487 0.03393686475339718 -0.1728853338260487 0.03393686475339718 -0.1728853338260487 0.9660631352466028 0.1728853338260487
8.834169006946853E7 0.9670633894932571 0.17032152871296252 0.032936610506743035 -0.17032152871296252 0.032936610506743035 -0.17032152871296252 0.9670633894932571 0.17032152871296252
8.96748901798321E7 0.9680366310823073 0.16778429668001907 0.031963368917692726 -0.16778429668001907 0.031963368917692726 -0.16778429668001907 0.9680366310823073 0.16778429668001907
9.1028210151304E7 0.9689835200012002 0.16527352427571254 0.031016479998799737 -0.1652735242757125 0.031016479998799737 -0.1652735242757125 0.9689835200012002 0.16527352427571254
9.240195362083109E7 0.9699047033885189 0.16278908698174885 0.030095296611481002 -0.16278908698174885 0.030095296611481002 -0.16278908698174885 0.9699047033885189 0.16278908698174885
9.379642880766791E7 0.9708008155837036 0.16033084973339054 0.029199184416296375 -0.16033084973339054 0.029199184416296375 -0.16033084973339054 0.9708008155837036 0.16033084973339054
9.521194858253023E7 0.9716724781888268 0.1578986674247122 0.028327521811173186 -0.1578986674247122 0.028327521811173186 -0.1578986674247122 0.9716724781888268 0.1578986674247122
9.664883053779216E7 0.9725203001416313 0.1554923853988153 0.02747969985836862 -0.15549238539881532 0.02747969985836862 -0.15549238539881532 0.9725203001416313 0.1554923853988153
9.810739705874248E7 0.9733448777990623 0.1531118399230805 0.026655122200937707 -0.15311183992308053 0.026655122200937707 -0.15311183992308053 0.9733448777990623 0.1531118399230805
9.958797539591652E7 0.9741467950305538 0.1507568586495528 0.0258532049694461 -0.1507568586495528 0.0258532049694461 -0.1507568586495528 0.9741467950305538 0.1507568586495528
1.0109089773851961E8 0.9749266233203583 0.14842726106057816 0.025073376679641653 -0.1484272610605782 0.025073376679641653 -0.1484272610605782 0.9749266233203583 0.14842726106057816
1.0261650128895843E8 0.9756849218782288 0.14612285889982754 0.02431507812177118 -0.14612285889982754 0.02431507812177118 -0.14612285889982754 0.9756849218782288 0.14612285889982754
1.0416512833849736E8 0.9764222377577965 0.14384345658886077 0.02357776224220356 -0.14384345658886077 0.02357776224220356 -0.14384345658886077 0.9764222377577965 0.14384345658886077
1.0573712634405641E8 0.9771391059820064 0.14158885162939847 0.02286089401799377 -0.14158885162939847 0.02286089401799377 -0.14158885162939847 0.9771391059820064 0.14158885162939847
1.0733284800616828E8 0.9778360496750024 0.13935883499148402 0.022163950324997593 -0.13935883499148402 0.022163950324997593 -0.13935883499148402 0.9778360496750024 0.13935883499148402
1.0895265134811176E8 0.9785135801998791 0.1371531914877281 0.02148641980012098 -0.13715319148772812 0.02148641980012098 -0.13715319148772812 0.9785135801998791 0.1371531914877281
1.1059689979623953E8 0.9791721973017354 0.1349717001338416 0.020827802698264623 -0.13497170013384163 0.020827802698264623 -0.13497170013384163 0.9791721973017354 0.1349717001338416
1.1226596226151802E8 0.9798123892555012 0.13281413449566967 0.020187610744498957 -0.13281413449566967 0.020187610744498957 -0.13281413449566967 0.9798123892555012 0.13281413449566967
1.1396021322229806E8 0.9804346330180173 0.13068026302294952 0.019565366981982774 -0.13068026302294952 0.019565366981982774 -0.13068026302294952 0.9804346330180173 0.13068026302294952
1.1568003280833441E8 0.9810393943838854 0.1285698493700209 0.01896060561611468 -0.1285698493700209 0.01896060561611468 -0.1285698493700209 0.9810393943838854 0.1285698493700209
1.1742580688607343E8 0.9816271281446152 0.12648265270372291 0.01837287185538483 -0.12648265270372291 0.01837287185538483 -0.12648265270372291 0.9816271281446152 0.12648265270372291
1.1919792714522783E8 0.9821982782506268 0.12441842799871816 0.017801721749373275 -0.12441842799871816 0.017801721749373275 -0.12441842799871816 0.9821982782506268 0.12441842799871816
1.2099679118665792E8 0.9827532779756806 0.12237692632048554 0.0172467220243193 -0.12237692632048554 0.0172467220243193 -0.12237692632048554 0.9827532779756806 0.12237692632048554
1.2282280261157903E8 0.9832925500833329 0.12035789509622878 0.016707449916667057 -0.12035789509622875 0.016707449916667057 -0.12035789509622875 0.9832925500833329 0.12035789509622878
1.2467637111211549E8 0.9838165069950278 0.11836107837394666 0.016183493004972245 -0.11836107837394665 0.016183493004972245 -0.11836107837394665 0.9838165069950278 0.11836107837394666
1.265579125632208E8 0.9843255509594633 0.11638621706991475 0.015674449040536623 -0.11638621706991477 0.015674449040536623 -0.11638621706991477 0.9843255509594633 0.11638621706991475
1.284678491159853E8 0.9848200742228814 0.11443304920482625 0.015179925777118488 -0.11443304920482625 0.015179925777118488 -0.11443304920482625 0.9848200742228814 0.11443304920482625
1.3040660929235186E8 0.9853004591999501 0.11250131012883863 0.014699540800049852 -0.11250131012883864 0.014699540800049852 -0.11250131012883864 0.9853004591999501 0.11250131012883863
1.3237462808126101E8 0.9857670786449252 0.11059073273577397 0.014232921355074837 -0.11059073273577397 0.014232921355074837 -0.11059073273577397 0.9857670786449252 0.11059073273577397
1.3437234703624701E8 0.9862202958227925 0.10870104766671544 0.01377970417720747 -0.10870104766671546 0.01377970417720747 -0.10870104766671546 0.9862202958227925 0.10870104766671544
1.364002143745067E8 0.986660464680108 0.10683198350324209 0.013339535319892029 -0.10683198350324208 0.013339535319892029 -0.10683198350324208 0.986660464680108 0.10683198350324209
1.3845868507746372E8 0.9870879300152656 0.10498326695053709 0.012912069984734391 -0.10498326695053709 0.012912069984734391 -0.10498326695053709 0.9870879300152656 0.10498326695053709
1.405482209928499E8 0.9875030276479402 0.1031546230106062 0.012496972352059843 -0.1031546230106062 0.012496972352059843 -0.1031546230106062 0.9875030276479402 0.1031546230106062
1.426692909383278E8 0.9879060845874612 0.10134577514583121 0.012093915412538767 -0.10134577514583121 0.012093915412538767 -0.10134577514583121 0.9879060845874612 0.10134577514583121
1.4482237080667645E8 0.9882974191998894 0.09955644543308413 0.011702580800110577 -0.09955644543308413 0.011702580800110577 -0.09955644543308413 0.9882974191998894 0.09955644543308413
1.4700794367256513E8 0.9886773413735761 0.09778635470861737 0.011322658626423836 -0.09778635470861738 0.011322658626423836 -0.09778635470861738 0.9886773413735761 0.09778635470861737
1.492264999009378E8 0.9890461526829993 0.09603522270394148 0.010953847317000621 -0.09603522270394148 0.010953847317000621 -0.09603522270394148 0.9890461526829993 0.09603522270394148
1.5147853725703382E8 0.9894041465506771 0.09430276817289324 0.010595853449322824 -0.09430276817289324 0.010595853449322824 -0.09430276817289324 0.9894041465506771 0.09430276817289324
1.5376456101806876E8 0.9897516084069709 0.09258870901008966 0.01024839159302912 -0.09258870901008966 0.01024839159302912 -0.09258870901008966 0.9897516084069709 0.09258870901008966
1.5608508408660066E8 0.9900888158475967 0.09089276236095532 0.009911184152403255 -0.09089276236095534 0.009911184152403255 -0.09089276236095534 0.9900888158475967 0.09089276236095532
1.5844062710560706E8 0.9904160387886731 0.08921464472350217 0.009583961211326694 -0.08921464472350217 0.009583961211326694 -0.08921464472350217 0.9904160387886731 0.08921464472350217
1.6083171857529896E8 0.9907335396191381 0.08755407204202889 0.009266460380861952 -0.0875540720420289 0.009266460380861952 -0.0875540720420289 0.9907335396191381 0.08755407204202889
1.632588949716973E8 0.9910415733503724 0.08591075979290082 0.008958426649627673 -0.08591075979290085 0.008958426649627673 -0.08591075979290085 0.9910415733503724 0.08591075979290082
1.6572270086699936E8 0.9913403877628788 0.08428442306255682 0.008659612237121308 -0.08428442306255683 0.008659612237121308 -0.08428442306255683 0.9913403877628788 0.08428442306255682
1.6822368905176118E8 0.9916302235498582 0.08267477661788021 0.008369776450141683 -0.08267477661788021 0.008369776450141683 -0.08267477661788021 0.9916302235498582 0.08267477661788021
1.7076242065892437E8 0.991911314457539 0.08108153496905877 0.008088685542460967 -0.08108153496905877 0.008088685542460967 -0.08108153496905877 0.991911314457539 0.08108153496905877
1.7333946528971428E8 0.9921838874221065 0.07950441242504383 0.007816112577893523 -0.07950441242504384 0.007816112577893523 -0.07950441242504384 0.9921838874221065 0.07950441242504383
1.7595540114143828E8 0.9924481627030909 0.0779431231417076 0.007551837296909018 -0.0779431231417076 0.007551837296909018 -0.0779431231417076 0.9924481627030909 0.0779431231417076
1.786108151372127E8 0.9927043540130629 0.07639738116278066 0.007295645986937207 -0.07639738116278066 0.007295645986937207 -0.07639738116278066 0.9927043540130629 0.07639738116278066
1.8130630305764765E8 0.992952668643486 0.07486690045363749 0.007047331356514088 -0.07486690045363749 0.007047331356514088 -0.07486690045363749 0.992952668643486 0.07486690045363749
1.840424696745189E8 0.9931933075865778 0.07335139492798087 0.006806692413422293 -0.07335139492798089 0.006806692413422293 -0.07335139492798089 0.9931933075865778 0.07335139492798087
1.8681992888645732E8 0.9934264656530167 0.07185057846745792 0.006573534346983194 -0.07185057846745792 0.006573534346983194 -0.07185057846745792 0.9934264656530167 0.07185057846745792
1.8963930385668582E8 0.9936523315853353 0.0703641649342213 0.006347668414664734 -0.0703641649342213 0.006347668414664734 -0.0703641649342213 0.9936523315853353 0.0703641649342213
1.92501227152835E8 0.9938710881668226 0.06889186817643085 0.0061289118331773465 -0.06889186817643085 0.0061289118331773465 -0.06889186817643085 0.9938710881668226 0.06889186817643085
1.9540634088886917E8 0.9940829123257598 0.06743340202666548 0.005917087674239986 -0.06743340202666548 0.005917087674239986 -0.06743340202666548 0.9940829123257598 0.06743340202666548
1.983552968691535E8 0.9942879752347888 0.06598848029319529 0.005712024765211112 -0.06598848029319529 0.005712024765211112 -0.06598848029319529 0.9942879752347888 0.06598848029319529
2.0134875673469606E8 0.9944864424052062 0.06455681674403631 0.005513557594793756 -0.06455681674403631 0.005513557594793756 -0.06455681674403631 0.9944864424052062 0.06455681674403631
2.0438739211159652E8 0.9946784737759586 0.06313812508368424 0.005321526224041335 -0.06313812508368424 0.005321526224041335 -0.06313812508368424 0.9946784737759586 0.06313812508368424
2.074718847617352E8 0.9948642237970888 0.06173211892239379 0.005135776202911063 -0.061732118922393775 0.005135776202911063 -0.061732118922393775 0.9948642237970888 0.06173211892239379
2.106029267357361E8 0.9950438415073646 0.06033851173783793 0.004956158492635337 -0.060338511737837934 0.004956158492635337 -0.060338511737837934 0.9950438415073646 0.06033851173783793
2.1378122052823865E8 0.995217470605791 0.058957016828947946 0.004782529394208829 -0.058957016828947946 0.004782529394208829 -0.058957016828947946 0.995217470605791 0.058957016828947946
2.1700747923551247E8 0.9953852495166796 0.05758734726169631 0.004614750483320423 -0.0575873472616963 0.004614750483320423 -0.0575873472616963 0.9953852495166796 0.05758734726169631
2.2028242671545094E8 0.9955473114479049 0.056229215806544164 0.004452688552095169 -0.05622921580654416 0.004452688552095169 -0.05622921580654416 0.9955473114479049 0.056229215806544164
2.23606797749979E8 0.995703784441947 0.05488233486723062 0.0042962155580531045 -0.05488233486723061 0.0042962155580531045 -0.05488233486723061 0.995703784441947 0.05488233486723062
2.2698133820991236E8 0.9958547914192608 0.053546416400531545 0.0041452085807390905 -0.05354641640053153 0.0041452085807390905 -0.05354641640053153 0.9958547914192608 0.053546416400531545
2.3040680522230446E8 0.9960004502134676 0.05222117182656206 0.003999549786532355 -0.05222117182656205 0.003999549786532355 -0.05222117182656205 0.9960004502134676 0.05222117182656206
2.338839673403185E8 0.9961408735977934 0.050906311929138894 0.0038591264022067345 -0.050906311929138894 0.0038591264022067345 -0.050906311929138894 0.9961408735977934 0.050906311929138894
2.37413604715664E8 0.9962761693021163 0.04960154674565209 0.0037238306978837543 -0.0496015467456521 0.0037238306978837543 -0.0496015467456521 0.9962761693021163 0.04960154674565209
2.4099650927363476E8 0.9964064400198974 0.048306585445826423 0.003593559980102532 -0.048306585445826423 0.003593559980102532 -0.048306585445826423 0.9964064400198974 0.048306585445826423
2.446334848907889E8 0.9965317834041763 0.04702113619867125 0.0034682165958237537 -0.04702113619867125 0.0034682165958237537 -0.04702113619867125 0.9965317834041763 0.04702113619867125
2.4832534757531032E8 0.9966522920517076 0.04574490602683337 0.00334770794829253 -0.04574490602683337 0.00334770794829253 -0.04574490602683337 0.9966522920517076 0.04574490602683337
2.5207292565009177E8 0.9967680534741924 0.04447760064746731 0.0032319465258076868 -0.04447760064746731 0.0032319465258076868 -0.04447760064746731 0.9967680534741924 0.04447760064746731
2.558770599385812E8 0.9968791500554133 0.04321892429863269 0.003120849944586766 -0.0432189242986327 0.003120849944586766 -0.0432189242986327 0.9968791500554133 0.04321892429863269
2.5973860395343277E8 0.9969856589929212 0.041968579550108256 0.0030143410070787207 -0.041968579550108256 0.0030143410070787207 -0.041968579550108256 0.9969856589929212 0.041968579550108256
2.6365842408800447E8 0.9970876522227363 0.04072626709737806 0.0029123477772637868 -0.040726267097378074 0.0029123477772637868 -0.040726267097378074 0.9970876522227363 0.04072626709737806
2.676373998107465E8 0.9971851963253032 0.03949168553739962 0.002814803674696793 -0.03949168553739963 0.002814803674696793 -0.03949168553739963 0.9971851963253032 0.03949168553739962
2.7167642386252224E8 0.9972783524106995 0.038264531124596934 0.002721647589300458 -0.03826453112459695 0.002721647589300458 -0.03826453112459695 0.9972783524106995 0.038264531124596934
2.757764024569081E8 0.9973671759807946 0.03704449750533762 0.00263282401920544 -0.037044497505337615 0.00263282401920544 -0.037044497505337615 0.9973671759807946 0.03704449750533762
2.7993825548351544E8 0.9974517167657293 0.035831275428947366 0.002548283234270717 -0.035831275428947366 0.002548283234270717 -0.035831275428947366 0.9974517167657293 0.035831275428947366
2.8416291671438086E8 0.9975320185316904 0.03462455243308442 0.0024679814683096265 -0.03462455243308442 0.0024679814683096265 -0.03462455243308442 0.9975320185316904 0.03462455243308442
2.884513340134719E8 0.9976081188564966 0.03342401250103811 0.0023918811435035135 -0.03342401250103811 0.0023918811435035135 -0.03342401250103811 0.9976081188564966 0.03342401250103811
2.9280446954935396E8 0.9976800488689818 0.032229335688227355 0.0023199511310184454 -0.03222933568822735 0.0023199511310184454 -0.03222933568822735 0.9976800488689818 0.032229335688227355
2.972233000110666E8 0.997747832947535 0.03104019771485054 0.0022521670524649983 -0.03104019771485054 0.0022521670524649983 -0.03104019771485054 0.997747832947535 0.03104019771485054
3.0170881682725817E8 0.9978114883724258 0.029856269521275527 0.002188511627574175 -0.029856269521275527 0.002188511627574175 -0.029856269521275527 0.9978114883724258 0.029856269521275527
3.0626202638862675E8 0.9978710249256751 0.02867721678235245 0.002128975074324958 -0.028677216782352456 0.002128975074324958 -0.028677216782352456 0.9978710249256751 0.02867721678235245
3.1088395027371895E8 0.997926444431224 0.02750269937637642 0.0020735555687760874 -0.027502699376376415 0.0020735555687760874 -0.027502699376376415 0.997926444431224 0.02750269937637642
3.1557562547813565E8 0.9979777402269424 0.026332370803919366 0.0020222597730575396 -0.02633237080391936 0.0020222597730575396 -0.02633237080391936 0.9979777402269424 0.026332370803919366
3.203381046471968E8 0.9980248965585968 0.025165877551181774 0.0019751034414031577 -0.025165877551181774 0.0019751034414031577 -0.025165877551181774 0.9980248965585968 0.025165877551181774
3.251724563121182E8 0.9980678878841986 0.024002858391882043 0.0019321121158013188 -0.02400285839188204 0.0019321121158013188 -0.02400285839188204 0.9980678878841986 0.024002858391882043
3.3007976512975127E8 0.9981066780751382 0.022842943620998455 0.0018933219248618326 -0.022842943620998448 0.0018933219248618326 -0.022842943620998448 0.9981066780751382 0.022842943620998455
3.350611321259421E8 0.9981412194980859 0.021685754212901257 0.0018587805019140665 -0.02168575421290125 0.0018587805019140665 -0.02168575421290125 0.9981412194980859 0.021685754212901257
3.401176749425622E8 0.9981714519587506 0.02053090089555565 0.0018285480412494864 -0.020530900895555655 0.0018285480412494864 -0.020530900895555655 0.9981714519587506 0.02053090089555565
3.4525052808826786E8 0.9981973014850919 0.019377983131542938 0.0018026985149080382 -0.019377983131542934 0.0018026985149080382 -0.019377983131542934 0.9981973014850919 0.019377983131542938
3.5046084319304353E8 0.9982186789233857 0.018226587995635743 0.001781321076614219 -0.018226587995635743 0.001781321076614219 -0.018226587995635743 0.9982186789233857 0.018226587995635743
3.5574978926658666E8 0.9982354783154396 0.017076288937586306 0.0017645216845604873 -0.017076288937586313 0.0017645216845604873 -0.017076288937586313 0.9982354783154396 0.017076288937586306
3.61118552960592E8 0.9982475750190807 0.015926644417659883 0.0017524249809193662 -0.015926644417659886 0.0017524249809193662 -0.015926644417659886 0.9982475750190807 0.015926644417659883
3.665683388349941E8 0.9982548235264996 0.014777196401302256 0.0017451764735003828 -0.014777196401302267 0.0017451764735003828 -0.014777196401302267 0.9982548235264996 0.014777196401302256
3.721003696282278E8 0.9982570549258192 0.013627468698222454 0.0017429450741807536 -0.013627468698222461 0.0017429450741807536 -0.013627468698222461 0.9982570549258192 0.013627468698222454
3.777158865315673E8 0.9982540739399578 0.012476965130179946 0.0017459260600421738 -0.012476965130179948 0.0017459260600421738 -0.012476965130179948 0.9982540739399578 0.012476965130179946
3.834161494676055E8 0.9982456554629356 0.011325167511017307 0.0017543445370642233 -0.011325167511017298 0.0017543445370642233 -0.011325167511017298 0.9982456554629356 0.011325167511017307
3.892024373729356E8 0.9982315404965756 0.010171533422164218 0.001768459503424378 -0.010171533422164205 0.001768459503424378 -0.010171533422164205 0.9982315404965756 0.010171533422164218
3.950760484850994E8 0.9982114313692134 0.009015493767235165 0.001788568630786581 -0.009015493767235159 0.001788568630786581 -0.009015493767235159 0.9982114313692134 0.009015493767235165
4.010383006338658E8 0.9981849860914845 0.007856450090874746 0.0018150139085153453 -0.007856450090874743 0.0018150139085153453 -0.007856450090874743 0.9981849860914845 0.007856450090874746
4.0709053153690434E8 0.998151811671069 0.006693771650279466 0.0018481883289310514 -0.0066937716502794824 0.0018481883289310514 -0.0066937716502794824 0.998151811671069 0.006693771650279466
4.1323409909992224E8 0.9981114561666709 0.005526792233748884 0.0018885438333290912 -0.005526792233748899 0.0018885438333290912 -0.005526792233748899 0.9981114561666709 0.005526792233748884
4.194703817213299E8 0.9980633992091497 0.004354806730511483 0.0019366007908503127 -0.004354806730511503 0.0019366007908503127 -0.004354806730511503 0.9980633992091497 0.004354806730511483
4.258007786015047E8 0.9980070406515739 0.0031770674718739423 0.0019929593484260474 -0.0031770674718739414 0.0019929593484260474 -0.0031770674718739414 0.9980070406515739 0.0031770674718739423
4.3222671005672157E8 0.9979416869261712 0.001992780388300299 0.0020583130738286944 -0.0019927803883003467 0.0020583130738286944 -0.0019927803883003467 0.9979416869261712 0.001992780388300299
4.3874961783782214E8 0.9978665345796116 8.011010645365555E-4 0.0021334654203883753 -8.01101064536559E-4 0.0021334654203883753 -8.01101064536559E-4 0.9978665345796116 8.011010645365555E-4
4.453709654536917E8 0.997780650322285 -3.9886916846160983E-4 0.002219349677715084 3.9886916846158837E-4 0.002219349677715084 3.9886916846158837E-4 0.997780650322285 -3.9886916846160983E-4
4.520922384996192E8 0.9976829467537993 -0.0016080868810968065 0.002317053246200713 0.0016080868810967961 0.002317053246200713 0.0016080868810967961 0.9976829467537993 -0.0016080868810968065
4.589149449906117E8 0.9975721527050808 -0.0028275695816304992 0.0024278472949193337 0.0028275695816305083 0.0024278472949193337 0.0028275695816305083 0.9975721527050808 -0.0028275695816304992
4.658406156997396E8 0.9974467768536067 -0.004058397601924887 0.002553223146393196 0.004058397601924868 0.002553223146393196 0.004058397601924868 0.9974467768536067 -0.004058397601924887
4.728708045015879E8 0.9973050629055925 -0.005301714010842518 0.0026949370944075865 0.005301714010842534 0.0026949370944075865 0.005301714010842534 0.9973050629055925 -0.005301714010842518
4.800070887208901E8 0.9971449341771206 -0.006558721313112609 0.002855065822879263 0.0065587213131126365 0.002855065822879263 0.0065587213131126365 0.9971449341771206 -0.006558721313112609
4.87251069486424E8 0.9969639248223757 -0.007830673062643099 0.0030360751776242006 0.007830673062643104 0.0030360751776242006 0.007830673062643104 0.9969639248223757 -0.007830673062643099
4.946043720902484E8 0.9967590942282394 -0.009118857576670318 0.0032409057717605696 0.009118857576670294 0.0032409057717605696 0.009118857576670294 0.9967590942282394 -0.009118857576670318
5.0206864635236067E8 0.9965269202039112 -0.010424569520073868 0.0034730797960888975 0.010424569520073854 0.0034730797960888975 0.010424569520073854 0.9965269202039112 -0.010424569520073868
5.0964556699085766E8 0.9962631655460648 -0.01174906299255196 0.0037368344539352913 0.011749062992551995 0.0037368344539352913 0.011749062992551995 0.9962631655460648 -0.01174906299255196
5.173368339976832E8 0.9959627114097985 -0.013093476521717714 0.004037288590201493 0.01309347652171772 0.004037288590201493 0.01309347652171772 0.9959627114097985 -0.013093476521717714
5.2514417302004623E8 0.9956193498315419 -0.014458715476185898 0.004380650168458179 0.01445871547618592 0.004380650168458179 0.01445871547618592 0.9956193498315419 -0.014458715476185898
5.330693357475939E8 0.9952255271352727 -0.015845270014582 0.00477447286472744 0.015845270014582025 0.00477447286472744 0.015845270014582025 0.9952255271352727 -0.015845270014582
5.411141003054292E8 0.9947720306831295 -0.017252935530548387 0.005227969316870546 0.017252935530548377 0.005227969316870546 0.017252935530548377 0.9947720306831295 -0.017252935530548387
5.49280271653059E8 0.9942476153070616 -0.018680385877632467 0.005752384692938404 0.01868038587763246 0.005752384692938404 0.01868038587763246 0.9942476153070616 -0.018680385877632467
5.575696819893626E8 0.9936385763571319 -0.020124525163596554 0.00636142364286811 0.02012452516359657 0.00636142364286811 0.02012452516359657 0.9936385763571319 -0.020124525163596554
5.659841911636728E8 0.9929283005222772 -0.021579509107007618 0.007071699477722887 0.021579509107007594 0.007071699477722887 0.021579509107007594 0.9929283005222772 -0.021579509107007618
5.745256870930587E8 0.9920968762966849 -0.023035280617985147 0.007903123703315144 0.023035280617985123 0.007903123703315144 0.023035280617985123 0.9920968762966849 -0.023035280617985147
5.831960861859089E8 0.9911209461593522 -0.02447541067718799 0.008879053840647723 0.024475410677187996 0.008879053840647723 0.024475410677187996 0.9911209461593522 -0.02447541067718799
5.919973337719042E8 0.9899741702579419 -0.025873995406704695 0.010025829742058224 0.02587399540670469 0.010025829742058224 0.02587399540670469 0.9899741702579419 -0.025873995406704695
6.009314045384814E8 0.9886290008759304 -0.027191395297847816 0.01137099912406961 0.027191395297847806 0.01137099912406961 0.027191395297847806 0.9886290008759304 -0.027191395297847816
6.100003029738818E8 0.9870609885523502 -0.028368864944389574 0.012939011447649551 0.02836886494438958 0.012939011447649551 0.02836886494438958 0.9870609885523502 -0.028368864944389574
6.19206063816889E8 0.9852575112403867 -0.02932292761285925 0.014742488759613249 0.029322927612859245 0.014742488759613249 0.029322927612859245 0.9852575112403867 -0.02932292761285925
6.285507525133506E8 0.9832332417521901 -0.029942212983289893 0.016766758247809904 0.02994221298328993 0.016766758247809904 0.02994221298328993 0.9832332417521901 -0.029942212983289893
6.380364656795913E8 0.9810535763403601 -0.030092819806229024 0.018946423659639947 0.030092819806229045 0.018946423659639947 0.030092819806229045 0.9810535763403601 -0.030092819806229024
6.476653315728192E8 0.9788620457850531 -0.02964211225685951 0.021137954214946894 0.02964211225685951 0.021137954214946894 0.02964211225685951 0.9788620457850531 -0.02964211225685951
6.574395105686314E8 0.9768960233936044 -0.028510051899453655 0.023103976606395623 0.02851005189945361 0.023103976606395623 0.02851005189945361 0.9768960233936044 -0.028510051899453655
6.67361195645725E8 0.9754617110653936 -0.02674143851012007 0.024538288934606398 0.026741438510120067 0.024538288934606398 0.026741438510120067 0.9754617110653936 -0.02674143851012007
6.774326128779243E8 0.974845862692603 -0.02455868688536878 0.025154137307397 0.02455868688536876 0.025154137307397 0.02455868688536876 0.974845862692603 -0.02455868688536878
6.876560219336321E8 0.9751906048496765 -0.022334085310132548 0.024809395150323724 0.02233408531013258 0.024809395150323724 0.02233408531013258 0.9751906048496765 -0.022334085310132548
6.980337165828195E8 0.976416705220152 -0.020465908821692056 0.02358329477984818 0.020465908821692105 0.02358329477984818 0.020465908821692105 0.976416705220152 -0.020465908821692056
7.085680252116663E8 0.9782623265683723 -0.01923405652552637 0.021737673431627778 0.01923405652552634 0.021737673431627778 0.01923405652552634 0.9782623265683723 -0.01923405652552637
7.192613113449682E8 0.9804043195989801 -0.01873405806583068 0.0195956804010198 0.01873405806583065 0.0195956804010198 0.01873405806583065 0.9804043195989801 -0.01873405806583068
7.301159741764276E8 0.9825693089046107 -0.01890915001431405 0.017430691095389153 0.018909150014314074 0.017430691095389153 0.018909150014314074 0.9825693089046107 -0.01890915001431405
7.411344491069478E8 0.9845810382349529 -0.019625594223694184 0.015418961765047085 0.019625594223694143 0.015418961765047085 0.019625594223694143 0.9845810382349529 -0.019625594223694184
7.523192082910503E8 0.9863537910448447 -0.02073639307494807 0.013646208955155392 0.02073639307494808 0.013646208955155392 0.02073639307494808 0.9863537910448447 -0.02073639307494807
7.636727611915388E8 0.9878641640076444 -0.022115058164004726 0.012135835992355504 0.022115058164004758 0.012135835992355504 0.022115058164004758 0.9878641640076444 -0.022115058164004726
7.751976551425331E8 0.9891234828367486 -0.023665742095344038 0.010876517163251446 0.023665742095344052 0.010876517163251446 0.023665742095344052 0.9891234828367486 -0.023665742095344038
7.868964759210002E8 0.9901585563614136 -0.025321227599660042 0.00984144363858633 0.025321227599660063 0.00984144363858633 0.025321227599660063 0.9901585563614136 -0.025321227599660042
7.987718483269122E8 0.9910005286788292 -0.02703683013068801 0.008999471321170786 0.02703683013068802 0.008999471321170786 0.02703683013068802 0.9910005286788292 -0.02703683013068801
8.108264367721564E8 0.9916793135944425 -0.028784129592138673 0.008320686405557593 0.028784129592138642 0.008320686405557593 0.028784129592138642 0.9916793135944425 -0.028784129592138673
8.230629458783358E8 0.9922212844132877 -0.03054588939212708 0.007778715586712152 0.030545889392127084 0.007778715586712152 0.030545889392127084 0.9922212844132877 -0.03054588939212708
8.354841210835901E8 0.9926486542313419 -0.03231234804168347 0.0073513457686580665 0.03231234804168348 0.0073513457686580665 0.03231234804168348 0.9926486542313419 -0.03231234804168347
8.48092749258575E8 0.9929796380821356 -0.03407866064144457 0.007020361917864339 0.034078660641444554 0.007020361917864339 0.034078660641444554 0.9929796380821356 -0.03407866064144457
8.608916593317347E8 0.9932289160400406 -0.03584319323204695 0.006771083959959336 0.03584319323204693 0.006771083959959336 0.03584319323204693 0.9932289160400406 -0.03584319323204695
8.738837229240161E8 0.9934081617773761 -0.03760641411642611 0.006591838222623928 0.03760641411642611 0.006591838222623928 0.03760641411642611 0.9934081617773761 -0.03760641411642611
8.870718549931567E8 0.9935265310972368 -0.039370191813713755 0.006473468902763145 0.03937019181371377 0.006473468902763145 0.03937019181371377 0.9935265310972368 -0.039370191813713755
9.004590144876978E8 0.9935910693044062 -0.04113736802030247 0.006408930695593581 0.04113736802030247 0.006408930695593581 0.04113736802030247 0.9935910693044062 -0.04113736802030247
9.140482050108682E8 0.9936070252805861 -0.042911518802590864 0.0063929747194138775 0.04291151880259085 0.0063929747194138775 0.04291151880259085 0.9936070252805861 -0.042911518802590864
9.278424754944855E8 0.9935780705622782 -0.04469684951312762 0.0064219294377218725 0.04469684951312762 0.0064219294377218725 0.04469684951312762 0.9935780705622782 -0.04469684951312762
9.418449208830277E8 0.993506422059231 -0.04649819195366387 0.006493577940768982 0.04649819195366388 0.006493577940768982 0.04649819195366388 0.993506422059231 -0.04649819195366387
9.560586828280303E8 0.993392860857667 -0.04832108941007567 0.006607139142333018 0.04832108941007567 0.006607139142333018 0.04832108941007567 0.993392860857667 -0.04832108941007567
9.704869503929601E8 0.9932366271339715 -0.05017196912291008 0.006763372866028385 0.05017196912291006 0.006763372866028385 0.05017196912291006 0.9932366271339715 -0.05017196912291008
9.85132960768728E8 0.9930351499193831 -0.052058414782779325 0.006964850080616743 0.05205841478277933 0.006964850080616743 0.05205841478277933 0.9930351499193831 -0.052058414782779325
1.0E9 0.9927835335650578 -0.053989565497254303 0.007216466434942182 0.053989565497254303 0.007216466434942182 0.053989565497254303 0.9927835335650578 -0.053989565497254303
1.0150914037224686E9 0.9924736559650018 -0.05597668308822829 0.007526344034998204 0.055976683088228285 0.007526344034998204 0.055976683088228285 0.9924736559650018 -0.05597668308822829
1.0304105579112525E9 0.9920926067935393 -0.058033943860896685 0.007907393206460785 0.05803394386089669 0.007907393206460785 0.05803394386089669 0.9920926067935393 -0.058033943860896685
1.0459608996405853E9 0.9916199418639448 -0.060179509410815006 0.008380058136055236 0.060179509410815006 0.008380058136055236 0.060179509410815006 0.9916199418639448 -0.060179509410815006
1.0617459178549787E9 0.9910227050164737 -0.0624368566685891 0.008977294983526212 0.062436856668589086 0.008977294983526212 0.062436856668589086 0.9910227050164737 -0.0624368566685891
1.0777691541520112E9 0.9902460289922554 -0.06483599325589863 0.009753971007744567 0.06483599325589862 0.009753971007744567 0.06483599325589862 0.9902460289922554 -0.06483599325589863
1.0940342035769434E9 0.9891945648731569 -0.06741278927507025 0.010805435126843054 0.06741278927507025 0.010805435126843054 0.06741278927507025 0.9891945648731569 -0.06741278927507025
1.1105447154293125E9 0.9876942316705781 -0.07019930186406255 0.012305768329421875 0.07019930186406255 0.012305768329421875 0.07019930186406255 0.9876942316705781 -0.07019930186406255
1.127304394081711E9 0.9854124925972152 -0.07317691591519909 0.014587507402784744 0.07317691591519908 0.014587507402784744 0.07317691591519908 0.9854124925972152 -0.07317691591519909
1.1443169998109112E9 0.9817121639534842 -0.07608033163964026 0.018287836046515862 0.07608033163964023 0.018287836046515862 0.07608033163964023 0.9817121639534842 -0.07608033163964026
1.1615863496415424E9 0.975615549165407 -0.07765882057839088 0.02438445083459294 0.07765882057839087 0.02438445083459294 0.07765882057839087 0.975615549165407 -0.07765882057839088
1.1791163182024915E9 0.9676828986515296 -0.07408654884923976 0.032317101348470385 0.07408654884923976 0.032317101348470385 0.07408654884923976 0.9676828986515296 -0.07408654884923976
1.196910838596237E9 0.9659848916283827 -0.06356513469645265 0.03401510837161723 0.06356513469645264 0.03401510837161723 0.06356513469645264 0.9659848916283827 -0.06356513469645265
1.2149739032812912E9 0.9738670084996252 -0.05768914721547582 0.026132991500374833 0.05768914721547585 0.026132991500374833 0.05768914721547585 0.9738670084996252 -0.05768914721547582
1.2333095649679737E9 0.981013646497735 -0.05937593977073262 0.018986353502265137 0.059375939770732626 0.018986353502265137 0.059375939770732626 0.981013646497735 -0.05937593977073262
1.2519219375276875E9 0.9847963214992671 -0.06324296041273483 0.015203678500732976 0.06324296041273482 0.015203678500732976 0.06324296041273482 0.9847963214992671 -0.06324296041273483
1.2708151969159338E9 0.9865731425150488 -0.06713438830048596 0.013426857484951213 0.06713438830048594 0.013426857484951213 0.06713438830048594 0.9865731425150488 -0.06713438830048596
1.2899935821092408E9 0.9873371683317677 -0.07068104979268876 0.012662831668232294 0.07068104979268876 0.012662831668232294 0.07068104979268876 0.9873371683317677 -0.07068104979268876
1.3094613960562458E9 0.9875697599055249 -0.07391407765375135 0.012430240094475065 0.07391407765375133 0.012430240094475065 0.07391407765375133 0.9875697599055249 -0.07391407765375135
1.329223006643118E9 0.9874992347227419 -0.07691770688205984 0.012500765277258158 0.07691770688205984 0.012500765277258158 0.07691770688205984 0.9874992347227419 -0.07691770688205984
1.3492828476735637E9 0.9872386620112941 -0.07976405873445613 0.01276133798870594 0.07976405873445615 0.01276133798870594 0.07976405873445615 0.9872386620112941 -0.07976405873445613
1.3696454198636076E9 0.9868466794511661 -0.08250677187414147 0.013153320548833898 0.08250677187414147 0.013153320548833898 0.08250677187414147 0.9868466794511661 -0.08250677187414147
1.3903152918514004E9 0.9863545952429281 -0.08518488185054267 0.01364540475707193 0.08518488185054268 0.01364540475707193 0.08518488185054268 0.9863545952429281 -0.08518488185054267
1.4112971012222517E9 0.9857790552582524 -0.0878271734683523 0.014220944741747595 0.08782717346835231 0.014220944741747595 0.08782717346835231 0.9857790552582524 -0.0878271734683523
1.4325955555491471E9 0.9851282719814899 -0.09045544373403931 0.014871728018510218 0.09045544373403933 0.014871728018510218 0.09045544373403933 0.9851282719814899 -0.09045544373403931
1.4542154334489536E9 0.9844052186560853 -0.09308674223081184 0.015594781343914645 0.09308674223081184 0.015594781343914645 0.09308674223081184 0.9844052186560853 -0.09308674223081184
1.4761615856545765E9 0.9836093070720573 -0.09573487865150544 0.01639069292794265 0.09573487865150543 0.01639069292794265 0.09573487865150543 0.9836093070720573 -0.09573487865150544
1.4984389361032903E9 0.9827372598490598 -0.09841143814815316 0.017262740150940155 0.09841143814815315 0.017262740150940155 0.09841143814815315 0.9827372598490598 -0.09841143814815316
1.5210524830414915E9 0.9817835236766371 -0.10112646850561208 0.018216476323362898 0.10112646850561209 0.018216476323362898 0.10112646850561209 0.9817835236766371 -0.10112646850561208
1.544007300146135E9 0.9807403963496296 -0.10388894339636259 0.01925960365037042 0.10388894339636259 0.01925960365037042 0.10388894339636259 0.9807403963496296 -0.10388894339636259
1.567308537663079E9 0.9795979526625478 -0.10670706455121393 0.020402047337452146 0.10670706455121393 0.020402047337452146 0.10670706455121393 0.9795979526625478 -0.10670706455121393
1.5909614235626256E9 0.9783438065145075 -0.10958843675379906 0.021656193485492557 0.10958843675379906 0.021656193485492557 0.10958843675379906 0.9783438065145075 -0.10958843675379906
1.6149712647124827E9 0.9769627179199822 -0.11254012748524587 0.023037282080017752 0.11254012748524587 0.023037282080017752 0.11254012748524587 0.9769627179199822 -0.11254012748524587
1.6393434480684454E9 0.9754360338967732 -0.11556860319230532 0.024563966103226833 0.11556860319230532 0.024563966103226833 0.11556860319230532 0.9754360338967732 -0.11556860319230532
1.6640834418830307E9 0.9737409363577401 -0.11867951236982423 0.02625906364225987 0.11867951236982423 0.02625906364225987 0.11867951236982423 0.9737409363577401 -0.11867951236982423
1.6891967969323635E9 0.9718494557934599 -0.12187725736687832 0.028150544206540073 0.12187725736687832 0.028150544206540073 0.12187725736687832 0.9718494557934599 -0.12187725736687832
1.7146891477615707E9 0.9697271963079103 -0.12516425601399248 0.030272803692089522 0.12516425601399242 0.030272803692089522 0.12516425601399242 0.9697271963079103 -0.12516425601399248
1.7405662139489775E9 0.9673317075873755 -0.12853973197303967 0.032668292412624395 0.12853973197303967 0.032668292412624395 0.12853973197303967 0.9673317075873755 -0.12853973197303967
1.7668338013893702E9 0.9646104394065672 -0.13199777560735412 0.03538956059343278 0.13199777560735412 0.03538956059343278 0.13199777560735412 0.9646104394065672 -0.13199777560735412
1.7934978035966423E9 0.9614982406432581 -0.13552426461763423 0.038501759356742 0.13552426461763417 0.038501759356742 0.13552426461763417 0.9614982406432581 -0.13552426461763423
1.8205642030260801E9 0.957914453932192 -0.13909199601707298 0.04208554606780807 0.139091996017073 0.04208554606780807 0.139091996017073 0.957914453932192 -0.13909199601707298
1.8480390724166224E9 0.9537598871726799 -0.14265302071562747 0.04624011282732019 0.14265302071562747 0.04624011282732019 0.14265302071562747 0.9537598871726799 -0.14265302071562747
1.875928576153358E9 0.9489144760842787 -0.14612665891509738 0.0510855239157213 0.1461266589150974 0.0510855239157213 0.1461266589150974 0.9489144760842787 -0.14612665891509738
1.9042389716506054E9 0.9432376091407711 -0.1493810456714396 0.05676239085922883 0.1493810456714396 0.05676239085922883 0.1493810456714396 0.9432376091407711 -0.1493810456714396
1.9329766107558432E9 0.9365754570042638 -0.15220560021491328 0.06342454299573619 0.15220560021491325 0.06342454299573619 0.15220560021491325 0.9365754570042638 -0.15220560021491328
1.96214794117485E9 0.9287841455514606 -0.15427256447326484 0.0712158544485394 0.15427256447326487 0.0712158544485394 0.15427256447326487 0.9287841455514606 -0.15427256447326484
1.9917595079183304E9 0.9197850295554224 -0.15509060806744743 0.08021497044457765 0.15509060806744737 0.08021497044457765 0.15509060806744737 0.9197850295554224 -0.15509060806744743
2.0218179547703927E9 0.9096769208043233 -0.153968950736622 0.09032307919567696 0.153968950736622 0.09032307919567696 0.153968950736622 0.9096769208043233 -0.153968950736622
2.0523300257791686E9 0.8989279360397595 -0.15004635142538464 0.1010720639602404 0.1500463514253846 0.1010720639602404 0.1500463514253846 0.8989279360397595 -0.15004635142538464
2.0833025667699478E9 0.8886205358243268 -0.14249424279120457 0.11137946417567327 0.1424942427912046 0.11137946417567327 0.1424942427912046 0.8886205358243268 -0.14249424279120457
2.1147425268811283E9 0.880574440589849 -0.13101206877817548 0.11942555941015096 0.13101206877817548 0.11942555941015096 0.13101206877817548 0.880574440589849 -0.13101206877817548
2.1466569601233647E9 0.876979668936627 -0.11651509504316698 0.12302033106337304 0.11651509504316697 0.12302033106337304 0.11651509504316697 0.876979668936627 -0.11651509504316698
2.179053026962235E9 0.8793311973570719 -0.10141153015096872 0.12066880264292805 0.10141153015096874 0.12066880264292805 0.10141153015096874 0.8793311973570719 -0.10141153015096872
2.21193799592479E9 0.8873157623487788 -0.08876126656918498 0.11268423765122122 0.08876126656918497 0.11268423765122122 0.08876126656918497 0.8873157623487788 -0.08876126656918498
2.2453192452303605E9 0.898849792479282 -0.08072377301145142 0.10115020752071813 0.08072377301145138 0.10115020752071813 0.08072377301145138 0.898849792479282 -0.08072377301145142
2.27920426444596E9 0.911327749918624 -0.07772544783748163 0.08867225008137584 0.07772544783748166 0.08867225008137584 0.07772544783748166 0.911327749918624 -0.07772544783748163
2.313600656166688E9 0.9228130188333664 -0.07888344469810132 0.07718698116663365 0.07888344469810131 0.07718698116663365 0.07888344469810131 0.9228130188333664 -0.07888344469810132
2.348516137721468E9 0.932370599781097 -0.08288887805530416 0.06762940021890303 0.08288887805530419 0.06762940021890303 0.08288887805530419 0.932370599781097 -0.08288887805530416
2.383958542904557E9 0.9398038343266848 -0.08859165206906655 0.06019616567331515 0.08859165206906654 0.06019616567331515 0.08859165206906654 0.9398038343266848 -0.08859165206906655
2.4199358237331576E9 0.9452881980492567 -0.09518257373342204 0.054711801950743315 0.09518257373342204 0.054711801950743315 0.09518257373342204 0.9452881980492567 -0.09518257373342204
2.456456052231581E9 0.9491215159074068 -0.10216128663783501 0.050878484092593185 0.10216128663783502 0.050878484092593185 0.10216128663783502 0.9491215159074068 -0.10216128663783501
2.4935274222423096E9 0.9515999431677876 -0.10924640994976245 0.04840005683221231 0.10924640994976244 0.04840005683221231 0.10924640994976244 0.9515999431677876 -0.10924640994976245
2.5311582512644167E9 0.9529712417626438 -0.11629463413075475 0.04702875823735636 0.11629463413075472 0.04702875823735636 0.11629463413075472 0.9529712417626438 -0.11629463413075475
2.5693569823197055E9 0.9534248543970395 -0.12324389149062658 0.046575145602960506 0.12324389149062662 0.046575145602960506 0.12324389149062662 0.9534248543970395 -0.12324389149062658
2.6081321858470373E9 0.9530960809609834 -0.13007740293614947 0.04690391903901659 0.13007740293614947 0.04690391903901659 0.13007740293614947 0.9530960809609834 -0.13007740293614947
2.64749256162522E9 0.9520738345715865 -0.13680196312930246 0.04792616542841355 0.13680196312930248 0.04792616542841355 0.13680196312930248 0.9520738345715865 -0.13680196312930246
2.687446940724941E9 0.9504077523866659 -0.1434349006231228 0.049592247613334216 0.1434349006231228 0.049592247613334216 0.1434349006231228 0.9504077523866659 -0.1434349006231228
2.7280042874901342E9 0.9481132445721572 -0.14999584828299228 0.051886755427842914 0.1499958482829923 0.051886755427842914 0.1499958482829923 0.9481132445721572 -0.14999584828299228
2.769173701549275E9 0.9451741667443835 -0.15650072563420778 0.05482583325561638 0.1565007256342078 0.05482583325561638 0.1565007256342078 0.9451741667443835 -0.15650072563420778
2.810964419856998E9 0.9415431684378148 -0.16295603303323514 0.05845683156218521 0.16295603303323514 0.05845683156218521 0.16295603303323514 0.9415431684378148 -0.16295603303323514
2.8533858187665567E9 0.9371398912140506 -0.16935174935793737 0.06286010878594926 0.16935174935793731 0.06286010878594926 0.16935174935793731 0.9371398912140506 -0.16935174935793737
2.896447416133529E9 0.9318473552698712 -0.17565084492853134 0.0681526447301288 0.17565084492853136 0.0681526447301288 0.17565084492853136 0.9318473552698712 -0.17565084492853134
2.9401588734513035E9 0.9255073863650256 -0.1817726289226675 0.07449261363497428 0.18177262892266752 0.07449261363497428 0.18177262892266752 0.9255073863650256 -0.1817726289226675
2.984529998018756E9 0.9179173362340175 -0.18756577018466836 0.08208266376598254 0.18756577018466844 0.08208266376598254 0.18756577018466844 0.9179173362340175 -0.18756577018466836
3.0295707451406775E9 0.9088337612857567 -0.19276496866129522 0.09116623871424336 0.19276496866129522 0.09116623871424336 0.19276496866129522 0.9088337612857567 -0.19276496866129522
3.0752912203613753E9 0.8979963725987212 -0.19692396793508313 0.10200362740127887 0.1969239679350831 0.10200362740127887 0.1969239679350831 0.8979963725987212 -0.19692396793508313
3.1217016817320123E9 0.8852010863927503 -0.19932121364180022 0.11479891360724975 0.19932121364180025 0.11479891360724975 0.19932121364180025 0.8852010863927503 -0.19932121364180022
3.1688125421121416E9 0.8704768727971413 -0.1988562766788414 0.1295231272028587 0.1988562766788414 0.1295231272028587 0.1988562766788414 0.8704768727971413 -0.1988562766788414
3.216634371505978E9 0.8544433287979558 -0.19402579101481315 0.1455566712020441 0.1940257910148132 0.1455566712020441 0.1940257910148132 0.8544433287979558 -0.19402579101481315
3.265177899433946E9 0.8388655740345952 -0.18322122014693465 0.16113442596540473 0.18322122014693468 0.16113442596540473 0.18322122014693468 0.8388655740345952 -0.18322122014693465
3.314454017339986E9 0.8270833500127697 -0.1657276983089712 0.17291664998723028 0.16572769830897122 0.17291664998723028 0.16572769830897122 0.8270833500127697 -0.1657276983089712
3.364473781035224E9 0.8233351040119552 -0.14337434320046066 0.17666489598804472 0.14337434320046064 0.17666489598804472 0.14337434320046064 0.8233351040119552 -0.14337434320046066
3.4152484131784873E9 0.8301855603222482 -0.12124681970490936 0.16981443967775187 0.12124681970490934 0.16981443967775187 0.12124681970490934 0.8301855603222482 -0.12124681970490936
3.4667893057942863E9 0.8459303730321498 -0.10533490013471605 0.15406962696785023 0.10533490013471601 0.15406962696785023 0.10533490013471601 0.8459303730321498 -0.10533490013471605
3.5191080228287644E9 0.8654805795113472 -0.09872054567613035 0.13451942048865284 0.09872054567613031 0.13451942048865284 0.09872054567613031 0.8654805795113472 -0.09872054567613035
3.5722163027442546E9 0.8839026537258874 -0.10058732087884809 0.11609734627411243 0.10058732087884807 0.11609734627411243 0.10058732087884807 0.8839026537258874 -0.10058732087884809
3.626126061152952E9 0.8985483831115731 -0.10822498146405471 0.10145161688842691 0.10822498146405471 0.10145161688842691 0.10822498146405471 0.8985483831115731 -0.10822498146405471
3.680849393490379E9 0.9087970265172316 -0.11903528671947451 0.09120297348276823 0.11903528671947451 0.09120297348276823 0.11903528671947451 0.9087970265172316 -0.11903528671947451
3.736398577729146E9 0.915021023174382 -0.1312578759787457 0.0849789768256179 0.13125787597874572 0.0849789768256179 0.13125787597874572 0.915021023174382 -0.1312578759787457
3.7927860771337166E9 0.9178437593246742 -0.14389933801509946 0.0821562406753257 0.14389933801509944 0.0821562406753257 0.14389933801509944 0.9178437593246742 -0.14389933801509946
3.8500245430566998E9 0.9178026564611361 -0.1564612326849859 0.08219734353886368 0.15646123268498585 0.08219734353886368 0.15646123268498585 0.9178026564611361 -0.1564612326849859
3.908126817777384E9 0.9152418428450373 -0.1687068047560233 0.08475815715496274 0.1687068047560233 0.08475815715496274 0.1687068047560233 0.9152418428450373 -0.1687068047560233
3.9671059373830695E9 0.9102941778623923 -0.18049942409360187 0.08970582213760765 0.1804994240936018 0.08970582213760765 0.1804994240936018 0.9102941778623923 -0.18049942409360187
4.0269751346939225E9 0.9028857191184231 -0.1916827016303262 0.09711428088157682 0.19168270163032616 0.09711428088157682 0.19168270163032616 0.9028857191184231 -0.1916827016303262
4.0877478422319307E9 0.892742775242318 -0.20196051340360446 0.10725722475768193 0.20196051340360444 0.10725722475768193 0.20196051340360444 0.892742775242318 -0.20196051340360446
4.1494376952347054E9 0.8794159203177544 -0.2107300003932559 0.12058407968224555 0.2107300003932559 0.12058407968224555 0.2107300003932559 0.8794159203177544 -0.2107300003932559
4.212058534714722E9 0.8623882241175903 -0.21681472271335925 0.1376117758824098 0.21681472271335925 0.1376117758824098 0.21681472271335925 0.8623882241175903 -0.21681472271335925
4.2756244105647745E9 0.84145226034885 -0.21807680317591044 0.15854773965114996 0.21807680317591044 0.15854773965114996 0.21807680317591044 0.84145226034885 -0.21807680317591044
4.34014958471025E9 0.8177413872369957 -0.21112286766093283 0.18225861276300429 0.21112286766093277 0.18225861276300429 0.21112286766093277 0.8177413872369957 -0.21112286766093283
4.405648534309019E9 0.7957324377990004 -0.19214250308718459 0.20426756220099962 0.19214250308718459 0.20426756220099962 0.19214250308718459 0.7957324377990004 -0.19214250308718459
4.472135954999579E9 0.7846086292129963 -0.16096366897646436 0.2153913707870034 0.16096366897646436 0.2153913707870034 0.16096366897646436 0.7846086292129963 -0.16096366897646436
4.539626764198246E9 0.7932652804823255 -0.1268738550978699 0.20673471951767466 0.12687385509786986 0.20673471951767466 0.12687385509786986 0.7932652804823255 -0.1268738550978699
4.608136104446089E9 0.8192974040479044 -0.104863656737219 0.1807025959520956 0.104863656737219 0.1807025959520956 0.104863656737219 0.8192974040479044 -0.104863656737219
4.677679346806369E9 0.8496695849437136 -0.10150411595106185 0.15033041505628644 0.10150411595106189 0.15033041505628644 0.10150411595106189 0.8496695849437136 -0.10150411595106185
4.74827209431328E9 0.873842926965864 -0.11214904004224159 0.1261570730341361 0.11214904004224162 0.1261570730341361 0.11214904004224162 0.873842926965864 -0.11214904004224159
4.819930185472693E9 0.8887705326861761 -0.1296272544750354 0.11122946731382378 0.1296272544750354 0.11122946731382378 0.1296272544750354 0.8887705326861761 -0.1296272544750354
4.892669697815779E9 0.8953655512617772 -0.14925822316946 0.10463444873822259 0.14925822316946 0.10463444873822259 0.14925822316946 0.8953655512617772 -0.14925822316946
4.966506951506205E9 0.8951986545998392 -0.1688329608147573 0.10480134540016094 0.16883296081475732 0.10480134540016094 0.16883296081475732 0.8951986545998392 -0.1688329608147573
5.041458513001835E9 0.8892691430947778 -0.18741390845063863 0.11073085690522222 0.1874139084506386 0.11073085690522222 0.1874139084506386 0.8892691430947778 -0.18741390845063863
5.117541198771623E9 0.877763189940329 -0.2043912768044326 0.12223681005967095 0.2043912768044326 0.12223681005967095 0.2043912768044326 0.877763189940329 -0.2043912768044326
5.194772079068655E9 0.8600854627239012 -0.21873652946090005 0.1399145372760988 0.21873652946090008 0.1399145372760988 0.21873652946090008 0.8600854627239012 -0.21873652946090005
5.273168481760088E9 0.8351119757039634 -0.2280513040950142 0.16488802429603652 0.2280513040950142 0.16488802429603652 0.2280513040950142 0.8351119757039634 -0.2280513040950142
5.35274799621493E9 0.8024069061264796 -0.22706226727706807 0.19759309387352036 0.22706226727706805 0.19759309387352036 0.22706226727706805 0.8024069061264796 -0.22706226727706807
5.433528477250444E9 0.766585381519691 -0.20662999117758976 0.23341461848030906 0.2066299911775898 0.23341461848030906 0.2066299911775898 0.766585381519691 -0.20662999117758976
5.5155280491381645E9 0.745405576542675 -0.16061770820795088 0.25459442345732514 0.16061770820795088 0.25459442345732514 0.16061770820795088 0.745405576542675 -0.16061770820795088
5.598765109670308E9 0.7623649394588617 -0.10738614722613324 0.23763506054113817 0.10738614722613325 0.23763506054113817 0.10738614722613325 0.7623649394588617 -0.10738614722613324
5.683258334287619E9 0.8085792869116912 -0.08262617775649013 0.19142071308830858 0.08262617775649017 0.19142071308830858 0.08262617775649017 0.8085792869116912 -0.08262617775649013
5.769026680269438E9 0.851038420033522 -0.09138721020557779 0.14896157996647807 0.0913872102055778 0.14896157996647807 0.0913872102055778 0.851038420033522 -0.09138721020557779
5.856089390987081E9 0.8756083687907342 -0.11569502777245624 0.1243916312092658 0.11569502777245622 0.1243916312092658 0.11569502777245622 0.8756083687907342 -0.11569502777245624
5.944466000221332E9 0.8844787151383978 -0.1428282291448854 0.11552128486160224 0.14282822914488547 0.11552128486160224 0.14282822914488547 0.8844787151383978 -0.1428282291448854
6.034176336545165E9 0.8821778995740446 -0.16799368317386912 0.11782210042595534 0.16799368317386912 0.11782210042595534 0.16799368317386912 0.8821778995740446 -0.16799368317386912
6.125240527772534E9 0.8714181045559262 -0.18969052514355128 0.12858189544407386 0.18969052514355123 0.12858189544407386 0.18969052514355123 0.8714181045559262 -0.18969052514355128
6.217679005474381E9 0.8531492120216162 -0.20690145624077844 0.1468507879783837 0.20690145624077844 0.1468507879783837 0.20690145624077844 0.8531492120216162 -0.20690145624077844
6.311512509562712E9 0.8273538075066194 -0.2176313385742172 0.1726461924933807 0.2176313385742172 0.1726461924933807 0.2176313385742172 0.8273538075066194 -0.2176313385742172
6.406762092943938E9 0.7943613658397197 -0.2177853500567683 0.20563863416028036 0.2177853500567683 0.20563863416028036 0.2177853500567683 0.7943613658397197 -0.2177853500567683
6.503449126242364E9 0.7576901749307093 -0.2006994961289519 0.24230982506929072 0.20069949612895185 0.24230982506929072 0.20069949612895185 0.7576901749307093 -0.2006994961289519
6.601595302595024E9 0.7287033264755 -0.16041094215514906 0.2712966735245001 0.16041094215514906 0.2712966735245001 0.16041094215514906 0.7287033264755 -0.16041094215514906
6.701222642518842E9 0.7262551402519646 -0.1027431664196266 0.2737448597480354 0.10274316641962661 0.2737448597480354 0.10274316641962661 0.7262551402519646 -0.1027431664196266
6.802353498851242E9 0.7589362052298447 -0.05192651047699379 0.2410637947701553 0.051926510476993766 0.2410637947701553 0.051926510476993766 0.7589362052298447 -0.05192651047699379
6.905010561765357E9 0.8101901898537206 -0.029164135240409537 0.1898098101462795 0.029164135240409544 0.1898098101462795 0.029164135240409544 0.8101901898537206 -0.029164135240409537
7.009216863860868E9 0.8576773650399633 -0.03285205836827752 0.14232263496003672 0.03285205836827751 0.14232263496003672 0.03285205836827751 0.8576773650399633 -0.03285205836827752
7.114995785331733E9 0.8922857150807967 -0.050493245173022235 0.10771428491920325 0.05049324517302222 0.10771428491920325 0.05049324517302222 0.8922857150807967 -0.050493245173022235
7.222371059211838E9 0.9148058746513192 -0.07258218731569807 0.08519412534868064 0.07258218731569804 0.08519412534868064 0.07258218731569804 0.9148058746513192 -0.07258218731569807
7.331366776699882E9 0.9286116585650231 -0.09459364398261855 0.07138834143497694 0.09459364398261856 0.07138834143497694 0.09459364398261856 0.9286116585650231 -0.09459364398261855
7.442007392564552E9 0.9366494773386055 -0.1149148540887257 0.06335052266139451 0.11491485408872572 0.06335052266139451 0.11491485408872572 0.9366494773386055 -0.1149148540887257
7.554317730631347E9 0.940945797423902 -0.13320102614638146 0.059054202576098024 0.13320102614638143 0.059054202576098024 0.13320102614638143 0.940945797423902 -0.13320102614638146
7.668322989352107E9 0.9427985824237541 -0.14957264316751956 0.05720141757624586 0.14957264316751956 0.05720141757624586 0.14957264316751956 0.9427985824237541 -0.14957264316751956
7.784048747458713E9 0.9430261528159227 -0.1642841315475805 0.05697384718407746 0.16428413154758054 0.05697384718407746 0.16428413154758054 0.9430261528159227 -0.1642841315475805
7.901520969701988E9 0.9421475330987645 -0.1776001542594405 0.05785246690123547 0.17760015425944045 0.05785246690123547 0.17760015425944045 0.9421475330987645 -0.1776001542594405
8.020766012677318E9 0.9404967663693459 -0.18975537989122548 0.05950323363065398 0.1897553798912254 0.05950323363065398 0.1897553798912254 0.9404967663693459 -0.18975537989122548
8.141810630738087E9 0.9382926321575845 -0.2009459069813305 0.06170736784241541 0.20094590698133047 0.06170736784241541 0.20094590698133047 0.9382926321575845 -0.2009459069813305
8.264681981998447E9 0.9356809710624961 -0.21133171865685565 0.0643190289375037 0.21133171865685565 0.0643190289375037 0.21133171865685565 0.9356809710624961 -0.21133171865685565
8.389407634426599E9 0.9327606255340309 -0.22104222696897052 0.06723937446596902 0.22104222696897058 0.06723937446596902 0.22104222696897058 0.9327606255340309 -0.22104222696897052
8.516015572030096E9 0.9295995880643747 -0.23018200935640007 0.0704004119356252 0.23018200935640007 0.0704004119356252 0.23018200935640007 0.9295995880643747 -0.23018200935640007
8.644534201134432E9 0.9262452344200147 -0.23883580968562634 0.07375476557998509 0.23883580968562634 0.07375476557998509 0.23883580968562634 0.9262452344200147 -0.23883580968562634
8.774992356756447E9 0.9227309285226676 -0.24707261996475804 0.07726907147733249 0.24707261996475804 0.07726907147733249 0.24707261996475804 0.9227309285226676 -0.24707261996475804
8.907419309073835E9 0.9190803626544146 -0.2549489167961667 0.08091963734558523 0.2549489167961667 0.08091963734558523 0.2549489167961667 0.9190803626544146 -0.2549489167961667
9.041844769992386E9 0.9153104587667967 -0.26251119636366144 0.08468954123320326 0.26251119636366144 0.08468954123320326 0.26251119636366144 0.9153104587667967 -0.26251119636366144
9.178298899812233E9 0.9114333394628645 -0.26979795254864813 0.08856666053713544 0.26979795254864813 0.08856666053713544 0.26979795254864813 0.9114333394628645 -0.26979795254864813
9.316812313994795E9 0.9074576873135698 -0.2768412218744738 0.09254231268643023 0.27684122187447385 0.09254231268643023 0.27684122187447385 0.9074576873135698 -0.2768412218744738
9.457416090031757E9 0.9033896955953602 -0.28366779437924183 0.0966103044046398 0.28366779437924183 0.0966103044046398 0.28366779437924183 0.9033896955953602 -0.28366779437924183
9.600141774417799E9 0.8992337420135579 -0.29030016741729714 0.10076625798644219 0.29030016741729714 0.10076625798644219 0.29030016741729714 0.8992337420135579 -0.29030016741729714
9.74502138972848E9 0.8949928719801025 -0.2967573013652152 0.1050071280198975 0.29675730136521516 0.1050071280198975 0.29675730136521516 0.8949928719801025 -0.2967573013652152
9.892087441804964E9 0.8906691492518889 -0.30305522214163294 0.10933085074811118 0.30305522214163294 0.10933085074811118 0.30305522214163294 0.8906691492518889 -0.30305522214163294
1.0041372927047213E10 0.8862639130681748 -0.3092075047062151 0.11373608693182526 0.3092075047062151 0.11373608693182526 0.3092075047062151 0.8862639130681748 -0.3092075047062151
1.019291133981715E10 0.8817779686328605 -0.3152256635792606 0.11822203136713964 0.3152256635792606 0.11822203136713964 0.3152256635792606 0.8817779686328605 -0.3152256635792606
1.0346736679953665E10 0.8772117295810512 -0.3211194703039578 0.12278827041894866 0.3211194703039579 0.12278827041894866 0.3211194703039579 0.8772117295810512 -0.3211194703039578
1.050288346040092E10 0.8725653255195988 -0.32689721316358267 0.12743467448040127 0.32689721316358267 0.12743467448040127 0.32689721316358267 0.8725653255195988 -0.32689721316358267
1.0661386714951878E10 0.8678386839321188 -0.33256591098562316 0.1321613160678813 0.3325659109856232 0.1321613160678813 0.3325659109856232 0.8678386839321188 -0.33256591098562316
1.082228200610858E10 0.8630315931081678 -0.33813149022737654 0.1369684068918323 0.33813149022737654 0.1369684068918323 0.33813149022737654 0.8630315931081678 -0.33813149022737654
1.0985605433061178E10 0.8581437509146116 -0.3435989325297058 0.1418562490853884 0.3435989325297058 0.1418562490853884 0.3435989325297058 0.8581437509146116 -0.3435989325297058
1.115139363978725E10 0.8531748029248553 -0.34897239838918687 0.1468251970751447 0.3489723983891869 0.1468251970751447 0.3489723983891869 0.8531748029248553 -0.34897239838918687
1.1319683823273457E10 0.8481243724916687 -0.3542553314167428 0.15187562750833128 0.3542553314167428 0.15187562750833128 0.3542553314167428 0.8481243724916687 -0.3542553314167428
1.1490513741861174E10 0.8429920846793073 -0.35945054673622595 0.15700791532069275 0.35945054673622595 0.15700791532069275 0.35945054673622595 0.8429920846793073 -0.35945054673622595
1.1663921723718182E10 0.8377775854836927 -0.3645603063647282 0.16222241451630717 0.3645603063647282 0.16222241451630717 0.3645603063647282 0.8377775854836927 -0.3645603063647282
1.1839946675438086E10 0.8324805574126918 -0.36958638385948955 0.1675194425873083 0.36958638385948955 0.1675194425873083 0.36958638385948955 0.8324805574126918 -0.36958638385948955
1.201862809076963E10 0.8271007322351663 -0.37453012007805386 0.17289926776483366 0.37453012007805386 0.17289926776483366 0.37453012007805386 0.8271007322351663 -0.37453012007805386
1.2200006059477636E10 0.8216379015116667 -0.37939247155155703 0.17836209848833331 0.3793924715515571 0.17836209848833331 0.3793924715515571 0.8216379015116667 -0.37939247155155703
1.2384121276337788E10 0.8160919253730236 -0.38417405269517396 0.1839080746269765 0.384174052695174 0.1839080746269765 0.384174052695174 0.8160919253730236 -0.38417405269517396
1.2571015050267014E10 0.810462739902661 -0.3888751728591069 0.18953726009733898 0.3888751728591069 0.18953726009733898 0.3888751728591069 0.810462739902661 -0.3888751728591069
1.2760729313591831E10 0.8047503633947225 -0.39349586904611616 0.19524963660527742 0.39349586904611616 0.19524963660527742 0.39349586904611616 0.8047503633947225 -0.39349586904611616
1.2953306631456385E10 0.7989549016963053 -0.39803593497823636 0.20104509830369469 0.39803593497823625 0.20104509830369469 0.39803593497823625 0.7989549016963053 -0.39803593497823636
1.3148790211372633E10 0.7930765527932128 -0.40249494707890227 0.2069234472067872 0.4024949470789022 0.2069234472067872 0.4024949470789022 0.7930765527932128 -0.40249494707890227
1.3347223912914501E10 0.7871156107610232 -0.40687228784168233 0.2128843892389768 0.40687228784168233 0.2128843892389768 0.40687228784168233 0.7871156107610232 -0.40687228784168233
1.354865225755849E10 0.7810724691741969 -0.41116716697888894 0.21892753082580307 0.411167166978889 0.21892753082580307 0.411167166978889 0.7810724691741969 -0.41116716697888894
1.3753120438672642E10 0.7749476240434269 -0.41537864067910485 0.2250523759565732 0.41537864067910485 0.2250523759565732 0.41537864067910485 0.7749476240434269 -0.41537864067910485
1.3960674331656387E10 0.768741676333916 -0.4195056292495042 0.2312583236660841 0.4195056292495042 0.2312583236660841 0.4195056292495042 0.768741676333916 -0.4195056292495042
1.4171360504233326E10 0.7624553341036566 -0.42354693337461047 0.23754466589634338 0.42354693337461047 0.23754466589634338 0.42354693337461047 0.7624553341036566 -0.42354693337461047
1.438522622689936E10 0.7560894142901863 -0.4275012491861875 0.24391058570981372 0.4275012491861875 0.24391058570981372 0.4275012491861875 0.7560894142901863 -0.4275012491861875
1.4602319483528553E10 0.749644844166073 -0.43136718230794246 0.2503551558339271 0.43136718230794246 0.2503551558339271 0.43136718230794246 0.749644844166073 -0.43136718230794246
1.482268898213895E10 0.7431226624770385 -0.4351432610125836 0.25687733752296155 0.4351432610125836 0.25687733752296155 0.4351432610125836 0.7431226624770385 -0.4351432610125836
1.5046384165821007E10 0.7365240202717611 -0.43882794860664714 0.2634759797282387 0.43882794860664714 0.2634759797282387 0.43882794860664714 0.7365240202717611 -0.43882794860664714
1.527345522383077E10 0.729850181428732 -0.44241965513970855 0.270149818571268 0.44241965513970843 0.270149818571268 0.44241965513970843 0.729850181428732 -0.44241965513970855
1.5503953102850658E10 0.723102522882817 -0.4459167485185594 0.27689747711718316 0.44591674851855934 0.27689747711718316 0.44591674851855934 0.723102522882817 -0.4459167485185594
1.573792951842E10 0.7162825345522609 -0.44931756509320664 0.2837174654477391 0.4493175650932066 0.2837174654477391 0.4493175650932066 0.7162825345522609 -0.44931756509320664
1.5975436966538242E10 0.7093918189655588 -0.45262041976976775 0.2906081810344413 0.45262041976976775 0.2906081810344413 0.45262041976976775 0.7093918189655588 -0.45262041976976775
1.6216528735443121E10 0.7024320905868577 -0.4558236156952027 0.29756790941314226 0.45582361569520274 0.29756790941314226 0.45582361569520274 0.7024320905868577 -0.4558236156952027
1.646125891756672E10 0.69540517483822 -0.45892545355007996 0.30459482516178016 0.45892545355007996 0.30459482516178016 0.45892545355007996 0.69540517483822 -0.45892545355007996
1.6709682421671806E10 0.6883130068171049 -0.4619242404780241 0.311686993182895 0.4619242404780241 0.311686993182895 0.4619242404780241 0.6883130068171049 -0.4619242404780241
1.6961854985171501E10 0.6811576297077562 -0.464818298673988 0.3188423702922438 0.464818298673988 0.3188423702922438 0.464818298673988 0.6811576297077562 -0.464818298673988
1.7217833186634693E10 0.6739411928857785 -0.46760597364785444 0.3260588071142216 0.46760597364785444 0.3260588071142216 0.46760597364785444 0.6739411928857785 -0.46760597364785444
1.7477674458480328E10 0.6666659497159729 -0.47028564217504953 0.3333340502840271 0.4702856421750495 0.3333340502840271 0.4702856421750495 0.6666659497159729 -0.47028564217504953
1.7741437099863132E10 0.6593342550444924 -0.4728557199416793 0.3406657449555077 0.47285571994167924 0.3406657449555077 0.47285571994167924 0.6593342550444924 -0.4728557199416793
1.8009180289753963E10 0.6519485623874831 -0.4753146688881762 0.3480514376125169 0.4753146688881762 0.3480514376125169 0.4753146688881762 0.6519485623874831 -0.4753146688881762
1.8280964100217365E10 0.6445114208196392 -0.47766100425242947 0.35548857918036086 0.4776610042524296 0.35548857918036086 0.4776610042524296 0.6445114208196392 -0.47766100425242947
1.8556849509889713E10 0.6370254715674064 -0.4798933013108821 0.36297452843259354 0.47989330131088215 0.36297452843259354 0.47989330131088215 0.6370254715674064 -0.4798933013108821
1.8836898417660553E10 0.6294934443130016 -0.4820102018140028 0.37050655568699836 0.4820102018140028 0.37050655568699836 0.4820102018140028 0.6294934443130016 -0.4820102018140028
1.912117365656061E10 0.621918153216834 -0.484010420110898 0.3780818467831662 0.484010420110898 0.3780818467831662 0.484010420110898 0.621918153216834 -0.484010420110898
1.94097390078592E10 0.6143024926674251 -0.4858927489565335 0.3856975073325749 0.48589274895653345 0.3856975073325749 0.48589274895653345 0.6143024926674251 -0.4858927489565335
1.9702659215374565E10 0.6066494327693881 -0.4876560649940953 0.3933505672306119 0.4876560649940953 0.3933505672306119 0.4876560649940953 0.6066494327693881 -0.4876560649940953
2.0E10 0.598962014581517 -0.48929933390438607 0.401037985418483 0.48929933390438607 0.401037985418483 0.48929933390438607 0.598962014581517 -0.48929933390438607
