# MHz S MA R 50      
!Freq                MagS11               AngS11               MagS21               AngS21               MagS12               AngS12               MagS22               AngS22               
1                    0.003085101670913    29.0883953033612     0.997305147832001    -0.086167205242949   0.997305147832001    -0.086167205242949   0.003085101670913    29.0883953033612     
1.01025285177096     0.003094865046109    29.313701009297      0.997302576592743    -0.0870504412458     0.997302576592743    -0.0870504412458     0.003094865046109    29.313701009297      
1.02061082451136     0.003104765765065    29.5399872745901     0.997299991859025    -0.087942729472038   0.997299991859025    -0.087942729472038   0.003104765765065    29.5399872745901     
1.03107499601092     0.003114805783458    29.7672431713833     0.997297393554559    -0.088844162678807   0.997297393554559    -0.088844162678807   0.003114805783458    29.7672431713833     
1.04164645510977     0.00312498707926     29.9954574734382     0.997294781602518    -0.089754834573428   0.997294781602518    -0.089754834573428   0.00312498707926     29.9954574734382     
1.05232630181176     0.003135311652837    30.2246186565516     0.997292155925551    -0.090674839823127   0.997292155925551    -0.090674839823127   0.003135311652837    30.2246186565516     
1.06311564739892     0.00314578152705     30.4547148991625     0.997289516445713    -0.09160427406486    0.997289516445713    -0.09160427406486    0.00314578152705     30.4547148991625     
1.07401561454709     0.003156398747357    30.6857340831535     0.997286863084533    -0.092543233915244   0.997286863084533    -0.092543233915244   0.003156398747357    30.6857340831535     
1.08502733744274     0.0031671653819      30.917663794849      0.997284195762958    -0.09349181698059    0.997284195762958    -0.09349181698059    0.0031671653819      30.917663794849      
1.09615196190098     0.00317808352161     31.150491326212      0.997281514401372    -0.09445012186703    0.997281514401372    -0.09445012186703    0.00317808352161     31.150491326212      
1.10739064548481     0.003189155280288    31.3842036762443     0.997278818919576    -0.095418248190754   0.997278818919576    -0.095418248190754   0.003189155280288    31.3842036762443     
1.11874455762551     0.003200382794705    31.6187875525909     0.997276109236788    -0.096396296588359   0.997276109236788    -0.096396296588359   0.003200382794705    31.6187875525909     
1.13021487974442     0.003211768224682    31.85422937335       0.997273385271627    -0.097384368727281   0.997273385271627    -0.097384368727281   0.003211768224682    31.85422937335       
1.14180280537577     0.003223313753181    32.0905152690935     0.997270646942126    -0.098382567316363   0.997270646942126    -0.098382567316363   0.003223313753181    32.0905152690935     
1.15350954029096     0.003235021586387    32.3276310850949     0.997267894165709    -0.099390996116508   0.997267894165709    -0.099390996116508   0.003235021586387    32.3276310850949     
1.16533630262396     0.003246893953793    32.5655623837713     0.997265126859178    -0.100409759951451   0.997265126859178    -0.100409759951451   0.003246893953793    32.5655623837713     
1.17728432299808     0.003258933108278    32.8042944473364     0.997262344938741    -0.101438964718644   0.997262344938741    -0.101438964718644   0.003258933108278    32.8042944473364     
1.18935484465406     0.003271141326186    33.0438122806671     0.997259548319947    -0.102478717400241   0.997259548319947    -0.102478717400241   0.003271141326186    33.0438122806671     
1.20154912357938     0.003283520907409    33.2841006143858     0.997256736917746    -0.10352912607421    0.997256736917746    -0.10352912607421    0.003283520907409    33.2841006143858     
1.21386842863897     0.003296074175456    33.5251439081546     0.997253910646411    -0.104590299925541   0.997253910646411    -0.104590299925541   0.003296074175456    33.5251439081546     
1.22631404170725     0.003308803477532    33.7669263541867     0.997251069419598    -0.105662349257593   0.997251069419598    -0.105662349257593   0.003308803477532    33.7669263541867     
1.23888725780153     0.003321711184612    34.0094318809699     0.9972482131503      -0.106745385503526   0.9972482131503      -0.106745385503526   0.003321711184612    34.0094318809699     
1.2515893852167      0.003334799691509    34.2526441572051     0.997245341750831    -0.10783952123788    0.997245341750831    -0.10783952123788    0.003334799691509    34.2526441572051     
1.26442174566144     0.003348071416952    34.4965465959579     0.997242455132852    -0.108944870188255   0.997242455132852    -0.108944870188255   0.003348071416952    34.4965465959579     
1.27738567439569     0.003361528803648    34.7411223590198     0.997239553207324    -0.110061547247107   0.997239553207324    -0.110061547247107   0.003361528803648    34.7411223590198     
1.29048252036962     0.003375174318358    34.9863543614843     0.99723663588455     -0.111189668483688   0.99723663588455     -0.111189668483688   0.003375174318358    34.9863543614843     
1.30371364636399     0.003389010451962    35.2322252765252     0.997233703074103    -0.112329351156072   0.997233703074103    -0.112329351156072   0.003389010451962    35.2322252765252     
1.31708042913194     0.003403039719528    35.4787175403883     0.997230754684883    -0.113480713723343   0.997230754684883    -0.113480713723343   0.003403039719528    35.4787175403883     
1.33058425954227     0.003417264660378    35.7258133575819     0.997227790625056    -0.114643875857878   0.997227790625056    -0.114643875857878   0.003417264660378    35.7258133575819     
1.34422654272413     0.003431687838155    35.9734947062716     0.997224810802066    -0.115818958457769   0.997224810802066    -0.115818958457769   0.003431687838155    35.9734947062716     
1.35800869821328     0.003446311840893    36.2217433438732     0.997221815122636    -0.117006083659367   0.997221815122636    -0.117006083659367   0.003446311840893    36.2217433438732     
1.37193216009973     0.003461139281076    36.4705408128396     0.997218803492742    -0.118205374849959   0.997218803492742    -0.118205374849959   0.003461139281076    36.4705408128396     
1.38599837717705     0.003476172795713    36.7198684466417     0.997215775817629    -0.11941695668058    0.997215775817629    -0.11941695668058    0.003476172795713    36.7198684466417     
1.40020881309305     0.003491415046397    36.969707375934      0.997212732001747    -0.120640955078928   0.997212732001747    -0.120640955078928   0.003491415046397    36.969707375934      
1.41456494650209     0.003506868719376    37.2200385349059     0.997209671948818    -0.121877497262454   0.997209671948818    -0.121877497262454   0.003506868719376    37.2200385349059     
1.42906827121897     0.003522536525619    37.4708426678109     0.997206595561758    -0.123126711751546   0.997206595561758    -0.123126711751546   0.003522536525619    37.4708426678109     
1.44372029637437     0.003538421200885    37.7221003356701     0.997203502742701    -0.124388728382874   0.997203502742701    -0.124388728382874   0.003538421200885    37.7221003356701     
1.45852254657182     0.003554525505787    37.9737919231448     0.997200393392996    -0.12566367832286    0.997200393392996    -0.12566367832286    0.003554525505787    37.9737919231448     
1.47347656204643     0.003570852225868    38.2258976455712     0.997197267413181    -0.126951694081289   0.997197267413181    -0.126951694081289   0.003570852225868    38.2258976455712     
1.48858389882508     0.003587404171666    38.4783975561565     0.997194124702958    -0.128252909525055   0.997194124702958    -0.128252909525055   0.003587404171666    38.4783975561565     
1.50384612888838     0.00360418417879     38.7312715533221     0.99719096516122     -0.129567459892053   0.99719096516122     -0.129567459892053   0.00360418417879     38.7312715533221     
1.51926484033421     0.003621195107989    38.9844993881955     0.997187788686016    -0.130895481805211   0.997187788686016    -0.130895481805211   0.003621195107989    38.9844993881955     
1.53484163754299     0.003638439845229    39.2380606722412     0.997184595174527    -0.132237113286662   0.997184595174527    -0.132237113286662   0.003638439845229    39.2380606722412     
1.55057814134462     0.00365592130177     39.4919348850229     0.997181384523103    -0.133592493772071   0.997181384523103    -0.133592493772071   0.00365592130177     39.4919348850229     
1.56647598918712     0.003673642414243    39.7461013820919     0.9971781566272      -0.134961764125094   0.9971781566272      -0.134961764125094   0.003673642414243    39.7461013820919     
1.58253683530703     0.003691606144732    40.0005394029922     0.997174911381394    -0.136345066651994   0.997174911381394    -0.136345066651994   0.003691606144732    40.0005394029922     
1.59876235090152     0.003709815480853    40.2552280793799     0.997171648679354    -0.137742545116404   0.997171648679354    -0.137742545116404   0.003709815480853    40.2552280793799     
1.61515422430231     0.003728273435845    40.5101464432421     0.997168368413874    -0.139154344754252   0.997168368413874    -0.139154344754252   0.003728273435845    40.5101464432421     
1.63171416115133     0.003746983048654    40.7652734352123     0.997165070476782    -0.140580612288806   0.997165070476782    -0.140580612288806   0.003746983048654    40.7652734352123     
1.6484438845782      0.003765947384027    41.0205879129749     0.997161754759014    -0.142021495945916   0.997161754759014    -0.142021495945916   0.003765947384027    41.0205879129749     
1.66534513537953     0.003785169532599    41.2760686597476     0.997158421150545    -0.143477145469385   0.997158421150545    -0.143477145469385   0.003785169532599    41.2760686597476     
1.68241967220007     0.003804652610998    41.5316943928336     0.997155069540368    -0.144947712136487   0.997155069540368    -0.144947712136487   0.003804652610998    41.5316943928336     
1.69966927171569     0.003824399761943    41.7874437722398     0.997151699816541    -0.146433348773683   0.997151699816541    -0.146433348773683   0.003824399761943    41.7874437722398     
1.71709572881825     0.003844414154343    42.0432954093461     0.997148311866127    -0.147934209772462   0.997148311866127    -0.147934209772462   0.003844414154343    42.0432954093461     
1.73470085680238     0.003864698983413    42.2992278756214     0.997144905575184    -0.149450451105351   0.997144905575184    -0.149450451105351   0.003864698983413    42.2992278756214     
1.75248648755414     0.003885257470778    42.5552197113764     0.997141480828742    -0.150982230342099   0.997141480828742    -0.150982230342099   0.003885257470778    42.5552197113764     
1.77045447174164     0.003906092864593    42.811249434544      0.997138037510851    -0.152529706666027   0.997138037510851    -0.152529706666027   0.003906092864593    42.811249434544      
1.78860667900765     0.003927208439663    43.0672955494798     0.99713457550448     -0.154093040890524   0.99713457550448     -0.154093040890524   0.003927208439663    43.0672955494798     
1.80694499816407     0.003948607497566    43.3233365557719     0.997131094691546    -0.155672395475736   0.997131094691546    -0.155672395475736   0.003948607497566    43.3233365557719     
1.82547133738853     0.003970293366781    43.5793509570521     0.997127594952927    -0.157267934545416   0.997127594952927    -0.157267934545416   0.003970293366781    43.5793509570521     
1.84418762442292     0.003992269402826    43.8353172698007     0.997124076168384    -0.15887982390394    0.997124076168384    -0.15887982390394    0.003992269402826    43.8353172698007     
1.86309580677397     0.004014538988393    44.0912140321338     0.997120538216586    -0.160508231053507   0.997120538216586    -0.160508231053507   0.004014538988393    44.0912140321338     
1.88219785191593     0.004037105533494    44.3470198125668     0.997116980975108    -0.162153325211512   0.997116980975108    -0.162153325211512   0.004037105533494    44.3470198125668     
1.90149574749524     0.004059972475609    44.6027132187419     0.997113404320352    -0.163815277328087   0.997113404320352    -0.163815277328087   0.004059972475609    44.6027132187419     
1.92099150153743     0.004083143279843    44.8582729061154     0.997109808127603    -0.165494260103837   0.997109808127603    -0.165494260103837   0.004083143279843    44.8582729061154     
1.94068714265597     0.004106621439084    45.1136775865907     0.997106192270975    -0.167190448007747   0.997106192270975    -0.167190448007747   0.004106621439084    45.1136775865907     
1.96058472026344     0.004130410474171    45.3689060370954     0.997102556623401    -0.168904017295273   0.997102556623401    -0.168904017295273   0.004130410474171    45.3689060370954     
1.98068630478471     0.004154513934065    45.6239371080848     0.997098901056623    -0.170635146026619   0.997098901056623    -0.170635146026619   0.004154513934065    45.6239371080848     
2.00099398787245     0.004178935396028    45.8787497319746     0.997095225441135    -0.172384014085197   0.997095225441135    -0.172384014085197   0.004178935396028    45.8787497319746     
2.02150988262469     0.004203678465808    46.1333229314835     0.997091529646241    -0.174150803196289   0.997091529646241    -0.174150803196289   0.004203678465808    46.1333229314835     
2.04223612380478     0.004228746777829    46.3876358278867     0.997087813539968    -0.17593569694588    0.997087813539968    -0.17593569694588    0.004228746777829    46.3876358278867     
2.06317486806346     0.004254143995386    46.6416676491664     0.99708407698907     -0.177738880799696   0.99708407698907     -0.177738880799696   0.004254143995386    46.6416676491664     
2.08432829416329     0.004279873810856    46.895397738055      0.997080319859022    -0.179560542122434   0.997080319859022    -0.179560542122434   0.004279873810856    46.895397738055      
2.10569860320537     0.004305939945899    47.148805559962      0.997076542014002    -0.18140087019719    0.997076542014002    -0.18140087019719    0.004305939945899    47.148805559962      
2.12728801885836     0.004332346151685    47.4018707107789     0.997072743316829    -0.183260056245076   0.997072743316829    -0.183260056245076   0.004332346151685    47.4018707107789     
2.14909878758986     0.004359096209113    47.6545729245514     0.997068923628996    -0.185138293445051   0.997068923628996    -0.185138293445051   0.004359096209113    47.6545729245514     
2.17113317890017     0.004386193929044    47.9068920810171     0.997065082810643    -0.18703577695395    0.997065082810643    -0.18703577695395    0.004386193929044    47.9068920810171     
2.19339348555846     0.004413643152539    48.1588082129994     0.997061220720482    -0.188952703926701   0.997061220720482    -0.188952703926701   0.004413643152539    48.1588082129994     
2.21588202384129     0.004441447751107    48.4103015136497     0.997057337215841    -0.190889273536782   0.997057337215841    -0.190889273536782   0.004441447751107    48.4103015136497     
2.23860113377367     0.00446961162696     48.6613523435359     0.997053432152625    -0.192845686996857   0.997053432152625    -0.192845686996857   0.00446961162696     48.6613523435359     
2.26155317937256     0.00449813871327     48.9119412375674     0.997049505385277    -0.194822147579634   0.997049505385277    -0.194822147579634   0.00449813871327     48.9119412375674     
2.28474054889282     0.00452703297444     49.1620489117551     0.997045556766748    -0.196818860638932   0.997045556766748    -0.196818860638932   0.00452703297444     49.1620489117551     
2.30816565507573     0.004556298406381    49.4116562697957     0.997041586148526    -0.198836033630975   0.997041586148526    -0.198836033630975   0.004556298406381    49.4116562697957     
2.33183093540005     0.004585939036795    49.6607444094825     0.997037593380546    -0.200873876135888   0.997037593380546    -0.200873876135888   0.004585939036795    49.6607444094825     
2.35573885233565     0.004615958925469    49.909294628931      0.997033578311226    -0.202932599879421   0.997033578311226    -0.202932599879421   0.004615958925469    49.909294628931      
2.37989189359975     0.004646362164572    50.1572884326203     0.99702954078741     -0.205012418754895   0.99702954078741     -0.205012418754895   0.004646362164572    50.1572884326203     
2.40429257241574     0.004677152878965    50.4047075372428     0.997025480654325    -0.207113548845359   0.997025480654325    -0.207113548845359   0.004677152878965    50.4047075372428     
2.42894342777475     0.004708335226516    50.6515338773608     0.997021397755622    -0.209236208446      0.997021397755622    -0.209236208446      0.004708335226516    50.6515338773608     
2.45384702469978     0.004739913398425    50.8977496108656     0.99701729193328     -0.211380618086752   0.99701729193328     -0.211380618086752   0.004739913398425    50.8977496108656     
2.47900595451264     0.004771891619557    51.1433371242344     0.997013163027623    -0.213547000555158   0.997013163027623    -0.213547000555158   0.004771891619557    51.1433371242344     
2.5044228351036      0.004804274148776    51.3882790375871     0.997009010877277    -0.215735580919448   0.997009010877277    -0.215735580919448   0.004804274148776    51.3882790375871     
2.53010031120373     0.004837065279303    51.6325582095338     0.997004835319141    -0.217946586551868   0.997004835319141    -0.217946586551868   0.004837065279303    51.6325582095338     
2.55604105466017     0.004870269339065    51.8761577418164     0.997000636188393    -0.220180247152239   0.997000636188393    -0.220180247152239   0.004870269339065    51.8761577418164     
2.5822477647141      0.004903890691065    52.1190609837408     0.996996413318395    -0.222436794771749   0.996996413318395    -0.222436794771749   0.004903890691065    52.1190609837408     
2.60872316828161     0.004937933733751    52.3612515363951     0.996992166540745    -0.224716463837011   0.996992166540745    -0.224716463837011   0.004937933733751    52.3612515363951     
2.63547002023748     0.004972402901401    52.6027132566587     0.996987895685178    -0.227019491174336   0.996987895685178    -0.227019491174336   0.004972402901401    52.6027132566587     
2.66249110370179     0.005007302664511    52.8434302609954     0.99698360057958     -0.229346116034274   0.99698360057958     -0.229346116034274   0.005007302664511    52.8434302609954     
2.68978923032955     0.005042637530193    53.0833869290333     0.996979281049939    -0.231696580116405   0.996979281049939    -0.231696580116405   0.005042637530193    53.0833869290333     
2.71736724060326     0.005078412042585    53.3225679069304     0.996974936920332    -0.234071127594375   0.996974936920332    -0.234071127594375   0.005078412042585    53.3225679069304     
2.74522800412843     0.00511463078326     53.5609581105253     0.996970568012871    -0.236470005141186   0.996970568012871    -0.236470005141186   0.00511463078326     53.5609581105253     
2.77337441993226     0.005151298371656    53.7985427282734     0.996966174147679    -0.238893461954754   0.996966174147679    -0.238893461954754   0.005151298371656    53.7985427282734     
2.8018094167652      0.005188419465501    54.0353072239706     0.996961755142864    -0.241341749783717   0.996961755142864    -0.241341749783717   0.005188419465501    54.0353072239706     
2.83053595340579     0.00522599876126     54.2712373392627     0.996957310814508    -0.24381512295352    0.996957310814508    -0.24381512295352    0.00522599876126     54.2712373392627     
2.85955701896844     0.005264040994577    54.5063190959439     0.996952840976561    -0.246313838392738   0.996952840976561    -0.246313838392738   0.005264040994577    54.5063190959439     
2.88887563321454     0.005302550940735    54.7405387980433     0.996948345440898    -0.248838155659711   0.996948345440898    -0.248838155659711   0.005302550940735    54.7405387980433     
2.91849484686663     0.005341533415122    54.973883033705      0.99694382401722     -0.251388336969407   0.99694382401722     -0.251388336969407   0.005341533415122    54.973883033705      
2.94841774192588     0.005380993273702    55.2063386768579     0.996939276513032    -0.25396464722058    0.996939276513032    -0.25396464722058    0.005380993273702    55.2063386768579     
2.97864743199272     0.005420935413496    55.4378928886826     0.996934702733635    -0.256567354023214   0.996934702733635    -0.256567354023214   0.005420935413496    55.4378928886826     
3.0091870625909      0.005461364773078    55.6685331188745     0.996930102482052    -0.259196727726221   0.996930102482052    -0.259196727726221   0.005461364773078    55.6685331188745     
3.04003981149475     0.005502286333063    55.898247106706      0.996925475558997    -0.261853041445439   0.996925475558997    -0.261853041445439   0.005502286333063    55.898247106706      
3.07120888905983     0.005543705116624    56.1270228818926     0.996920821762871    -0.26453657109192    0.996920821762871    -0.26453657109192    0.005543705116624    56.1270228818926     
3.10269753855702     0.00558562619        56.3548487652619     0.996916140889692    -0.267247595400493   0.996916140889692    -0.267247595400493   0.00558562619        56.3548487652619     
3.13450903650998     0.005628054663021    56.5817133692322     0.996911432733032    -0.269986395958607   0.996911432733032    -0.269986395958607   0.005628054663021    56.5817133692322     
3.16664669303606     0.005670995689637    56.8076055981019     0.996906697084037    -0.272753257235517   0.996906697084037    -0.272753257235517   0.005670995689637    56.8076055981019     
3.19911385219077     0.005714454468461    57.0325146481543     0.99690193373134     -0.275548466611695   0.99690193373134     -0.275548466611695   0.005714454468461    57.0325146481543     
3.23191389231572     0.005758436243314    57.2564300075802     0.99689714246104     -0.278372314408624   0.99689714246104     -0.278372314408624   0.005758436243314    57.2564300075802     
3.26505022639015     0.005802946303778    57.4793414562221     0.996892323056632    -0.281225093918801   0.996892323056632    -0.281225093918801   0.005802946303778    57.4793414562221     
3.29852630238608     0.005847989985763    57.7012390651448     0.996887475299013    -0.284107101436139   0.996887475299013    -0.284107101436139   0.005847989985763    57.7012390651448     
3.33234560362706     0.005893572672077    57.9221131960362     0.996882598966376    -0.28701863628661    0.996882598966376    -0.28701863628661    0.005893572672077    57.9221131960362     
3.36651164915067     0.005939699793004    58.1419545004416     0.996877693834206    -0.289960000859231   0.996877693834206    -0.289960000859231   0.005939699793004    58.1419545004416     
3.40102799407464     0.005986376826893    58.3607539188353     0.996872759675227    -0.292931500637368   0.996872759675227    -0.292931500637368   0.005986376826893    58.3607539188353     
3.43589822996678     0.006033609300753    58.5785026795352     0.996867796259346    -0.295933444230339   0.996867796259346    -0.295933444230339   0.006033609300753    58.5785026795352     
3.47112598521874     0.006081402790854    58.7951922974647     0.996862803353602    -0.298966143405353   0.996862803353602    -0.298966143405353   0.006081402790854    58.7951922974647     
3.50671492542353     0.006129762923339    59.0108145727644     0.996857780722135    -0.302029913119779   0.996857780722135    -0.302029913119779   0.006129762923339    59.0108145727644     
3.54266875375692     0.006178695374843    59.2253615892602     0.996852728126112    -0.305125071553724   0.996852728126112    -0.305125071553724   0.006178695374843    59.2253615892602     
3.57899121136281     0.00622820587312     59.4388257127913     0.996847645323694    -0.308251940142967   0.996847645323694    -0.308251940142967   0.00622820587312     59.4388257127913     
3.6156860777425      0.006278300197676    59.6511995894034     0.996842532069971    -0.311410843612199   0.996842532069971    -0.311410843612199   0.006278300197676    59.6511995894034     
3.65275717114793     0.006328984180409    59.8624761434104     0.996837388116922    -0.314602110008633   0.996837388116922    -0.314602110008633   0.006328984180409    59.8624761434104     
3.69020834897903     0.006380263706265    60.0726485753308     0.996832213213358    -0.31782607073594    0.996832213213358    -0.31782607073594    0.006380263706265    60.0726485753308     
3.72804350818508     0.006432144713886    60.2817103597032     0.996827007104835    -0.321083060588513   0.996827007104835    -0.321083060588513   0.006432144713886    60.2817103597032     
3.7662665856702      0.006484633196282    60.4896552427843     0.996821769533654    -0.324373417786115   0.996821769533654    -0.324373417786115   0.006484633196282    60.4896552427843     
3.80488155870301     0.006537735201502    60.6964772401358     0.996816500238748    -0.32769748400886    0.996816500238748    -0.32769748400886    0.006537735201502    60.6964772401358     
3.84389244533047     0.006591456833313    60.9021706341045     0.996811198955683    -0.331055604432545   0.996811198955683    -0.331055604432545   0.006591456833313    60.9021706341045     
3.88330330479596     0.006645804251886    61.1067299711984     0.99680586541654     -0.334448127764352   0.99680586541654     -0.334448127764352   0.006645804251886    61.1067299711984     
3.92311823796173     0.006700783674495    61.3101500593677     0.99680049934986     -0.337875406278895   0.99680049934986     -0.337875406278895   0.006700783674495    61.3101500593677     
3.96334138773551     0.006756401376216    61.51242596519       0.996795100480652    -0.341337795854686   0.996795100480652    -0.341337795854686   0.006756401376216    61.51242596519       
4.00397693950169     0.006812663690641    61.7135530109693     0.996789668530214    -0.344835656010878   0.996789668530214    -0.344835656010878   0.006812663690641    61.7135530109693     
4.04502912155675     0.006869577010592    61.9135267717503     0.996784203216177    -0.34836934994448    0.996784203216177    -0.34836934994448    0.006869577010592    61.9135267717503     
4.0865022055493      0.006927147788849    62.1123430722526     0.996778704252382    -0.351939244567888   0.996778704252382    -0.351939244567888   0.006927147788849    62.1123430722526     
4.12840050692451     0.006985382538881    62.3099979837323     0.996773171348816    -0.355545710546821   0.996773171348816    -0.355545710546821   0.006985382538881    62.3099979837323     
4.17072838537318     0.007044287835586    62.506487820771      0.99676760421154     -0.359189122338624   0.99676760421154     -0.359189122338624   0.007044287835586    62.506487820771      
4.21349024528536     0.00710387031604     62.7018091380014     0.996762002542666    -0.362869858231007   0.996762002542666    -0.362869858231007   0.00710387031604     62.7018091380014     
4.25669053620867     0.007164136680251    62.8959587267685     0.996756366040218    -0.366588300381094   0.996756366040218    -0.366588300381094   0.007164136680251    62.8959587267685     
4.30033375331128     0.007225093691922    63.0889336117367     0.996750694398103    -0.370344834854975   0.996750694398103    -0.370344834854975   0.007225093691922    63.0889336117367     
4.34442443784965     0.00728674817922     63.280731047441      0.99674498730601     -0.374139851667542   0.99674498730601     -0.374139851667542   0.00728674817922     63.280731047441      
4.38896717764107     0.007349107035556    63.4713485147919     0.996739244449358    -0.377973744822848   0.996739244449358    -0.377973744822848   0.007349107035556    63.4713485147919     
4.43396660754105     0.007412177220365    63.6607837175332     0.996733465509221    -0.381846912354788   0.996733465509221    -0.381846912354788   0.007412177220365    63.6607837175332     
4.47942740992557     0.007475965759904    63.8490345786606     0.996727650162227    -0.38575975636822    0.996727650162227    -0.38575975636822    0.007475965759904    63.8490345786606     
4.52535431517832     0.007540479748048    64.0360992368029     0.996721798080474    -0.38971268308052    0.996721798080474    -0.38971268308052    0.007540479748048    64.0360992368029     
4.57175210218294     0.007605726347097    64.2219760425691     0.99671590893147     -0.393706102863536   0.99671590893147     -0.393706102863536   0.007605726347097    64.2219760425691     
4.61862559882021     0.007671712788594    64.4066635548677     0.996709982378065    -0.397740430285994   0.996709982378065    -0.397740430285994   0.007671712788594    64.4066635548677     
4.66597968247048     0.007738446374145    64.5901605371992     0.996704018078299    -0.401816084156283   0.996704018078299    -0.401816084156283   0.007738446374145    64.5901605371992     
4.71381928052118     0.007805934476248    64.7724659539261     0.996698015685397    -0.405933487565751   0.996698015685397    -0.405933487565751   0.007805934476248    64.7724659539261     
4.76214937087947     0.007874184539133    64.9535789665251     0.996691974847605    -0.410093067932356   0.996691974847605    -0.410093067932356   0.007874184539133    64.9535789665251     
4.81097498249029     0.007943204079605    65.1334989298231     0.996685895208164    -0.414295257044829   0.996685895208164    -0.414295257044829   0.007943204079605    65.1334989298231     
4.86030119585957     0.008013000687898    65.312225388221      0.996679776405182    -0.418540491107252   0.996679776405182    -0.418540491107252   0.008013000687898    65.312225388221      
4.91013314358295     0.008083582028531    65.4897580719085     0.996673618071532    -0.422829210784075   0.996673618071532    -0.422829210784075   0.008083582028531    65.4897580719085     
4.9604760108798      0.008154955841184    65.6660968930735     0.9966674198348      -0.427161861245632   0.9966674198348      -0.427161861245632   0.008154955841184    65.6660968930735     
5.01133503613277     0.008227129941565    65.8412419421075     0.996661181317123    -0.431538892214069   0.996661181317123    -0.431538892214069   0.008227129941565    65.8412419421075     
5.06271551143287     0.008300112222298    66.0151934838114     0.996654902135149    -0.435960758009772   0.996654902135149    -0.435960758009772   0.008300112222298    66.0151934838114     
5.11462278313015     0.008373910653813    66.1879519536041     0.996648581899894    -0.440427917598256   0.996648581899894    -0.440427917598256   0.008373910653813    66.1879519536041     
5.16706225238998     0.008448533285247    66.3595179537355     0.996642220216678    -0.444940834637539   0.996642220216678    -0.444940834637539   0.008448533285247    66.3595179537355     
5.22003937575507     0.008523988245345    66.5298922495081     0.996635816684968    -0.449499977525938   0.996635816684968    -0.449499977525938   0.008523988245345    66.5298922495081     
5.27355966571328     0.008600283743381    66.6990757655087     0.996629370898314    -0.454105819450459   0.996629370898314    -0.454105819450459   0.008600283743381    66.6990757655087     
5.32762869127117     0.008677428070077    66.8670695818526     0.996622882444215    -0.458758838435551   0.996622882444215    -0.458758838435551   0.008677428070077    66.8670695818526     
5.3822520785335      0.008755429598534    67.0338749304425     0.996616350904012    -0.463459517392457   0.996616350904012    -0.463459517392457   0.008755429598534    67.0338749304425     
5.43743551128866     0.008834296785174    67.1994931912456     0.996609775852782    -0.46820834416901    0.996609775852782    -0.46820834416901    0.008834296785174    67.1994931912456     
5.49318473160008     0.00891403817068     67.363925888588      0.99660315685921     -0.473005811599942   0.99660315685921     -0.473005811599942   0.00891403817068     67.363925888588      
5.54950554040369     0.008994662380957    67.5271746874724     0.996596493485468    -0.477852417557688   0.996596493485468    -0.477852417557688   0.008994662380957    67.5271746874724     
5.60640379811159     0.009076178128094    67.6892413899166     0.99658978528711     -0.482748665003755   0.99658978528711     -0.482748665003755   0.009076178128094    67.6892413899166     
5.66388542522179     0.009158594211331    67.8501279313196     0.996583031812922    -0.487695062040549   0.996583031812922    -0.487695062040549   0.009158594211331    67.8501279313196     
5.72195640293431     0.009241919518048    68.0098363768512     0.996576232604821    -0.492692121963753   0.996576232604821    -0.492692121963753   0.009241919518048    68.0098363768512     
5.78062277377351     0.009326163024742    68.1683689178728     0.996569387197718    -0.497740363315271   0.996569387197718    -0.497740363315271   0.009326163024742    68.1683689178728     
5.83989064221686     0.009411333798032    68.3257278683857     0.996562495119356    -0.502840309936589   0.996562495119356    -0.502840309936589   0.009411333798032    68.3257278683857     
5.89976617533014     0.009497440995663    68.4819156615112     0.996555555890232    -0.507992491022834   0.996555555890232    -0.507992491022834   0.009497440995663    68.4819156615112     
5.96025560340915     0.009584493867515    68.6369348460046     0.996548569023419    -0.513197441177267   0.996548569023419    -0.513197441177267   0.009584493867515    68.6369348460046     
6.02136522062795     0.009672501756632    68.7907880828012     0.996541534024441    -0.518455700466358   0.996541534024441    -0.518455700466358   0.009672501756632    68.7907880828012     
6.08310138569389     0.009761474100249    68.9434781415982     0.996534450391108    -0.523767814475419   0.996534450391108    -0.523767814475419   0.009761474100249    68.9434781415982     
6.14547052250914     0.009851420430836    69.095007897473      0.996527317613416    -0.529134334364798   0.996527317613416    -0.529134334364798   0.009851420430836    69.095007897473      
6.20847912083925     0.009942350377144    69.2453803275383     0.99652013517335     -0.534555816926641   0.99652013517335     -0.534555816926641   0.009942350377144    69.2453803275383     
6.27213373698834     0.010034273665262    69.3945985076362     0.99651290254477     -0.540032824642219   0.99651290254477     -0.540032824642219   0.010034273665262    69.3945985076362     
6.33644099448134     0.010127200119692    69.54266560907       0.996505619193226    -0.545565925739835   0.996505619193226    -0.545565925739835   0.010127200119692    69.54266560907       
6.40140758475321     0.010221139664416    69.6895848953781     0.996498284575822    -0.551155694253345   0.996498284575822    -0.551155694253345   0.010221139664416    69.6895848953781     
6.4670402678452      0.010316102323987    69.8353597191464     0.996490898141042    -0.55680271008119    0.996490898141042    -0.55680271008119    0.010316102323987    69.8353597191464     
6.53334587310827     0.010412098224627    69.9799935188637     0.996483459328596    -0.562507559046112   0.996483459328596    -0.562507559046112   0.010412098224627    69.9799935188637     
6.60033129991368     0.010509137595323    70.1234898158184     0.996475967569254    -0.568270832955434   0.996475967569254    -0.568270832955434   0.010509137595323    70.1234898158184     
6.66800351837095     0.010607230768951    70.2658522110386     0.996468422284663    -0.574093129661919   0.996468422284663    -0.574093129661919   0.010607230768951    70.2658522110386     
6.73636957005306     0.010706388183394    70.4070843822752     0.996460822887173    -0.579975053125298   0.996460822887173    -0.579975053125298   0.010706388183394    70.4070843822752     
6.80543656872924     0.010806620382676    70.5471900810265     0.996453168779687    -0.585917213474346   0.996453168779687    -0.585917213474346   0.010806620382676    70.5471900810265     
6.87521170110512     0.010907938018108    70.6861731296119     0.996445459355424    -0.591920227069685   0.996445459355424    -0.591920227069685   0.010907938018108    70.6861731296119     
6.94570222757054     0.01101035184944     70.8240374182835     0.996437693997798    -0.597984716567092   0.996437693997798    -0.597984716567092   0.01101035184944     70.8240374182835     
7.01691548295507     0.011113872746027    70.9607869023876     0.996429872080194    -0.604111310981555   0.996429872080194    -0.604111310981555   0.011113872746027    70.9607869023876     
7.08885887729118     0.011218511687997    71.0964255995688     0.996421992965773    -0.610300645751884   0.996421992965773    -0.610300645751884   0.011218511687997    71.0964255995688     
7.16153989658533     0.011324279767442    71.2309575870193     0.996414056007286    -0.616553362806053   0.996414056007286    -0.616553362806053   0.011324279767442    71.2309575870193     
7.23496610359685     0.011431188189608    71.3643869987738     0.996406060546891    -0.62287011062715    0.996406060546891    -0.62287011062715    0.011431188189608    71.3643869987738     
7.30914513862497     0.011539248274099    71.4967180230495     0.996398005915903    -0.629251544319956   0.996398005915903    -0.629251544319956   0.011539248274099    71.4967180230495     
7.38408472030375     0.011648471456099    71.6279548996318     0.996389891434631    -0.635698325678282   0.996389891434631    -0.635698325678282   0.011648471456099    71.6279548996318     
7.45979264640526     0.01175886928759     71.7581019173056     0.996381716412129    -0.642211123252904   0.996381716412129    -0.642211123252904   0.01175886928759     71.7581019173056     
7.53627679465097     0.011870453438594    71.8871634113302     0.996373480146017    -0.648790612420212   0.996373480146017    -0.648790612420212   0.011870453438594    71.8871634113302     
7.61354512353148     0.011983235698419    72.0151437609631     0.996365181922229    -0.655437475451531   0.996365181922229    -0.655437475451531   0.011983235698419    72.0151437609631     
7.69160567313459     0.012097227976919    72.1420473870254     0.996356821014798    -0.662152401583187   0.996356821014798    -0.662152401583187   0.012097227976919    72.1420473870254     
7.77046656598194     0.012212442305766    72.267878749514      0.996348396685627    -0.668936087087179   0.996348396685627    -0.668936087087179   0.012212442305766    72.267878749514      
7.85013600787418     0.012328890839724    72.3926423452586     0.99633990818425     -0.675789235342634   0.99633990818425     -0.675789235342634   0.012328890839724    72.3926423452586     
7.93062228874481     0.012446585857952    72.5163427056239     0.996331354747598    -0.68271255690799    0.996331354747598    -0.68271255690799    0.012446585857952    72.5163427056239     
8.0119337835228      0.012565539765301    72.6389843942545     0.996322735599749    -0.689706769593792   0.996322735599749    -0.689706769593792   0.012565539765301    72.6389843942545     
8.09407895300404     0.012685765093631    72.7605720048668     0.996314049951694    -0.696772598536385   0.996314049951694    -0.696772598536385   0.012685765093631    72.7605720048668     
8.17706634473166     0.012807274503143    72.8811101590827     0.996305297001046    -0.703910776272171   0.996305297001046    -0.703910776272171   0.012807274503143    72.8811101590827     
8.26090459388553     0.012930080783714    73.0006035043068     0.996296475931819    -0.711122042812713   0.996296475931819    -0.711122042812713   0.012930080783714    73.0006035043068     
8.3456024241807      0.013054196856248    73.1190567116494     0.996287585914152    -0.71840714572059    0.996287585914152    -0.71840714572059    0.013054196856248    73.1190567116494     
8.43116864877522     0.013179635774046    73.2364744738897     0.99627862610402     -0.725766840185912   0.99627862610402     -0.725766840185912   0.013179635774046    73.2364744738897     
8.5176121711871      0.013306410724175    73.3528615034834     0.996269595642983    -0.733201889103743   0.996269595642983    -0.733201889103743   0.013306410724175    73.3528615034834     
8.60494198622083     0.013434535028861    73.4682225306116     0.996260493657898    -0.740713063152158   0.996260493657898    -0.740713063152158   0.013434535028861    73.4682225306116     
8.6931671809033      0.013564022146885    73.5825623012713     0.996251319260623    -0.748301140871172   0.996251319260623    -0.748301140871172   0.013564022146885    73.5825623012713     
8.7822969354293      0.013694885675002    73.6958855754093     0.99624207154773     -0.755966908742408   0.99624207154773     -0.755966908742408   0.013694885675002    73.6958855754093     
8.87234052411684     0.013827139349366    73.8081971250942     0.996232749600204    -0.763711161269574   0.996232749600204    -0.763711161269574   0.013827139349366    73.8081971250942     
8.96330731637212     0.013960797046966    73.9195017327304     0.996223352483144    -0.771534701059733   0.996223352483144    -0.771534701059733   0.013960797046966    73.9195017327304     
9.05520677766447     0.01409587278708     74.0298041893128     0.996213879245452    -0.779438338905401   0.996213879245452    -0.779438338905401   0.01409587278708     74.0298041893128     
9.14804847051128     0.014232380732742    74.1391092927189     0.996204328919505    -0.787422893867416   0.996204328919505    -0.787422893867416   0.014232380732742    74.1391092927189     
9.24184205547302     0.01437033519222     74.2474218460422     0.996194700520853    -0.795489193358686   0.996194700520853    -0.795489193358686   0.01437033519222     74.2474218460422     
9.33659729215844     0.014509750620505    74.3547466559629     0.996184993047861    -0.803638073228737   0.996184993047861    -0.803638073228737   0.014509750620505    74.3547466559629     
9.43232404024011     0.014650641620822    74.4610885311564     0.996175205481396    -0.81187037784908    0.996175205481396    -0.81187037784908    0.014650641620822    74.4610885311564     
9.52903226048039     0.014793022946144    74.5664522807404     0.996165336784456    -0.820186960199476   0.996165336784456    -0.820186960199476   0.014793022946144    74.5664522807404     
9.62673201576782     0.014936909500731    74.6708427127575     0.996155385901867    -0.82858868195501    0.996155385901867    -0.82858868195501    0.014936909500731    74.6708427127575     
9.72543347216428     0.015082316341669    74.7742646326956     0.996145351759864    -0.837076413574031   0.996145351759864    -0.837076413574031   0.015082316341669    74.7742646326956     
9.82514689996274     0.015229258680443    74.8767228420436     0.996135233265785    -0.845651034387038   0.996135233265785    -0.845651034387038   0.015229258680443    74.8767228420436     
9.92588267475599     0.0153777518845      74.9782221368818     0.996125029307648    -0.854313432686289   0.996125029307648    -0.854313432686289   0.0153777518845      74.9782221368818     
10.0276512785162     0.015527811478848    75.0787673065082     0.996114738753807    -0.863064505816449   0.996114738753807    -0.863064505816449   0.015527811478848    75.0787673065082     
10.1304633006858     0.015679453147656    75.1783631320983     0.996104360452545    -0.871905160266064   0.996104360452545    -0.871905160266064   0.015679453147656    75.1783631320983     
10.2343294392789     0.015832692735876    75.2770143853984     0.996093893231711    -0.880836311759946   0.996093893231711    -0.880836311759946   0.015832692735876    75.2770143853984     
10.339260501995      0.015987546250875    75.3747258274532     0.99608333589825     -0.889858885352433   0.99608333589825     -0.889858885352433   0.015987546250875    75.3747258274532     
10.4452674073433     0.016144029864084    75.4715022073637     0.996072687237856    -0.89897381552164    0.996072687237856    -0.89897381552164    0.016144029864084    75.4715022073637     
10.5523611857789     0.016302159912663    75.5673482610792     0.996061946014542    -0.908182046264602   0.996061946014542    -0.908182046264602   0.016302159912663    75.5673482610792     
10.6605529808504     0.016461952901179    75.6622687102201     0.996051110970171    -0.917484531193336   0.996051110970171    -0.917484531193336   0.016461952901179    75.6622687102201     
10.7698540503595     0.016623425503303    75.7562682609303     0.996040180824065    -0.926882233631843   0.996040180824065    -0.926882233631843   0.016623425503303    75.7562682609303     
10.8802757675328     0.016786594563518    75.8493516027617     0.996029154272532    -0.936376126714143   0.996029154272532    -0.936376126714143   0.016786594563518    75.8493516027617     
10.9918296222045     0.016951477098845    75.9415234075867     0.996018029988433    -0.945967193483135   0.996018029988433    -0.945967193483135   0.016951477098845    75.9415234075867     
11.1045272220126     0.017118090300585    76.0327883285415     0.996006806620687    -0.955656426990558   0.996006806620687    -0.955656426990558   0.017118090300585    76.0327883285415     
11.2183802936065     0.017286451536078    76.1231509989964     0.995995482793831    -0.96544483039786    0.995995482793831    -0.96544483039786    0.017286451536078    76.1231509989964     
11.3334006838672     0.017456578350474    76.2126160315546     0.995984057107507    -0.975333417078044   0.995984057107507    -0.975333417078044   0.017456578350474    76.2126160315546     
11.4496003611398     0.017628488468527    76.3011880170793     0.995972528136       -0.985323210718589   0.995972528136       -0.985323210718589   0.017628488468527    76.3011880170793     
11.5669914164793     0.017802199796395    76.3888715237464     0.995960894427707    -0.995415245425266   0.995960894427707    -0.995415245425266   0.017802199796395    76.3888715237464     
11.6855860649085     0.017977730423471    76.4756710961239     0.995949154504647    -1.00561056582709    0.995949154504647    -1.00561056582709    0.017977730423471    76.4756710961239     
11.8053966466889     0.018155098624215    76.5615912542779     0.995937306861916    -1.01591022718213    0.995937306861916    -1.01591022718213    0.018155098624215    76.5615912542779     
11.9264356286048     0.018334322860015    76.6466364929026     0.995925349967177    -1.02631529548455    0.995925349967177    -1.02631529548455    0.018334322860015    76.6466364929026     
12.0487156052608     0.018515421781059    76.730811280476      0.995913282260074    -1.03682684757257    0.995913282260074    -1.03682684757257    0.018515421781059    76.730811280476      
12.172249300392      0.018698414228225    76.8141200584386     0.995901102151752    -1.04744597123743    0.995901102151752    -1.04744597123743    0.018698414228225    76.8141200584386     
12.2970495681882     0.018883319234989    76.8965672403976     0.995888808024189    -1.05817376533355    0.995888808024189    -1.05817376533355    0.018883319234989    76.8965672403976     
12.423129394631      0.019070156029352    76.9781572113518     0.995876398229707    -1.06901133988969    0.995876398229707    -1.06901133988969    0.019070156029352    76.9781572113518     
12.5505018988456     0.01925894403578     77.058894326941      0.995863871090347    -1.07995981622116    0.995863871090347    -1.07995981622116    0.01925894403578     77.058894326941      
12.6791803344657     0.019449702877164    77.1387829127167     0.995851224897237    -1.09102032704311    0.995851224897237    -1.09102032704311    0.019449702877164    77.1387829127167     
12.8091780910123     0.019642452376802    77.2178272634343     0.995838457910032    -1.10219401658504    0.995838457910032    -1.10219401658504    0.019642452376802    77.2178272634343     
12.9405086952873     0.019837212560392    77.2960316423662     0.995825568356254    -1.11348204070621    0.995825568356254    -1.11348204070621    0.019837212560392    77.2960316423662     
13.0731858127809     0.020034003658048    77.3734002806361     0.995812554430658    -1.12488556701241    0.995812554430658    -1.12488556701241    0.020034003658048    77.3734002806361     
13.2072232490936     0.020232846106328    77.4499373765727     0.99579941429458     -1.1364057749736     0.99579941429458     -1.1364057749736     0.020232846106328    77.4499373765727     
13.3426349513726     0.020433760550295    77.5256470950834     0.995786146075288    -1.14804385604287    0.995786146075288    -1.14804385604287    0.020433760550295    77.5256470950834     
13.4794350097631     0.020636767845576    77.6005335670463     0.995772747865265    -1.15980101377647    0.995772747865265    -1.15980101377647    0.020636767845576    77.6005335670463     
13.6176376588745     0.020841889060457    77.6746008887221     0.995759217721571    -1.171678463955      0.995759217721571    -1.171678463955      0.020841889060457    77.6746008887221     
13.7572572792616     0.021049145477985    77.7478531211828     0.995745553665067    -1.18367743470574    0.995745553665067    -1.18367743470574    0.021049145477985    77.7478531211828     
13.8983083989209     0.021258558598101    77.8202942897589     0.995731753679765    -1.19579916662621    0.995731753679765    -1.19579916662621    0.021258558598101    77.8202942897589     
14.0408056948022     0.021470150139777    77.8919283835037     0.995717815712047    -1.20804491290884    0.995717815712047    -1.20804491290884    0.021470150139777    77.8919283835037     
14.1847639943359     0.021683942043189    77.9627593546742     0.995703737669924    -1.22041593946689    0.995703737669924    -1.22041593946689    0.021683942043189    77.9627593546742     
14.3301982769759     0.021899956471894    78.0327911182283     0.995689517422265    -1.23291352506153    0.995689517422265    -1.23291352506153    0.021899956471894    78.0327911182283     
14.4771236757583     0.022118215815036    78.1020275513377     0.995675152798056    -1.24553896143018    0.995675152798056    -1.24553896143018    0.022118215815036    78.1020275513377     
14.6255554788757     0.022338742689572    78.1704724929171     0.995660641585541    -1.25829355341596    0.995660641585541    -1.25829355341596    0.022338742689572    78.1704724929171     
14.7755091312686     0.022561559942509    78.2381297431677     0.995645981531451    -1.27117861909855    0.995645981531451    -1.27117861909855    0.022561559942509    78.2381297431677     
14.927000236232      0.022786690653172    78.305003063135      0.995631170340161    -1.28419548992606    0.995631170340161    -1.28419548992606    0.022786690653172    78.305003063135      
15.0800445570393     0.023014158135486    78.3710961742821     0.995616205672842    -1.29734551084837    0.995616205672842    -1.29734551084837    0.023014158135486    78.3710961742821     
15.2346580185821     0.023243985940277    78.4364127580753     0.995601085146621    -1.31063004045162    0.995601085146621    -1.31063004045162    0.023243985940277    78.4364127580753     
15.3908567090279     0.023476197857598    78.5009564555843     0.99558580633366     -1.32405045109391    0.99558580633366     -1.32405045109391    0.023476197857598    78.5009564555843     
15.5486568814937     0.023710817919072    78.5647308670947     0.99557036676028     -1.33760812904238    0.99557036676028     -1.33760812904238    0.023710817919072    78.5647308670947     
15.7080749557373     0.023947870400255    78.6277395517337     0.995554763906052    -1.35130447461163    0.995554763906052    -1.35130447461163    0.023947870400255    78.6277395517337     
15.8691275198656     0.024187379823028    78.6899860271073     0.995538995202858    -1.36514090230319    0.995538995202858    -1.36514090230319    0.024187379823028    78.6899860271073     
16.0318313320613     0.024429370957993    78.7514737689506     0.995523058033923    -1.37911884094661    0.995523058033923    -1.37911884094661    0.024429370957993    78.7514737689506     
16.196203322326      0.024673868826909    78.8122062107882     0.995506949732841    -1.3932397338416     0.995506949732841    -1.3932397338416     0.024673868826909    78.8122062107882     
16.3622605942422     0.024920898705138    78.8721867436071     0.995490667582614    -1.40750503890167    0.995490667582614    -1.40750503890167    0.024920898705138    78.8721867436071     
16.5300204267528     0.025170486124112    78.9314187155394     0.995474208814607    -1.42191622879905    0.995474208814607    -1.42191622879905    0.025170486124112    78.9314187155394     
16.6995002759593     0.025422656873827    78.9899054315562     0.995457570607528    -1.43647479111096    0.995457570607528    -1.43647479111096    0.025422656873827    78.9899054315562     
16.8707177769379     0.025677437005354    79.0476501531715     0.995440750086356    -1.45118222846715    0.995440750086356    -1.45118222846715    0.025677437005354    79.0476501531715     
17.0436907455746     0.025934852833372    79.1046560981556     0.995423744321307    -1.46604005869902    0.995423744321307    -1.46604005869902    0.025934852833372    79.1046560981556     
17.2184371804191     0.026194930938727    79.1609264402584     0.995406550326698    -1.48104981498985    0.995406550326698    -1.48104981498985    0.026194930938727    79.1609264402584     
17.3949752645576     0.026457698171008    79.2164643089418     0.99538916505983     -1.49621304602661    0.99538916505983     -1.49621304602661    0.026457698171008    79.2164643089418     
17.5733233675047     0.026723181651142    79.2712727891207     0.995371585419873    -1.51153131615312    0.995371585419873    -1.51153131615312    0.026723181651142    79.2712727891207     
17.7535000471149     0.026991408774024    79.3253549209133     0.995353808246672    -1.52700620552451    0.995353808246672    -1.52700620552451    0.026991408774024    79.3253549209133     
17.9355240515137     0.027262407211154    79.3787136993985     0.995335830319593    -1.54263931026328    0.995335830319593    -1.54263931026328    0.027262407211154    79.3787136993985     
18.1194143210485     0.027536204913304    79.4313520743826     0.995317648356277    -1.55843224261659    0.995317648356277    -1.55843224261659    0.027536204913304    79.4313520743826     
18.3051899902588     0.027812830113205    79.4832729501726     0.995299259011407    -1.57438663111508    0.995299259011407    -1.57438663111508    0.027812830113205    79.4832729501726     
18.4928703898683     0.028092311328263    79.5344791853578     0.995280658875488    -1.59050412073322    0.995280658875488    -1.59050412073322    0.028092311328263    79.5344791853578     
18.6824750487952     0.028374677363284    79.584973592598      0.995261844473488    -1.60678637305083    0.995261844473488    -1.60678637305083    0.028374677363284    79.584973592598      
18.8740236961852     0.028659957313235    79.6347589384187     0.995242812263606    -1.62323506641644    0.995242812263606    -1.62323506641644    0.028659957313235    79.6347589384187     
19.0675362634639     0.028948180566019    79.6838379430129     0.995223558635874    -1.63985189611176    0.995223558635874    -1.63985189611176    0.028948180566019    79.6838379430129     
19.2630328864106     0.029239376805277    79.7322132800494     0.995204079910828    -1.65663857451787    0.995204079910828    -1.65663857451787    0.029239376805277    79.7322132800494     
19.4605339072542     0.029533576013212    79.7798875764875     0.99518437233806     -1.67359683128277    0.99518437233806     -1.67359683128277    0.029533576013212    79.7798875764875     
19.6600598767891     0.029830808473433    79.8268634123963     0.99516443209489     -1.69072841349054    0.99516443209489     -1.69072841349054    0.029830808473433    79.8268634123963     
19.8616315565141     0.030131104773826    79.8731433207814     0.995144255284818    -1.70803508583183    0.995144255284818    -1.70803508583183    0.030131104773826    79.8731433207814     
20.0652699207925     0.030434495809448    79.9187297874157     0.995123837936123    -1.72551863077608    0.995123837936123    -1.72551863077608    0.030434495809448    79.9187297874157     
20.2709961590347     0.030741012785438    79.9636252506759     0.995103176000288    -1.74318084874498    0.995103176000288    -1.74318084874498    0.030741012785438    79.9636252506759     
20.4788316779031     0.031050687219957    80.0078321013835     0.995082265350537    -1.76102355828784    0.995082265350537    -1.76102355828784    0.031050687219957    80.0078321013835     
20.6887981035391     0.031363550947149    80.0513526826514     0.995061101780166    -1.77904859625809    0.995061101780166    -1.77904859625809    0.031363550947149    80.0513526826514     
20.9009172838141     0.031679636120129    80.0941892897339     0.995039681001067    -1.79725781799168    0.995039681001067    -1.79725781799168    0.031679636120129    80.0941892897339     
21.1152112906022     0.031998975213983    80.1363441698819     0.995017998641972    -1.8156530974867     0.995017998641972    -1.8156530974867     0.031998975213983    80.1363441698819     
21.3317024220773     0.032321601028807    80.1778195222014     0.994996050246873    -1.8342363275849     0.994996050246873    -1.8342363275849     0.032321601028807    80.1778195222014     
21.5504132050332     0.032647546692753    80.2186174975168     0.994973831273291    -1.85300942015454    0.994973831273291    -1.85300942015454    0.032647546692753    80.2186174975168     
21.7713663972274     0.032976845665114    80.2587401982371     0.994951337090532    -1.87197430627483    0.994951337090532    -1.87197430627483    0.032976845665114    80.2587401982371     
21.9945849897495     0.033309531739417    80.2981896782258     0.994928562977955    -1.89113293642215    0.994928562977955    -1.89113293642215    0.033309531739417    80.2981896782258     
22.2200922094132     0.033645639046551    80.3369679426744     0.994905504123126    -1.9104872806576     0.994905504123126    -1.9104872806576     0.033645639046551    80.3369679426744     
22.4479115211735     0.033985202057912    80.3750769479791     0.994882155620018    -1.93003932881634    0.994882155620018    -1.93003932881634    0.033985202057912    80.3750769479791     
22.6780666305678     0.034328255588574    80.4125186016196     0.994858512467112    -1.94979109069848    0.994858512467112    -1.94979109069848    0.034328255588574    80.4125186016196     
22.910581486183      0.034674834800479    80.4492947620421     0.994834569565493    -1.96974459626147    0.994834569565493    -1.96974459626147    0.034674834800479    80.4492947620421     
23.1454802821474     0.035024975205655    80.4854072385432     0.994810321716892    -1.98990189581434    0.994810321716892    -1.98990189581434    0.035024975205655    80.4854072385432     
23.382787460648      0.035378712669457    80.5208577911583     0.994785763621707    -2.01026506021333    0.994785763621707    -2.01026506021333    0.035378712669457    80.5208577911583     
23.622527714474      0.035736083413823    80.5556481305504     0.994760889876969    -2.03083618105927    0.994760889876969    -2.03083618105927    0.035736083413823    80.5556481305504     
23.8647259895859     0.036097124020567    80.5897799179019     0.994735694974263    -2.05161737089664    0.994735694974263    -2.05161737089664    0.036097124020567    80.5897799179019     
24.1094074877118     0.036461871434676    80.6232547648089     0.994710173297623    -2.07261076341401    0.994710173297623    -2.07261076341401    0.036461871434676    80.6232547648089     
24.3565976689691     0.036830362967654    80.6560742331763     0.994684319121399    -2.0938185136466     0.994684319121399    -2.0938185136466     0.036830362967654    80.6560742331763     
24.606322254514      0.03720263630086     80.6882398351151     0.994658126608026    -2.11524279817996    0.994658126608026    -2.11524279817996    0.03720263630086     80.6882398351151     
24.8586072292181     0.037578729488898    80.7197530328418     0.994631589805806    -2.13688581535563    0.994631589805806    -2.13688581535563    0.037578729488898    80.7197530328418     
25.1134788443719     0.037958680963003    80.7506152385779     0.994604702646625    -2.15874978547845    0.994604702646625    -2.15874978547845    0.037958680963003    80.7506152385779     
25.3709636204164     0.038342529534469    80.7808278144523     0.994577458943606    -2.18083695102528    0.994577458943606    -2.18083695102528    0.038342529534469    80.7808278144523     
25.631088349703      0.038730314398088    80.8103920724036     0.994549852388754    -2.20314957685574    0.994549852388754    -2.20314957685574    0.038730314398088    80.8103920724036     
25.893880099281      0.039122075135615    80.8393092740839     0.994521876550523    -2.22568995042428    0.994521876550523    -2.22568995042428    0.039122075135615    80.8393092740839     
26.159366213714      0.039517851719255    80.8675806307641     0.994493524871358    -2.24846038199426    0.994493524871358    -2.24846038199426    0.039517851719255    80.8675806307641     
26.4275743179256     0.039917684515171    80.8952073032389     0.994464790665147    -2.27146320485328    0.994464790665147    -2.27146320485328    0.039917684515171    80.8952073032389     
26.6985323200734     0.04032161428701     80.9221904017332     0.994435667114686    -2.29470077553058    0.994435667114686    -2.29470077553058    0.04032161428701     80.9221904017332     
26.9722684144534     0.040729682199459    80.9485309858093     0.994406147269044    -2.31817547401591    0.994406147269044    -2.31817547401591    0.040729682199459    80.9485309858093     
27.2488110844334     0.041141929821812    80.9742300642737     0.994376224040879    -2.34188970398009    0.994376224040879    -2.34188970398009    0.041141929821812    80.9742300642737     
27.528189105417      0.041558399131562    80.9992885950856     0.994345890203723    -2.36584589299727    0.994345890203723    -2.36584589299727    0.041558399131562    80.9992885950856     
27.8104315478379     0.041979132518018    81.0237074852642     0.994315138389224    -2.3900464927689     0.994315138389224    -2.3900464927689     0.041979132518018    81.0237074852642     
28.0955677801844     0.042404172785934    81.0474875907971     0.994283961084286    -2.41449397934927    0.994283961084286    -2.41449397934927    0.042404172785934    81.0474875907971     
28.3836274720557     0.042833563159163    81.0706297165489     0.994252350628186    -2.43919085337287    0.994252350628186    -2.43919085337287    0.042833563159163    81.0706297165489     
28.6746405972489     0.04326734728433     81.0931346161694     0.994220299209642    -2.4641396402832     0.994220299209642    -2.4641396402832     0.04326734728433     81.0931346161694     
28.9686374368782     0.043705569234522    81.1150029920013     0.994187798863797    -2.48934289056355    0.994187798863797    -2.48934289056355    0.043705569234522    81.1150029920013     
29.2656485825253     0.044148273513       81.1362354949891     0.994154841469149    -2.51480317996913    0.994154841469149    -2.51480317996913    0.044148273513       81.1362354949891     
29.565704939423      0.044595505056929    81.1568327245864     0.99412141874446     -2.5405231097611     0.99412141874446     -2.5405231097611     0.044595505056929    81.1568327245864     
29.8688377296709     0.045047309241122    81.1767952286635     0.994087522245524    -2.56650530694208    0.994087522245524    -2.56650530694208    0.045047309241122    81.1767952286635     
30.1750784954842     0.045503731881809    81.1961235034142     0.994053143361985    -2.59275242449349    0.994053143361985    -2.59275242449349    0.045503731881809    81.1961235034142     
30.4844591024756     0.045964819240417    81.2148179932631     0.994018273313952    -2.61926714161427    0.994018273313952    -2.61926714161427    0.045964819240417    81.2148179932631     
30.7970117429712     0.046430618027369    81.2328790907712     0.993982903148712    -2.64605216396168    0.993982903148712    -2.64605216396168    0.046430618027369    81.2328790907712     
31.1127689393605     0.0469011754059      81.2503071365414     0.993947023737184    -2.67311022389309    0.993947023737184    -2.67311022389309    0.0469011754059      81.2503071365414     
31.43176354748       0.047376538995891    81.2671024191233     0.99391062577053     -2.70044408071007    0.99391062577053     -2.70044408071007    0.047376538995891    81.2671024191233     
31.7540287600323     0.04785675687771     81.2832651749178     0.99387369975648     -2.72805652090358    0.99387369975648     -2.72805652090358    0.04785675687771     81.2832651749178     
32.0795981100398     0.048341877596079    81.2987955880795     0.993836236015728    -2.75595035840105    0.993836236015728    -2.75595035840105    0.048341877596079    81.2987955880795     
32.4085054743341     0.048831950163948    81.31369379042       0.99379822467825     -2.78412843481494    0.99379822467825     -2.78412843481494    0.048831950163948    81.31369379042       
32.7407850770809     0.049327024066383    81.3279598613093     0.993759655679433    -2.8125936196929     0.993759655679433    -2.8125936196929     0.049327024066383    81.3279598613093     
33.0764714933412     0.049827149264472    81.3415938275763     0.993720518756298    -2.84134881076949    0.993720518756298    -2.84134881076949    0.049827149264472    81.3415938275763     
33.4155996526689     0.050332376199232    81.3545956634084     0.993680803443504    -2.87039693421946    0.993680803443504    -2.87039693421946    0.050332376199232    81.3545956634084     
33.7582048427456     0.050842755795545    81.3669652902505     0.993640499069376    -2.89974094491263    0.993640499069376    -2.89974094491263    0.050842755795545    81.3669652902505     
34.104322713052      0.051358339466087    81.3787025767026     0.993599594751771    -2.92938382667014    0.993599594751771    -2.92938382667014    0.051358339466087    81.3787025767026     
34.4539892785781     0.05187917911528     81.3898073384158     0.993558079393958    -2.95932859252241    0.993558079393958    -2.95932859252241    0.05187917911528     81.3898073384158     
34.8072409235697     0.052405327143248    81.4002793379886     0.993515941680341    -2.98957828496846    0.993515941680341    -2.98957828496846    0.052405327143248    81.4002793379886     
35.1641144053152     0.052936836449776    81.41011828486       0.993473170072112    -3.02013597623659    0.993473170072112    -3.02013597623659    0.052936836449776    81.41011828486       
35.5246468579701     0.053473760438291    81.4193238352037     0.993429752802867    -3.05100476854685    0.993429752802867    -3.05100476854685    0.053473760438291    81.4193238352037     
35.8888757964207     0.054016153019837    81.427895591819      0.993385677874093    -3.08218779437462    0.993385677874093    -3.08218779437462    0.054016153019837    81.427895591819      
36.2568391201879     0.054564068617056    81.435833104022      0.993340933050582    -3.1136882167157     0.993340933050582    -3.1136882167157     0.054564068617056    81.435833104022      
36.6285751173709     0.055117562168189    81.4431358675346     0.993295505855764    -3.14550922935294    0.993295505855764    -3.14550922935294    0.055117562168189    81.4431358675346     
37.0041224686309     0.055676689131055    81.4498033243726     0.993249383566907    -3.17765405712372    0.993249383566907    -3.17765405712372    0.055676689131055    81.4498033243726     
37.3835202512163     0.05624150548706     81.4558348627327     0.993202553210327    -3.21012595618963    0.993202553210327    -3.21012595618963    0.05624150548706     81.4558348627327     
37.7668079430288     0.056812067745186    81.4612298168777     0.993155001556393    -3.24292821430651    0.993155001556393    -3.24292821430651    0.056812067745186    81.4612298168777     
38.1540254267311     0.057388432945994    81.4659874670209     0.99310671511449     -3.27606415109636    0.99310671511449     -3.27606415109636    0.057388432945994    81.4659874670209     
38.545212993897      0.05797065866562     81.4701070392088     0.993057680127903    -3.3095371183204     0.993057680127903    -3.3095371183204     0.05797065866562     81.4701070392088     
38.9404113492036     0.058558803019769    81.4735877052026     0.993007882568553    -3.34335050015303    0.993007882568553    -3.34335050015303    0.058558803019769    81.4735877052026     
39.3396616146673     0.059152924667711    81.4764285823587     0.992957308131688    -3.37750771345738    0.992957308131688    -3.37750771345738    0.059152924667711    81.4764285823587     
39.7430053339223     0.059753082816265    81.4786287335074     0.992905942230434    -3.41201220806176    0.992905942230434    -3.41201220806176    0.059753082816265    81.4786287335074     
40.1504844765436     0.060359337223782    81.4801871668305     0.992853769990281    -3.44686746703724    0.992853769990281    -3.44686746703724    0.060359337223782    81.4801871668305     
40.562141442414      0.060971748204119    81.4811028357376     0.992800776243387    -3.48207700697626    0.992800776243387    -3.48207700697626    0.060971748204119    81.4811028357376     
40.9780190661359     0.061590376630607    81.4813746387412     0.992746945522899    -3.51764437827236    0.992746945522899    -3.51764437827236    0.061590376630607    81.4813746387412     
41.3981606214887     0.06221528394        81.4810014193305     0.992692262057046    -3.55357316540078    0.992692262057046    -3.55357316540078    0.06221528394        81.4810014193305     
41.8226098259314     0.06284653213642     81.4799819658441     0.992636709763176    -3.5898669871999     0.992636709763176    -3.5898669871999     0.06284653213642     81.4799819658441     
42.2514108451514     0.063484183795292    81.4783150113404     0.992580272241713    -3.62652949715397    0.992580272241713    -3.62652949715397    0.063484183795292    81.4783150113404     
42.6846082976609     0.06412830206725     81.4759992334688     0.992522932769943    -3.66356438367615    0.992522932769943    -3.66356438367615    0.06412830206725     81.4759992334688     
43.1222472594384     0.064778950682034    81.4730332543378     0.992464674295683    -3.70097537039253    0.992464674295683    -3.70097537039253    0.064778950682034    81.4730332543378     
43.5643732686202     0.06543619395237     81.4694156403833     0.992405479430922    -3.73876621642703    0.992405479430922    -3.73876621642703    0.06543619395237     81.4694156403833     
44.0110323302383     0.066100096777823    81.4651449022346     0.992345330445188    -3.77694071668664    0.992345330445188    -3.77694071668664    0.066100096777823    81.4651449022346     
44.4622709210073     0.066770724648634    81.4602194945804     0.992284209258969    -3.81550270214765    0.992284209258969    -3.81550270214765    0.066770724648634    81.4602194945804     
44.9181359941608     0.067448143649525    81.4546378160334     0.992222097436871    -3.85445604014206    0.992222097436871    -3.85445604014206    0.067448143649525    81.4546378160334     
45.3786749843369     0.06813242046348     81.4483982089932     0.992158976180749    -3.89380463464475    0.992158976180749    -3.89380463464475    0.06813242046348     81.4483982089932     
45.843935812514      0.068823622375493    81.4414989595095     0.992094826322601    -3.93355242656068    0.992094826322601    -3.93355242656068    0.068823622375493    81.4414989595095     
46.3139668909973     0.069521817276294    81.4339382971437     0.992029628317469    -3.97370339401304    0.992029628317469    -3.97370339401304    0.069521817276294    81.4339382971437     
46.788817128456      0.070227073666031    81.4257143948295     0.991963362236084    -4.01426155263094    0.991963362236084    -4.01426155263094    0.070227073666031    81.4257143948295     
47.2685359350127     0.070939460657919    81.4168253687327     0.991896007757494    -4.05523095583808    0.991896007757494    -4.05523095583808    0.070939460657919    81.4168253687327     
47.7531732273848     0.071659047981845    81.4072692781115     0.991827544161418    -4.09661569514058    0.991827544161418    -4.09661569514058    0.071659047981845    81.4072692781115     
48.2427794340784     0.072385905987946    81.3970441251742     0.991757950320592    -4.13841990041581    0.991757950320592    -4.13841990041581    0.072385905987946    81.3970441251742     
48.7374055006352     0.073120105650126    81.3861478549377     0.991687204692926    -4.18064774020059    0.991687204692926    -4.18064774020059    0.073120105650126    81.3861478549377     
49.2371028949346     0.073861718569531    81.3745783550852     0.991615285313472    -4.22330342197926    0.991615285313472    -4.22330342197926    0.073861718569531    81.3745783550852     
49.741923612548      0.07461081697798     81.3623334558233     0.991542169786344    -4.26639119247175    0.991542169786344    -4.26639119247175    0.07461081697798     81.3623334558233     
50.25192018215       0.075367473741337    81.3494109297386     0.991467835276401    -4.30991533792125    0.991467835276401    -4.30991533792125    0.075367473741337    81.3494109297386     
50.7671456709839     0.076131762362828    81.3358084916545     0.991392258500852    -4.35388018438128    0.991392258500852    -4.35388018438128    0.076131762362828    81.3358084916545     
51.2876536903834     0.076903756986297    81.3215237984875     0.991315415720637    -4.39829009800237    0.991315415720637    -4.39829009800237    0.076903756986297    81.3215237984875     
51.8134984013514     0.077683532399405    81.3065544491034     0.991237282731759    -4.44314948531827    0.991237282731759    -4.44314948531827    0.077683532399405    81.3065544491034     
52.3447345201954     0.078471164036759    81.2908979841739     0.991157834856348    -4.48846279353101    0.991157834856348    -4.48846279353101    0.078471164036759    81.2908979841739     
52.8814173242214     0.079266727982969    81.2745518860326     0.991077046933642    -4.53423451079539    0.991077046933642    -4.53423451079539    0.079266727982969    81.2745518860326     
53.4236026574851     0.080070300975638    81.2575135785321     0.990994893310797    -4.5804691665025     0.990994893310797    -4.5804691665025     0.080070300975638    81.2575135785321     
53.9713469366031     0.08088196040827     81.2397804269007     0.990911347833498    -4.62717133156189    0.990911347833498    -4.62717133156189    0.08088196040827     81.2397804269007     
54.5247071566234     0.081701784333102    81.2213497376003     0.990826383836458    -4.67434561868278    0.990826383836458    -4.67434561868278    0.081701784333102    81.2213497376003     
55.0837408969554     0.08252985146385     81.2022187581838     0.99073997413373     -4.72199668265396    0.99073997413373     -4.72199668265396    0.08252985146385     81.2022187581838     
55.648506327362      0.083366241178361    81.1823846771543     0.990652091008829    -4.77012922062181    0.990652091008829    -4.77012922062181    0.083366241178361    81.1823846771543     
56.2190622140119     0.084211033521177    81.1618446238252     0.990562706204715    -4.81874797236677    0.990562706204715    -4.81874797236677    0.084211033521177    81.1618446238252     
56.7954679255948     0.085064309206007    81.1405956681797     0.990471790913589    -4.86785772057868    0.990471790913589    -4.86785772057868    0.085064309206007    81.1405956681797     
57.3777834394984     0.085926149618088    81.1186348207335     0.990379315766526    -4.91746329112933    0.990379315766526    -4.91746329112933    0.085926149618088    81.1186348207335     
57.96606934805       0.086796636816442    81.0959590323972     0.990285250822909    -4.96756955334322    0.990285250822909    -4.96756955334322    0.086796636816442    81.0959590323972     
58.5603868648209     0.087675853536024    81.0725651943412     0.990189565559704    -5.01818142026637    0.990189565559704    -5.01818142026637    0.087675853536024    81.0725651943412     
59.1607978309962     0.088563883189753    81.0484501378616     0.990092228860526    -5.06930384893209    0.990092228860526    -5.06930384893209    0.088563883189753    81.0484501378616     
59.7673647218093     0.089460809870429    81.0236106342476     0.989993209004597    -5.12094184062513    0.989993209004597    -5.12094184062513    0.089460809870429    81.0236106342476     
60.3801506530431     0.090366718352505    80.998043394652      0.989892473655376    -5.17310044114178    0.989892473655376    -5.17310044114178    0.090366718352505    80.998043394652      
60.9992193875972     0.09128169409375     80.9717450699624     0.989789989849177    -5.22578474104828    0.989789989849177    -5.22578474104828    0.09128169409375     80.9717450699624     
61.6246353421227     0.092205823236763    80.9447122506756     0.989685723983452    -5.27899987593522    0.989685723983452    -5.27899987593522    0.092205823236763    80.9447122506756     
62.2564635937251     0.093139192610338    80.9169414667742     0.989579641804948    -5.33275102666897    0.989579641804948    -5.33275102666897    0.093139192610338    80.9169414667742     
62.894769886736      0.094081889730702    80.888429187606      0.989471708397655    -5.38704341963961    0.989471708397655    -5.38704341963961    0.094081889730702    80.888429187606      
63.5396206395535     0.095034002802573    80.859171821766      0.989361888170593    -5.44188232700497    0.989361888170593    -5.44188232700497    0.095034002802573    80.859171821766      
64.1910829515541     0.095995620720076    80.8291657169819     0.989250144845326    -5.49727306693072    0.989250144845326    -5.49727306693072    0.095995620720076    80.8291657169819     
64.8492246100739     0.09696683306748     80.7984071600028     0.989136441443338    -5.55322100382638    0.989136441443338    -5.55322100382638    0.09696683306748     80.7984071600028     
65.5141140974629     0.097947730119775    80.766892376491      0.989020740273182    -5.60973154857686    0.989020740273182    -5.60973154857686    0.097947730119775    80.766892376491      
66.1858205982102     0.09893840284305     80.7346175309185     0.988903002917437    -5.66681015876932    0.988903002917437    -5.66681015876932    0.09893840284305     80.7346175309185     
66.8644140061432     0.099938942894702    80.7015787264666     0.988783190219446    -5.72446233891529    0.988783190219446    -5.72446233891529    0.099938942894702    80.7015787264666     
67.5499649317005     0.100949442623443    80.6677720049301     0.988661262269839    -5.78269364066755    0.988661262269839    -5.78269364066755    0.100949442623443    80.6677720049301     
68.242544709279      0.101969995069094    80.6331933466268     0.988537178392878    -5.84150966303127    0.988537178392878    -5.84150966303127    0.101969995069094    80.6331933466268     
68.9422254046566     0.103000693962197    80.59783867031       0.988410897132541    -5.90091605257038    0.988410897132541    -5.90091605257038    0.103000693962197    80.59783867031       
69.6490798224908     0.104041633723384    80.5617038330883     0.988282376238456    -5.96091850360699    0.988282376238456    -5.96091850360699    0.104041633723384    80.5617038330883     
70.3631815138948     0.105092909462533    80.5247846303486     0.988151572651561    -6.0215227584151     0.988151572651561    -6.0215227584151     0.105092909462533    80.5247846303486     
71.0846047840901     0.106154616977695    80.4870767956865     0.988018442489564    -6.08273460740815    0.988018442489564    -6.08273460740815    0.106154616977695    80.4870767956865     
71.8134247001389     0.107226852753764    80.4485760008416     0.987882941032213    -6.14455988931869    0.987882941032213    -6.14455988931869    0.107226852753764    80.4485760008416     
72.5497170987546     0.108309713960922    80.4092778556396     0.987745022706317    -6.20700449137216    0.987745022706317    -6.20700449137216    0.108309713960922    80.4092778556396     
73.2935585941935     0.109403298452795    80.3691779079399     0.987604641070556    -6.27007434945217    0.987604641070556    -6.27007434945217    0.109403298452795    80.3691779079399     
74.0450265862262     0.110507704764373    80.3282716435922     0.987461748800039    -6.333775448259      0.987461748800039    -6.333775448259      0.110507704764373    80.3282716435922     
74.8041992681917     0.111623032109623    80.2865544863981     0.98731629767072     -6.39811382145886    0.98731629767072     -6.39811382145886    0.111623032109623    80.2865544863981     
75.5711556351342     0.112749380378842    80.2440217980817     0.987168238543482    -6.46309555182601    0.987168238543482    -6.46309555182601    0.112749380378842    80.2440217980817     
76.3459754920215     0.113886850135698    80.2006688782672     0.987017521348112    -6.5287267713748     0.987017521348112    -6.5287267713748     0.113886850135698    80.2006688782672     
77.1287394620509     0.115035542613965    80.1564909644659     0.986864095066901    -6.59501366148352    0.986864095066901    -6.59501366148352    0.115035542613965    80.1564909644659     
77.9195289950365     0.116195559713952    80.1114832320709     0.986707907718199    -6.6619624530081     0.986707907718199    -6.6619624530081     0.116195559713952    80.1114832320709     
78.7184263758859     0.11736700399859     80.0656407943612     0.986548906339572    -6.72957942638601    0.986548906339572    -6.72957942638601    0.11736700399859     80.0656407943612     
79.5255147331613     0.118549978689204    80.0189587025154     0.986387036970866    -6.79787091173025    0.986387036970866    -6.79787091173025    0.118549978689204    80.0189587025154     
80.3408780477299     0.119744587660907    79.9714319456352     0.986222244636941    -6.86684328891185    0.986222244636941    -6.86684328891185    0.119744587660907    79.9714319456352     
81.1646011615023     0.120950935437654    79.9230554507794     0.986054473330239    -6.93650298763161    0.986054473330239    -6.93650298763161    0.120950935437654    79.9230554507794     
81.9967697862605     0.122169127186923    79.8738240830077     0.985883665993102    -7.00685648748047    0.985883665993102    -7.00685648748047    0.122169127186923    79.8738240830077     
82.8374705125769     0.12339926871401     79.8237326454373     0.985709764499877    -7.07791031798724    0.985709764499877    -7.07791031798724    0.12339926871401     79.8237326454373     
83.6867908188238     0.12464146645592     79.7727758793097     0.985532709638766    -7.14967105865467    0.985532709638766    -7.14967105865467    0.12464146645592     79.7727758793097     
84.5448190802768     0.125895827474863    79.7209484640701     0.985352441093481    -7.22214533898152    0.985352441093481    -7.22214533898152    0.125895827474863    79.7209484640701     
85.4116445783098     0.127162459451324    79.6682450174601     0.98516889742463     -7.29533983847214    0.98516889742463     -7.29533983847214    0.127162459451324    79.6682450174601     
86.2873575096854     0.128441470676694    79.6146600956218     0.984982016050947    -7.36926128663141    0.984982016050947    -7.36926128663141    0.128441470676694    79.6146600956218     
87.1720489959403     0.129732970045461    79.5601881932173     0.984791733230214    -7.4439164629456     0.984791733230214    -7.4439164629456     0.129732970045461    79.5601881932173     
88.0658110928669     0.131037067046946    79.5048237435611     0.984597984040044    -7.51931219684862    0.984597984040044    -7.51931219684862    0.131037067046946    79.5048237435611     
88.9687368000916     0.132353871756543    79.448561118768      0.984400702358364    -7.5954553676717     0.984400702358364    -7.5954553676717     0.132353871756543    79.448561118768      
89.8809200707529     0.133683494826492    79.3913946299152     0.984199820843742    -7.67235290457802    0.984199820843742    -7.67235290457802    0.133683494826492    79.3913946299152     
90.802455821276      0.135026047476138    79.333318527221      0.983995270915464    -7.75001178648046    0.983995270915464    -7.75001178648046    0.135026047476138    79.333318527221      
91.733439941251      0.136381641481679    79.2743270002395     0.983786982733422    -7.82843904194219    0.983786982733422    -7.82843904194219    0.136381641481679    79.2743270002395     
92.6739693034092     0.137750389165369    79.2144141780721     0.983574885177737    -7.9076417490593     0.983574885177737    -7.9076417490593     0.137750389165369    79.2144141780721     
93.6241417737039     0.139132403384186    79.1535741295969     0.983358905828252    -7.98762703532537    0.983358905828252    -7.98762703532537    0.139132403384186    79.1535741295969     
94.5840562214933     0.140527797517925    79.0918008637158     0.983138970943761    -8.06840207747686    0.983138970943761    -8.06840207747686    0.140527797517925    79.0918008637158     
95.5538125298287     0.141936685456718    79.0290883296204     0.982915005441049    -8.1499741013191     0.982915005441049    -8.1499741013191     0.141936685456718    79.0290883296204     
96.5335116058474     0.143359181587949    78.9654304170776     0.982686932873745    -8.23235038153185    0.982686932873745    -8.23235038153185    0.143359181587949    78.9654304170776     
97.5232553912727     0.144795400782569    78.9008209567354     0.982454675411009    -8.31553824145423    0.982454675411009    -8.31553824145423    0.144795400782569    78.9008209567354     
98.5231468730212     0.146245458380762    78.8352537204484     0.982218153815928    -8.39954505284753    0.982218153815928    -8.39954505284753    0.146245458380762    78.8352537204484     
99.5332900939192     0.147709470176978    78.7687224216262     0.981977287423872    -8.48437823563658    0.981977287423872    -8.48437823563658    0.147709470176978    78.7687224216262     
100.553790163528     0.149187552404296    78.7012207156034     0.981731994120569    -8.57004525762724    0.981731994120569    -8.57004525762724    0.149187552404296    78.7012207156034     
101.584753269084     0.1506798217181      78.6327422000311     0.98148219032003     -8.65655363420124    0.98148219032003     -8.65655363420124    0.1506798217181      78.6327422000311     
102.626286686541     0.152186395179054    78.5632804152949     0.981227790942342    -8.74391092798501    0.981227790942342    -8.74391092798501    0.152186395179054    78.5632804152949     
103.678498791743     0.153707390235372    78.4928288449539     0.980968709391296    -8.8321247484961     0.980968709391296    -8.8321247484961     0.153707390235372    78.4928288449539     
104.741499071691     0.155242924704309    78.421380916208      0.980704857531776    -8.92120275175954    0.980704857531776    -8.92120275175954    0.155242924704309    78.421380916208      
105.815398135941     0.156793116752949    78.3489300003887     0.980436145667164    -9.01115263990208    0.980436145667164    -9.01115263990208    0.156793116752949    78.3489300003887     
106.900307728114     0.158358084878162    78.2754694134778     0.980162482516477    -9.10198216071519    0.980162482516477    -9.10198216071519    0.158358084878162    78.2754694134778     
107.996340737521     0.159937947885804    78.2009924166534     0.979883775191421    -9.19369910719189    0.979883775191421    -9.19369910719189    0.159937947885804    78.2009924166534     
109.103611210909     0.161532824869066    78.1254922168644     0.979599929173353    -9.28631131703312    0.979599929173353    -9.28631131703312    0.161532824869066    78.1254922168644     
110.222234364331     0.163142835186018    78.0489619674338     0.979310848290104    -9.37982667212543    0.979310848290104    -9.37982667212543    0.163142835186018    78.0489619674338     
111.352326595133     0.16476809843626     77.9713947686925     0.979016434692727    -9.47425309798651    0.979016434692727    -9.47425309798651    0.16476809843626     77.9713947686925     
112.494005494065     0.166408734436718    77.8927836686444     0.978716588832122    -9.56959856317906    0.978716588832122    -9.56959856317906    0.166408734436718    77.8927836686444     
113.647389857518     0.168064863196527    77.8131216636621     0.978411209435652    -9.66587107869324    0.978411209435652    -9.66587107869324    0.168064863196527    77.8131216636621     
114.812599699884     0.169736604891003    77.7324016992168     0.978100193483651    -9.7630786972943     0.978100193483651    -9.7630786972943     0.169736604891003    77.7324016992168     
115.989756266045     0.171424079834648    77.6506166706413     0.977783436185871    -9.86122951283565    0.977783436185871    -9.86122951283565    0.171424079834648    77.6506166706413     
117.178982043991     0.173127408453218    77.5677594239276     0.977460830957958    -9.9603316595376     0.977460830957958    -9.9603316595376     0.173127408453218    77.5677594239276     
118.380400777561     0.174846711254779    77.4838227565602     0.97713226939784     -10.0603933112283    0.97713226939784     -10.0603933112283    0.174846711254779    77.4838227565602     
119.59413747932      0.176582108799759    77.3987994183866     0.976797641262152    -10.1614226805484    0.976797641262152    -10.1614226805484    0.176582108799759    77.3987994183866     
120.820318443572     0.178333721669982    77.3126821125239     0.976456834442661    -10.2634280181165    0.976456834442661    -10.2634280181165    0.178333721669982    77.3126821125239     
122.059071259495     0.180101670436614    77.2254634963062     0.976109734942727    -10.3664176116559    0.976109734942727    -10.3664176116559    0.180101670436614    77.2254634963062     
123.310524824419     0.181886075627069    77.1371361822695     0.975756226853778    -10.47039978508      0.975756226853778    -10.47039978508      0.181886075627069    77.1371361822695     
124.574809357244     0.183687057690779    77.0476927391789     0.975396192331912    -10.5753828975376    0.975396192331912    -10.5753828975376    0.183687057690779    77.0476927391789     
125.85205641198      0.185504736963854    76.9571256930966     0.975029511574491    -10.681375342414     0.975029511574491    -10.681375342414     0.185504736963854    76.9571256930966     
127.142398891443     0.187339233632603    76.8654275284928     0.97465606279696     -10.7883855462901    0.97465606279696     -10.7883855462901    0.187339233632603    76.8654275284928     
128.445971061081     0.189190667695862    76.7725906894016     0.974275722209668    -10.8964219678555    0.974275722209668    -10.8964219678555    0.189190667695862    76.7725906894016     
129.762908562948     0.191059158926142    76.6786075806199     0.973888363994907    -11.0054930967769    0.973888363994907    -11.0054930967769    0.191059158926142    76.6786075806199     
131.093348429813     0.192944826829556    76.5834705689545     0.973493860284118    -11.1156074525189    0.973493860284118    -11.1156074525189    0.192944826829556    76.5834705689545     
132.437429099423     0.194847790604497    76.4871719845148     0.973092081135235    -11.2267735831169    0.973092081135235    -11.2267735831169    0.194847790604497    76.4871719845148     
133.795290428907     0.196768169099064    76.3897041220546     0.972682894510366    -11.3390000639015    0.972682894510366    -11.3390000639015    0.196768169099064    76.3897041220546     
135.167073709327     0.198706080767185    76.2910592423638     0.972266166253557    -11.4522954961719    0.972266166253557    -11.4522954961719    0.198706080767185    76.2910592423638     
136.552921680384     0.200661643623436    76.1912295737096     0.971841760068953    -11.5666685058178    0.971841760068953    -11.5666685058178    0.200661643623436    76.1912295737096     
137.952978545265     0.202634975196526    76.0902073133305     0.971409537499231    -11.6821277418899    0.971409537499231    -11.6821277418899    0.202634975196526    76.0902073133305     
139.367389985652     0.204626192481412    75.9879846289834     0.970969357904305    -11.7986818751144    0.970969357904305    -11.7986818751144    0.204626192481412    75.9879846289834     
140.796303176881     0.20663541189006     75.8845536605435     0.970521078440462    -11.9163395963558    0.970521078440462    -11.9163395963558    0.20663541189006     75.8845536605435     
142.239866803254     0.208662749200762    75.7799065216613     0.970064554039858    -12.0351096150196    0.970064554039858    -12.0351096150196    0.208662749200762    75.7799065216613     
143.698231073509     0.210708319506067    75.6740353014754     0.969599637390407    -12.1550006574014    0.969599637390407    -12.1550006574014    0.210708319506067    75.6740353014754     
145.171547736455     0.212772237159241    75.5669320663824     0.969126178916192    -12.2760214649753    0.969126178916192    -12.2760214649753    0.212772237159241    75.5669320663824     
146.659970096758     0.214854615719263    75.4585888618669     0.9686440267583      -12.3981807926228    0.9686440267583      -12.3981807926228    0.214854615719263    75.4585888618669     
148.163653030894     0.216955567894332    75.3489977143913     0.968153026756248    -12.5214874068014    0.968153026756248    -12.5214874068014    0.216955567894332    75.3489977143913     
149.682753003264     0.219075205483863    75.238150633346      0.967653022429911    -12.6459500836511    0.967653022429911    -12.6459500836511    0.219075205483863    75.238150633346      
151.217428082477     0.221213639318947    75.1260396130641     0.967143854962081    -12.7715776070363    0.967143854962081    -12.7715776070363    0.221213639318947    75.1260396130641     
152.767837957792     0.22337097920127     75.0126566348979     0.96662536318172     -12.8983787665249    0.96662536318172     -12.8983787665249    0.22337097920127     75.0126566348979     
154.334143955744     0.225547333840448    74.8979936693615     0.966097383547791    -13.0263623553005    0.966097383547791    -13.0263623553005    0.225547333840448    74.8979936693615     
155.916509056921     0.227742810789781    74.7820426783397     0.965559750133904    -13.1555371680076    0.965559750133904    -13.1555371680076    0.227742810789781    74.7820426783397     
157.515097912928     0.229957516380405    74.6647956173635     0.965012294613713    -13.2859119985296    0.965012294613713    -13.2859119985296    0.229957516380405    74.6647956173635     
159.130076863518     0.23219155565382     74.5462444379546     0.964454846247113    -13.4174956376964    0.964454846247113    -13.4174956376964    0.23219155565382     74.5462444379546     
160.761613953901     0.234445032292769    74.4263810900393     0.963887231867327    -13.5502968709224    0.963887231867327    -13.5502968709224    0.234445032292769    74.4263810900393     
162.409878952231     0.236718048550476    74.3051975244344     0.963309275868866    -13.6843244757719    0.963309275868866    -13.6843244757719    0.236718048550476    74.3051975244344     
164.075043367269     0.239010705178208    74.1826856954034     0.962720800196477    -13.8195872194526    0.962720800196477    -13.8195872194526    0.239010705178208    74.1826856954034     
165.757280466228     0.241323101351167    74.0588375632874     0.962121624335125    -13.9560938562342    0.962121624335125    -13.9560938562342    0.241323101351167    74.0588375632874     
167.456765292806     0.243655334592687    73.9336450972087     0.961511565301003    -14.0938531247934    0.961511565301003    -14.0938531247934    0.243655334592687    73.9336450972087     
169.173674685398     0.246007500696717    73.807100277852      0.960890437633655    -14.2328737454807    0.960890437633655    -14.2328737454807    0.246007500696717    73.807100277852      
170.908187295496     0.248379693648616    73.6791951003191     0.960258053389333    -14.3731644175119    0.960258053389333    -14.3731644175119    0.248379693648616    73.6791951003191     
172.660483606281     0.250772005544215    73.5499215770642     0.959614222135492    -14.5147338160806    0.959614222135492    -14.5147338160806    0.250772005544215    73.5499215770642     
174.430745951399     0.25318452650715     73.419271740905      0.958958750946663    -14.6575905893903    0.958958750946663    -14.6575905893903    0.25318452650715     73.419271740905      
176.219158533937     0.25561734460449     73.2872376481151     0.958291444401612    -14.8017433556084    0.958291444401612    -14.8017433556084    0.25561734460449     73.2872376481151     
178.02590744559      0.258070545760616    73.1538113815953     0.95761210458194     -14.9472006997376    0.95761210458194     -14.9472006997376    0.258070545760616    73.1538113815953     
179.851180686021     0.260544213669366    73.0189850541282     0.956920531072135    -15.0939711704046    0.956920531072135    -15.0939711704046    0.260544213669366    73.0189850541282     
181.695168182427     0.263038429704472    72.8827508117122     0.956216520961177    -15.2420632765682    0.956216520961177    -15.2420632765682    0.263038429704472    72.8827508117122     
183.558061809302     0.265553272828246    72.7451008369812     0.955499868845708    -15.3914854841406    0.955499868845708    -15.3914854841406    0.265553272828246    72.7451008369812     
185.440055408398     0.26808881949856     72.606027352707      0.954770366834897    -15.5422462125257    0.954770366834897    -15.5422462125257    0.26808881949856     72.606027352707      
187.341344808899     0.270645143574105    72.4655226253854     0.954027804557017    -15.6943538310726    0.954027804557017    -15.6943538310726    0.270645143574105    72.4655226253854     
189.262127847798     0.273222316217962    72.3235789689085     0.953271969167848    -15.8478166554414    0.953271969167848    -15.8478166554414    0.273222316217962    72.3235789689085     
191.202604390478     0.275820405799457    72.1801887483226     0.952502645360906    -16.0026429438842    0.952502645360906    -16.0026429438842    0.275820405799457    72.1801887483226     
193.162976351516     0.278439477794371    72.0353443836718     0.951719615379667    -16.1588408934374    0.951719615379667    -16.1588408934374    0.278439477794371    72.0353443836718     
195.143447715686     0.281079594683453    71.8890383539298     0.950922659031714    -16.3164186360268    0.950922659031714    -16.3164186360268    0.281079594683453    71.8890383539298     
197.14422455919      0.283740815849358    71.7412632010166     0.950111553705102    -16.4753842344859    0.950111553705102    -16.4753842344859    0.283740815849358    71.7412632010166     
199.165515071097     0.286423197471896    71.5920115339052     0.949286074386738    -16.6357456784832    0.949286074386738    -16.6357456784832    0.286423197471896    71.5920115339052     
201.207529575008     0.289126792421756    71.4412760328147     0.948445993683088    -16.797510880363     0.948445993683088    -16.797510880363     0.289126792421756    71.4412760328147     
203.270480550942     0.291851650152647    71.2890494534915     0.947591081843151    -16.9606876708965    0.947591081843151    -16.9606876708965    0.291851650152647    71.2890494534915     
205.354582657444     0.294597816591919    71.1353246315786     0.946721106783844    -17.125283794944     0.946721106783844    -17.125283794944     0.294597816591919    71.1353246315786     
207.460052753918     0.29736533402971     70.9800944870728     0.945835834117823    -17.2913069070288    0.945835834117823    -17.2913069070288    0.29736533402971     70.9800944870728     
209.587109923201     0.300154241006612    70.8233520288713     0.944935027183824    -17.4587645668195    0.944935027183824    -17.4587645668195    0.300154241006612    70.8233520288713     
211.735975494348     0.302964572200001    70.6650903594027     0.944018447079699    -17.6276642345287    0.944018447079699    -17.6276642345287    0.302964572200001    70.6650903594027     
213.906873065671     0.305796358308934    70.5053026793492     0.94308585269804     -17.798013266218     0.94308585269804     -17.798013266218     0.305796358308934    70.5053026793492     
216.100028528004     0.308649625937814    70.3439822924531     0.942137000764655    -17.9698189090185    0.942137000764655    -17.9698189090185    0.308649625937814    70.3439822924531     
218.315670088203     0.311524397478761    70.1811226104107     0.941171645879855    -18.1430882962626    0.941171645879855    -18.1430882962626    0.311524397478761    70.1811226104107     
220.554028292895     0.314420690992825    70.0167171578518     0.940189540562678    -18.3178284425297    0.940189540562678    -18.3178284425297    0.314420690992825    70.0167171578518     
222.815336052471     0.317338520090068    69.8507595774042     0.939190435298126    -18.4940462386047    0.939190435298126    -18.4940462386047    0.317338520090068    69.8507595774042     
225.099828665315     0.320277893808594    69.6832436348421     0.938174078587486    -18.6717484463534    0.938174078587486    -18.6717484463534    0.320277893808594    69.6832436348421     
227.407743842289     0.32323881649261     69.5141632243168     0.937140217001798    -18.8509416935125    0.937140217001798    -18.8509416935125    0.32323881649261     69.5141632243168     
229.739321731474     0.326221287669561    69.3435123736712     0.936088595238564    -19.0316324683966    0.936088595238564    -19.0316324683966    0.326221287669561    69.3435123736712     
232.094804943148     0.329225301926492    69.1712852498307     0.935018956181815    -19.2138271145259    0.935018956181815    -19.2138271145259    0.329225301926492    69.1712852498307     
234.47443857504      0.332250848785622    68.9974761642782     0.933931040965467    -19.3975318251706    0.933931040965467    -19.3975318251706    0.332250848785622    68.9974761642782     
236.87847023783      0.335297912579352    68.8220795786006     0.932824589040268    -19.5827526378213    0.932824589040268    -19.5827526378213    0.335297912579352    68.8220795786006     
239.307150080911     0.338366472324661    68.6450901101147     0.931699338244174    -19.7694954285786    0.931699338244174    -19.7694954285786    0.338366472324661    68.6450901101147     
241.760730818422     0.341456501597134    68.4665025375644     0.930555024876386    -19.9577659064721    0.930555024876386    -19.9577659064721    0.341456501597134    68.4665025375644     
244.239467755544     0.344567968404618    68.2863118068892     0.929391383775044    -20.1475696077051    0.929391383775044    -20.1475696077051    0.344567968404618    68.2863118068892     
246.74361881506      0.347700835060667    68.1045130370626     0.92820814839865     -20.3389118898286    0.92820814839865     -20.3389118898286    0.347700835060667    68.1045130370626     
249.273444564202     0.350855058057948    67.9211015259929     0.927005050911351    -20.5317979258521    0.927005050911351    -20.5317979258521    0.350855058057948    67.9211015259929     
251.829208241756     0.354030587941584    67.7360727564931     0.925781822271985    -20.726232698284     0.925781822271985    -20.726232698284     0.354030587941584    67.7360727564931     
254.411175785458     0.357227369182757    67.5494224023048     0.924538192327193    -20.9222209931161    0.924538192327193    -20.9222209931161    0.357227369182757    67.5494224023048     
257.019615859662     0.36044534005254     67.3611463341844     0.923273889908384    -21.1197673937454    0.923273889908384    -21.1197673937454    0.36044534005254     67.3611463341844     
259.654799883301     0.363684432496191    67.1712406260405     0.921988642932794    -21.3188762748428    0.921988642932794    -21.3188762748428    0.363684432496191    67.1712406260405     
262.317002058124     0.366944572008043    66.9797015611217     0.920682178508661    -21.5195517961698    0.920682178508661    -21.5195517961698    0.366944572008043    66.9797015611217     
265.006499397229     0.370225677507114    66.7865256382514     0.919354223044474    -21.7217978963472    0.919354223044474    -21.7217978963472    0.370225677507114    66.7865256382514     
267.723571753891     0.37352766121363     66.5917095781046     0.918004502362414    -21.9256182865808    0.918004502362414    -21.9256182865808    0.37352766121363     66.5917095781046     
270.468501850676     0.376850428526582    66.3952503295243     0.916632741815997    -22.1310164443451    0.916632741815997    -22.1310164443451    0.376850428526582    66.3952503295243     
273.241575308866     0.380193877902558    66.1971450758685     0.915238666411995    -22.3379956070355    0.915238666411995    -22.3379956070355    0.380193877902558    66.1971450758685     
276.043080678172     0.383557900735932    65.9973912413896     0.913822000936579    -22.5465587655862    0.913822000936579    -22.5465587655862    0.383557900735932    65.9973912413896     
278.873309466766     0.386942381240665    65.7959864976362     0.912382470085762    -22.7567086580652    0.912382470085762    -22.7567086580652    0.386942381240665    65.7959864976362     
281.732556171606     0.390347196333874    65.592928769874      0.910919798600166    -22.968447763247     0.910919798600166    -22.968447763247     0.390347196333874    65.592928769874      
284.621118309088     0.393772215521355    65.3882162435205     0.909433711404078    -23.1817782941707    0.909433711404078    -23.1817782941707    0.393772215521355    65.3882162435205     
287.539296445997     0.397217300785269    65.1818473705876     0.907923933748863    -23.3967021916894    0.907923933748863    -23.3967021916894    0.397217300785269    65.1818473705876     
290.487394230785     0.400682306474184    64.9738208761262     0.90639019136065     -23.6132211180136    0.90639019136065     -23.6132211180136    0.400682306474184    64.9738208761262     
293.465718425166     0.404167079195678    64.7641357646673     0.904832210592351    -23.8313364502591    0.904832210592351    -23.8313364502591    0.404167079195678    64.7641357646673     
296.474578936039     0.407671457711728    64.5527913266515     0.903249718579956    -24.0510492740022    0.903249718579956    -24.0510492740022    0.407671457711728    64.5527913266515     
299.514288847729     0.411195272837073    64.339787144843      0.901642443403126    -24.2723603768503    0.901642443403126    -24.2723603768503    0.411195272837073    64.339787144843      
302.58516445457      0.41473834734079     64.1251231007194     0.900010114249947    -24.4952702420342    0.900010114249947    -24.4952702420342    0.41473834734079     64.1251231007194     
305.687525293815     0.418300495851309    63.90879938083       0.898352461585958    -24.7197790420297    0.898352461585958    -24.7197790420297    0.418300495851309    63.90879938083       
308.821694178885     0.42188152476507     63.6908164831164     0.896669217327262    -24.9458866322149    0.896669217327262    -24.9458866322149    0.42188152476507     63.6908164831164     
311.987997232959     0.425481232159084    63.4711752231885     0.894960115017749    -25.1735925445712    0.894960115017749    -25.1735925445712    0.425481232159084    63.4711752231885     
315.186763922908     0.429099407707584    63.2498767405462     0.893224890010304    -25.4028959814345    0.893224890010304    -25.4028959814345    0.429099407707584    63.2498767405462     
318.418327093579     0.432735832603081    63.0269225047384     0.891463279652014    -25.6337958093083    0.891463279652014    -25.6337958093083    0.432735832603081    63.0269225047384     
321.683023002428     0.43639027948196     62.8023143214556     0.889675023473154    -25.8662905527409    0.889675023473154    -25.8662905527409    0.43639027948196     62.8023143214556     
324.981191354507     0.440062512354921    62.5760543385438     0.887859863379964    -26.100378388279     0.887859863379964    -26.100378388279     0.440062512354921    62.5760543385438     
328.313175337816     0.443752286542529    62.3481450519288     0.88601754385109     -26.336057138507     0.88601754385109     -26.336057138507     0.443752286542529    62.3481450519288     
331.679321659009     0.447459348616047    62.1185893114489     0.884147812137553    -26.5733242661784    0.884147812137553    -26.5733242661784    0.447459348616047    62.1185893114489     
335.079980579472     0.451183436343796    61.8873903265839     0.882250418466046    -26.8121768684457    0.882250418466046    -26.8121768684457    0.451183436343796    61.8873903265839     
338.515505951771     0.4549242786434      61.654551672066      0.880325116245625    -27.0526116712073    0.880325116245625    -27.0526116712073    0.4549242786434      61.654551672066      
341.986255256467     0.458681595539994    61.420077293373      0.87837166227742     -27.2946250235686    0.87837166227742     -27.2946250235686    0.458681595539994    61.420077293373      
345.492589639318     0.462455098130736    61.183971512088      0.8763898169673      -27.5382128924349    0.8763898169673      -27.5382128924349    0.462455098130736    61.183971512088      
349.034873948856     0.466244488555879    60.9462390311145     0.874379344541403    -27.7833708572448    0.874379344541403    -27.7833708572448    0.466244488555879    60.9462390311145     
352.613476774351     0.470049459976547    60.7068849397445     0.872340013264134    -28.0300941048487    0.872340013264134    -28.0300941048487    0.470049459976547    60.7068849397445     
356.228770484162     0.473869696559544    60.4659147185617     0.870271595658704    -28.2783774245488    0.870271595658704    -28.2783774245488    0.473869696559544    60.4659147185617     
359.881131264489     0.477704873469358    60.2233342441758     0.868173868729727    -28.5282152033047    0.868173868729727    -28.5282152033047    0.477704873469358    60.2233342441758     
363.57093915851      0.481554656867654    59.9791497937726     0.866046614187907    -28.7796014211207    0.866046614187907    -28.7796014211207    0.481554656867654    59.9791497937726     
367.298578105932     0.485418703920391    59.7333680494762     0.863889618676401    -29.032529646617     0.863889618676401    -29.032529646617     0.485418703920391    59.7333680494762     
371.064435982938     0.489296662812883    59.4859961025052     0.861702673998702    -29.2869930328032    0.861702673998702    -29.2869930328032    0.489296662812883    59.4859961025052     
374.868904642547     0.493188172772894    59.2370414571216     0.859485577347784    -29.5429843130571    0.859485577347784    -29.5429843130571    0.493188172772894    59.2370414571216     
378.71237995539      0.497092864102097    58.9865120343541     0.857238131536195    -29.8004957973238    0.857238131536195    -29.8004957973238    0.497092864102097    58.9865120343541     
382.595261850902     0.501010358215995    58.73441617549       0.854960145226924    -30.0595193685437    0.854960145226924    -30.0595193685437    0.501010358215995    58.73441617549       
386.517954358932     0.504940267692531    58.4807626453249     0.852651433164617    -30.3200464793176    0.852651433164617    -30.3200464793176    0.504940267692531    58.4807626453249     
390.48086565179      0.508882196329571    58.2255606351595     0.85031181640696     -30.5820681488218    0.85031181640696     -30.5820681488218    0.508882196329571    58.2255606351595     
394.484408086715     0.512835739211389    57.9688197655339     0.847941122555856    -30.845574959981     0.847941122555856    -30.845574959981     0.512835739211389    57.9688197655339     
398.528998248784     0.516800482784389    57.7105500886876     0.845539185988128    -31.1105570569115    0.845539185988128    -31.1105570569115    0.516800482784389    57.7105500886876     
402.615056994259     0.520776004942102    57.4507620907386     0.84310584808534     -31.3770041426402    0.84310584808534     -31.3770041426402    0.520776004942102    57.4507620907386     
406.743009494379     0.524761875119672    57.1894666935704     0.840640957462507    -31.6449054771124    0.840640957462507    -31.6449054771124    0.524761875119672    57.1894666935704     
410.913285279601     0.528757654397951    56.9266752564139     0.838144370195248    -31.9142498754984    0.838144370195248    -31.9142498754984    0.528757654397951    56.9266752564139     
415.126318284292     0.532762895617239    56.6623995771226     0.835615950045065    -32.1850257068032    0.835615950045065    -32.1850257068032    0.532762895617239    56.6623995771226     
419.382546891886     0.536777143500858    56.3966518931224     0.83305556868243     -32.4572208927959    0.83305556868243     -32.4572208927959    0.536777143500858    56.3966518931224     
423.682413980498     0.540799934788531    56.1294448820364     0.830463105907224    -32.7308229072581    0.830463105907224    -32.7308229072581    0.540799934788531    56.1294448820364     
428.026366969004     0.544830798379751    55.8607916619685     0.827838449866216    -33.0058187755706    0.827838449866216    -33.0058187755706    0.544830798379751    55.8607916619685     
432.414857863601     0.548869255487038    55.5907057914432     0.825181497267169    -33.2821950746346    0.825181497267169    -33.2821950746346    0.548869255487038    55.5907057914432     
436.848343304839     0.55291481979927     55.3192012689877     0.8224921535892      -33.5599379331477    0.8224921535892      -33.5599379331477    0.55291481979927     55.3192012689877     
441.327284615134     0.556966997654958    55.0462925323558     0.819770333289017    -33.8390330322311    0.819770333289017    -33.8390330322311    0.556966997654958    55.0462925323558     
445.852147846774     0.561025288225543    54.7719944573795     0.817015960002561    -34.1194656064221    0.817015960002561    -34.1194656064221    0.561025288225543    54.7719944573795     
450.423403830413     0.565089183708639    54.4963223564473     0.814228966741773    -34.4012204450343    0.814228966741773    -34.4012204450343    0.565089183708639    54.4963223564473     
455.041528224059     0.569158169531242    54.2192919765952     0.811409296085974    -34.6842818938977    0.811409296085974    -34.6842818938977    0.569158169531242    54.2192919765952     
459.707001562573     0.573231724562718    53.9409194972155     0.808556900367546    -34.9686338574745    0.808556900367546    -34.9686338574745    0.573231724562718    53.9409194972155     
464.420309307668     0.57730932133765     53.6612215273654     0.805671741851427    -35.2542598013682    0.805671741851427    -35.2542598013682    0.57730932133765     53.6612215273654     
469.181941898424     0.581390426288232    53.3802151026814     0.802753792908118    -35.5411427552172    0.802753792908118    -35.5411427552172    0.581390426288232    53.3802151026814     
473.992394802321     0.585474499986289    53.0979176818872     0.799803036179698    -35.8292653159897    0.799803036179698    -35.8292653159897    0.585474499986289    53.0979176818872     
478.852168566793     0.589560997394622    52.8143471428952     0.796819464738537    -36.1186096516757    0.796819464738537    -36.1186096516757    0.589560997394622    52.8143471428952     
483.761768871313     0.593649368127555    52.5295217784987     0.793803082238284    -36.4091575053791    0.793803082238284    -36.4091575053791    0.593649368127555    52.5295217784987     
488.721706580009     0.597739056720542    52.2434602916474     0.79075390305675     -36.7008901998197    0.79075390305675     -36.7008901998197    0.597739056720542    52.2434602916474     
493.732497794826     0.601829502908509    51.9561817903109     0.78767195243025     -36.9937886422346    0.78767195243025     -36.9937886422346    0.601829502908509    51.9561817903109     
498.794663909224     0.605920141912796    51.667705781925      0.7845572665792      -37.2878333296925    0.7845572665792      -37.2878333296925    0.605920141912796    51.667705781925      
503.908731662432     0.610010404736382    51.3780521674186     0.781409892824359    -37.5830043548116    0.781409892824359    -37.5830043548116    0.610010404736382    51.3780521674186     
509.075233194261     0.614099718467152    51.0872412348242     0.778229889693602    -37.8792814118884    0.778229889693602    -37.8792814118884    0.614099718467152    51.0872412348242     
514.294706100471     0.61818750658886     50.795293652472      0.775017327018741    -38.1766438034296    0.775017327018741    -38.1766438034296    0.61818750658886     50.795293652472      
519.56769348871      0.622273189299507    50.5022304617674     0.771772286022079    -38.4750704470907    0.771772286022079    -38.4750704470907    0.622273189299507    50.5022304617674     
524.894744035031     0.62635618383676     50.2080730695561     0.76849485939247     -38.7745398830143    0.76849485939247     -38.7745398830143    0.62635618383676     50.2080730695561     
530.27641204098      0.630435904810086    49.9128432400772     0.765185151350466    -39.0750302815698    0.765185151350466    -39.0750302815698    0.630435904810086    49.9128432400772     
535.713257491274     0.634511764539165    49.6165630865106     0.761843277702341    -39.3765194514845    0.761843277702341    -39.3765194514845    0.634511764539165    49.6165630865106     
541.205846112072     0.638583173398246    49.3192550621205     0.758469365882713    -39.678984848368     0.758469365882713    -39.678984848368     0.638583173398246    49.3192550621205     
546.754749429838     0.642649540165963    49.0209419510015     0.755063554985495    -39.9824035836176    0.755063554985495    -39.9824035836176    0.642649540165963    49.0209419510015     
552.360544830812     0.646710272380198    48.7216468584342     0.751625995782942    -40.286752433702     0.751625995782942    -40.286752433702     0.646710272380198    48.7216468584342     
558.023815621091     0.650764776697579    48.4213932008524     0.74815685073265     -40.5920078498185    0.74815685073265     -40.5920078498185    0.650764776697579    48.4213932008524     
563.745151087321     0.654812459257042    48.1202046954365     0.74465629397215     -40.8981459679071    0.74465629397215     -40.8981459679071    0.654812459257042    48.1202046954365     
569.525146558018     0.658852726047102    47.8181053493315     0.741124511301157    -41.2051426190263    0.741124511301157    -41.2051426190263    0.658852726047102    47.8181053493315     
575.364403465514     0.662884983276182    47.5151194485109     0.73756170015114     -41.5129733400638    0.73756170015114     -41.5129733400638    0.662884983276182    47.5151194485109     
581.263529408535     0.66690863774565     47.2112715462824     0.733968069542137    -41.8216133847904    0.733968069542137    -41.8216133847904    0.66690863774565     47.2112715462824     
587.223138215427     0.67092309722488     46.9065864514584     0.730343840026808    -42.1310377352291    0.730343840026808    -42.1310377352291    0.67092309722488     46.9065864514584     
593.243850008029     0.674927770827941    46.6010892161913     0.726689243621502    -42.4412211133409    0.726689243621502    -42.4412211133409    0.674927770827941    46.6010892161913     
599.326291266198     0.678922069391284    46.2948051234926     0.723004523724392    -42.7521379930079    0.723004523724392    -42.7521379930079    0.678922069391284    46.2948051234926     
605.471094892991     0.682905405851868    45.9877596744482     0.71928993502063     -43.0637626122975    0.71928993502063     -43.0637626122975    0.682905405851868    45.9877596744482     
611.678900280532     0.686877195625239    45.6799785751374     0.715545743374491    -43.3760689860041    0.715545743374491    -43.3760689860041    0.686877195625239    45.6799785751374     
617.950353376533     0.690836856982956    45.371487723272      0.711772225708589    -43.6890309184453    0.711772225708589    -43.6890309184453    0.690836856982956    45.371487723272      
624.286106751517     0.694783811428729    45.062313194576      0.707969669870151    -44.002622016496     0.707969669870151    -44.002622016496     0.694783811428729    45.062313194576      
630.686819666713     0.698717484072847    44.752481228908      0.704138374484498    -44.3168157028542    0.704138374484498    -44.3168157028542    0.698717484072847    44.752481228908      
637.153158142656     0.702637304004159    44.4420182161556     0.700278648795794    -44.6315852295086    0.700278648795794    -44.6315852295086    0.702637304004159    44.4420182161556     
643.685795028493     0.706542704659195    44.1309506819053     0.696390812495212    -44.9469036914057    0.696390812495212    -44.9469036914057    0.706542704659195    44.1309506819053     
650.285410071995     0.71043312418771     43.8193052729142     0.69247519553668     -45.2627440402837    0.69247519553668     -45.2627440402837    0.71043312418771     43.8193052729142     
656.952689990283     0.714308005814195    43.5071087423952     0.688532137940412    -45.5790790986674    0.688532137940412    -45.5790790986674    0.714308005814195    43.5071087423952     
663.688328541288     0.718166798194749    43.1943879351337     0.684561989584368    -45.8958815739971    0.684561989584368    -45.8958815739971    0.718166798194749    43.1943879351337     
670.493026595941     0.722008955768741    42.8811697724542     0.680565109984019    -46.213124072877     0.680565109984019    -46.213124072877     0.722008955768741    42.8811697724542     
677.367492211094     0.725833939104764    42.5674812370565     0.676541868060522    -46.5307791154208    0.676541868060522    -46.5307791154208    0.725833939104764    42.5674812370565     
684.312440703203     0.729641215240304    42.2533493577355     0.672492641897692    -46.8488191496764    0.672492641897692    -46.8488191496764    0.729641215240304    42.2533493577355     
691.328594722758     0.733430258014625    41.9388011940066     0.6684178184881      -47.1672165661094    0.6684178184881      -47.1672165661094    0.733430258014625    41.9388011940066     
698.41668432948      0.737200548394339    41.6238638206557     0.664317793468559    -47.4859437121224    0.664317793468559    -47.4859437121224    0.737200548394339    41.6238638206557     
705.577447068277     0.740951574791169    41.3085643122311     0.660192970845413    -47.8049729065917    0.660192970845413    -47.8049729065917    0.740951574791169    41.3085643122311     
712.811628046004     0.744682833371412    40.9929297274982     0.656043762710009    -48.1242764543983    0.656043762710009    -48.1242764543983    0.744682833371412    40.9929297274982     
720.119980008977     0.748393828356674    40.6769870938735     0.651870588944744    -48.4438266609347    0.651870588944744    -48.4438266609347    0.748393828356674    40.6769870938735     
727.503263421318     0.752084072315355    40.3607633918616     0.647673876920092    -48.7635958465618    0.647673876920092    -48.7635958465618    0.752084072315355    40.3607633918616     
734.962246544069     0.755753086444543    40.0442855395087     0.643454061183114    -49.0835563609987    0.643454061183114    -49.0835563609987    0.755753086444543    40.0442855395087     
742.49770551514      0.759400400841828    39.7275803768983     0.639211583137819    -49.4036805976204    0.639211583137819    -49.4036805976204    0.759400400841828    39.7275803768983     
750.110424430066     0.763025554766688    39.4106746507023     0.634946890717942    -49.7239410076432    0.634946890717942    -49.7239410076432    0.763025554766688    39.4106746507023     
757.801195423602     0.766628096891064    39.0935949988121     0.630660438052586    -50.0443101141742    0.630660438052586    -50.0443101141742    0.766628096891064    39.0935949988121     
765.57081875214      0.770207585538797    38.7763679350632     0.626352685125228    -50.3647605261061    0.626352685125228    -50.3647605261061    0.770207585538797    38.7763679350632     
773.42010287698      0.773763588913607    38.4590198340742     0.622024097426613    -50.6852649518349    0.622024097426613    -50.6852649518349    0.773763588913607    38.4590198340742     
781.34986454846      0.777295685315253    38.1415769162228     0.617675145602097    -51.0057962127729    0.617675145602097    -51.0057962127729    0.777295685315253    38.1415769162228     
789.360928890938     0.780803463343727    37.8240652327675     0.613306305093904    -51.3263272566467    0.613306305093904    -51.3263272566467    0.780803463343727    37.8240652327675     
797.454129488647     0.784286522091112    37.5065106511418     0.608918055778953    -51.6468311705478    0.608918055778953    -51.6468311705478    0.784286522091112    37.5065106511418     
805.630308472437     0.787744471320962    37.1889388404333     0.604510881602661    -51.9672811937212    0.604510881602661    -51.9672811937212    0.787744471320962    37.1889388404333     
813.890316607399     0.791176931634987    36.8713752570654     0.600085270209428    -52.2876507300684    0.600085270209428    -52.2876507300684    0.791176931634987    36.8713752570654     
822.235013381397     0.794583534626883    36.5538451306983     0.59564171257026     -52.6079133603455    0.59564171257026     -52.6079133603455    0.794583534626883    36.5538451306983     
830.665267094492     0.797963923023122    36.2363734503695     0.591180702608176    -52.92804285403      0.591180702608176    -52.92804285403      0.797963923023122    36.2363734503695     
839.181954949301     0.801317750810718    35.9189849508761     0.586702736821853    -53.2480131808498    0.586702736821853    -53.2480131808498    0.801317750810718    35.9189849508761     
847.785963142262     0.804644683351695    35.6017040994339     0.582208313908207    -53.5677985219333    0.582208313908207    -53.5677985219333    0.804644683351695    35.6017040994339     
856.478186955863     0.80794439748439     35.2845550826077     0.577697934384351    -53.8873732805822    0.577697934384351    -53.8873732805822    0.80794439748439     35.2845550826077     
865.259530851785     0.811216581611413    34.9675617935407     0.573172100209587    -54.2067120926306    0.573172100209587    -54.2067120926306    0.811216581611413    34.9675617935407     
874.130908565021     0.814460935774358    34.6507478194879     0.568631314407903    -54.5257898363817    0.568631314407903    -54.5257898363817    0.814460935774358    34.6507478194879     
883.093243198955     0.817677171715225    34.3341364296707     0.564076080691567    -54.8445816420962    0.564076080691567    -54.8445816420962    0.817677171715225    34.3341364296707     
892.147467321414     0.820865012924643    34.0177505634603     0.559506903086345    -55.1630629010179    0.559506903086345    -55.1630629010179    0.820865012924643    34.0177505634603     
901.294523061701     0.824024194676936    33.7016128189052     0.554924285558872    -55.4812092739145    0.554924285558872    -55.4812092739145    0.824024194676936    33.7016128189052     
910.535362208632     0.827154464052156    33.38574544161       0.5503287316467      -55.7989966991172    0.5503287316467      -55.7989966991172    0.827154464052156    33.38574544161       
919.870946309578     0.830255579945186    33.0701703139754     0.545720744091517    -56.1164014000397    0.545720744091517    -56.1164014000397    0.830255579945186    33.0701703139754     
929.302246770506     0.833327313062063    32.7549089448112     0.541100824476043    -56.4333998921573    0.541100824476043    -56.4333998921573    0.833327313062063    32.7549089448112     
938.830244957067     0.836369445903712    32.4399824593253     0.536469472865085    -56.7499689894319    0.536469472865085    -56.7499689894319    0.836369445903712    32.4399824593253     
948.455932296709     0.839381772737236    32.1254115895014     0.531827187451196    -57.0660858101581    0.531827187451196    -57.0660858101581    0.839381772737236    32.1254115895014     
958.180310381838     0.842364099555012    31.8112166648687     0.527174464205439    -57.3817277822192    0.527174464205439    -57.3817277822192    0.842364099555012    31.8112166648687     
968.004391074038     0.845316244021813    31.4974176036713     0.522511796533631    -57.6968726477295    0.522511796533631    -57.6968726477295    0.845316244021813    31.4974176036713     
977.929196609362     0.848238035410219    31.1840339044372     0.517839674938503    -58.0114984670507    0.517839674938503    -58.0114984670507    0.848238035410219    31.1840339044372     
987.955759704694     0.851129314524524    30.8710846379632     0.513158586688216    -58.3255836221548    0.513158586688216    -58.3255836221548    0.851129314524524    30.8710846379632     
998.085123665216     0.853989933613521    30.5585884397057     0.50846901549156     -58.6391068193235    0.50846901549156     -58.6391068193235    0.853989933613521    30.5585884397057     
1008.31834249296     0.856819756272388    30.2465635025881     0.503771441180199    -58.9520470911613    0.503771441180199    -58.9520470911613    0.856819756272388    30.2465635025881     
1018.65648099648     0.859618657334028    29.9350275702251     0.499066339398371    -59.2643837979025    0.499066339398371    -59.2643837979025    0.859618657334028    29.9350275702251     
1029.10061490167     0.862386522750172    29.6239979305663     0.49435418130026     -59.5760966279919    0.49435418130026     -59.5760966279919    0.862386522750172    29.6239979305663     
1039.65183096366     0.865123249462614    29.313491409957      0.489635433255438    -59.8871655979198    0.489635433255438    -59.8871655979198    0.865123249462614    29.313491409957      
1050.31122707995     0.867828745264886    29.0035243676211     0.484910556562597    -60.1975710512873    0.484910556562597    -60.1975710512873    0.867828745264886    29.0035243676211     
1061.07991240457     0.870502928654791    28.6941126905588     0.480180007171859    -60.5072936570826    0.480180007171859    -60.5072936570826    0.870502928654791    28.6941126905588     
1071.9590074636      0.873145728678119    28.385271788865      0.475444235415891    -60.8163144071408    0.475444235415891    -60.8163144071408    0.873145728678119    28.385271788865      
1082.94964427168     0.875757084763947    28.077016591462      0.470703685750032    -61.1246146127637    0.470703685750032    -61.1246146127637    0.875757084763947    28.077016591462      
1094.05296644981     0.878336946551923    27.7693615422426     0.465958796501677    -61.4321759004758    0.465958796501677    -61.4321759004758    0.878336946551923    27.7693615422426     
1105.2701293444      0.880885273711878    27.4623205966273     0.461209999629015    -61.738980206882     0.461209999629015    -61.738980206882     0.880885273711878    27.4623205966273     
1116.60230014745     0.883402035756222    27.1559072185237     0.456457720489347    -62.0450097726027    0.456457720489347    -62.0450097726027    0.883402035756222    27.1559072185237     
1128.05065801797     0.885887211845477    26.8501343776896     0.451702377617093    -62.3502471352506    0.451702377617093    -62.3502471352506    0.885887211845477    26.8501343776896     
1139.61639420477     0.888340790587382    26.5450145474915     0.446944382511576    -62.6546751214158    0.446944382511576    -62.6546751214158    0.888340790587382    26.5450145474915     
1151.30071217031     0.890762769829933    26.2405597030566     0.442184139434742    -62.9582768376206    0.442184139434742    -62.9582768376206    0.890762769829933    26.2405597030566     
1163.104827716       0.893153156448814    25.9367813198088     0.437422045218783    -63.2610356602031    0.437422045218783    -63.2610356602031    0.893153156448814    25.9367813198088     
1175.02996910866     0.89551196612957     25.633690372385      0.432658489083867    -63.5629352240879    0.432658489083867    -63.5629352240879    0.89551196612957     25.633690372385      
1187.07737720837     0.89783922314495     25.3312973339256     0.427893852465868    -63.8639594103901    0.427893852465868    -63.8639594103901    0.89783922314495     25.3312973339256     
1199.24830559755     0.900134960127826    25.0296121757277     0.423128508854185    -64.1640923328088    0.423128508854185    -64.1640923328088    0.900134960127826    25.0296121757277     
1211.54402071142     0.902399217840048    24.7286443672598     0.41836282363967     -64.4633183227444    0.41836282363967     -64.4633183227444    0.902399217840048    24.7286443672598     
1223.96580196978     0.904632044937652    24.4284028765272     0.413597153972598    -64.7616219130809    0.413597153972598    -64.7616219130809    0.904632044937652    24.4284028765272     
1236.5149419101      0.906833497732818    24.1288961707768     0.408831848630668    -65.0589878205684    0.408831848630668    -65.0589878205684    0.906833497732818    24.1288961707768     
1249.19274632208     0.909003639952906    23.8301322175409     0.404067247896996    -65.3554009267221    0.404067247896996    -65.3554009267221    0.909003639952906    23.8301322175409     
1262.00053438349     0.911142542496999    23.5321184860025     0.399303683448038    -65.6508462571641    0.399303683448038    -65.6508462571641    0.911142542496999    23.5321184860025     
1274.9396387974      0.913250283190286    23.23486194868       0.394541478251332    -65.9453089593127    0.394541478251332    -65.9453089593127    0.913250283190286    23.23486194868       
1288.01140593091     0.915326946536646    22.9383690834193     0.38978094647302     -66.2387742783203    0.38978094647302     -66.2387742783203    0.915326946536646    22.9383690834193     
1301.21719595523     0.917372623469792    22.6426458756837     0.385022393395009    -66.5312275311524    0.385022393395009    -66.5312275311524    0.917372623469792    22.6426458756837     
1314.55838298719     0.919387411103309    22.3476978211329     0.380266115341669    -66.8226540786848    0.380266115341669    -66.8226540786848    0.919387411103309    22.3476978211329     
1328.03635523223     0.921371412479908    22.0535299284835     0.37551239961594     -67.1130392956869    0.37551239961594     -67.1130392956869    0.921371412479908    22.0535299284835     
1341.65251512888     0.92332473632024     21.7601467226369     0.370761524444718    -67.4023685385457    0.370761524444718    -67.4023685385457    0.92332473632024     21.7601467226369     
1355.40827949464     0.925247496771551    21.4675522480699     0.366013758933366    -67.6906271105643    0.366013758933366    -67.6906271105643    0.925247496771551    21.4675522480699     
1369.30507967343     0.927139813156511    21.1757500724746     0.361269363029192    -67.9778002246604    0.361269363029192    -67.9778002246604    0.927139813156511    21.1757500724746     
1383.34436168455     0.929001809722477    20.8847432906388     0.356528587493756    -68.2638729632654    0.356528587493756    -68.2638729632654    0.929001809722477    20.8847432906388     
1397.5275863731      0.930833615391487    20.5945345285591     0.351791673883803    -68.5488302351993    0.351791673883803    -68.5488302351993    0.930833615391487    20.5945345285591     
1411.85622956201     0.932635363511251    20.3051259477733     0.347058854540683    -68.8326567292868    0.347058854540683    -68.8326567292868    0.932635363511251    20.3051259477733     
1426.33178220562     0.93440719160739     20.0165192499049     0.342330352588031    -69.1153368644369    0.342330352588031    -69.1153368644369    0.93440719160739     20.0165192499049     
1440.95575054479     0.936149241137166    19.7287156814107     0.337606381937607    -69.3968547358897    0.337606381937607    -69.3968547358897    0.936149241137166    19.7287156814107     
1455.72965626364     0.937861657244955    19.4417160385174     0.332887147302985    -69.677194057297     0.332887147302985    -69.677194057297     0.937861657244955    19.4417160385174     
1470.65503664791     0.939544588519652    19.155520672345      0.328172844221042    -69.9563380982631    0.328172844221042    -69.9563380982631    0.939544588519652    19.155520672345      
1485.73344474488     0.941198186754259    18.8701294941982     0.323463659080926    -70.2342696169363    0.323463659080926    -70.2342696169363    0.941198186754259    18.8701294941982     
1500.96644952502     0.942822606707821    18.5855419810267     0.318759769160434    -70.510970787186     0.318759769160434    -70.510970787186     0.942822606707821    18.5855419810267     
1516.35563604518     0.944418005869915    18.3017571810353     0.314061342669493    -70.7864231198538    0.314061342669493    -70.7864231198538    0.944418005869915    18.3017571810353     
1531.90260561362     0.945984544227865    18.0187737194438     0.30936853880065     -71.0606073775003    0.30936853880065     -71.0606073775003    0.945984544227865    18.0187737194438     
1547.60897595653     0.947522384036858    17.7365898043793     0.304681507786338    -71.3335034820055    0.304681507786338    -71.3335034820055    0.947522384036858    17.7365898043793     
1563.47638138642     0.949031689593083    17.4552032328997     0.300000390962732    -71.6050904142983    0.300000390962732    -71.6050904142983    0.949031689593083    17.4552032328997     
1579.50647297218     0.950512627010084    17.1746113971343     0.295325320840057    -71.8753461054049    0.295325320840057    -71.8753461054049    0.950512627010084    17.1746113971343     
1595.70091871084     0.951965363998422    16.8948112905364     0.290656421179131    -72.1442473179038    0.290656421179131    -72.1442473179038    0.951965363998422    16.8948112905364     
1612.06140370117     0.953390069648781    16.6157995142384     0.285993807074015    -72.4117695167599    0.285993807074015    -72.4117695167599    0.953390069648781    16.6157995142384     
1628.58963031901     0.954786914218635    16.3375722835013     0.281337585040595    -72.6778867283802    0.281337585040595    -72.6778867283802    0.954786914218635    16.3375722835013     
1645.2873183944      0.95615606892257     16.0601254342519     0.276687853110965    -72.9425713865806    0.276687853110965    -72.9425713865806    0.95615606892257     16.0601254342519     
1662.15620539054     0.957497705726364    15.7834544296986     0.272044700933465    -73.2057941639842    0.272044700933465    -73.2057941639842    0.957497705726364    15.7834544296986     
1679.1980465846      0.958811997144883    15.5075543670213     0.26740820987829     -73.4675237871692    0.26740820987829     -73.4675237871692    0.958811997144883    15.5075543670213     
1696.41461525032     0.960099116043908    15.2324199841244     0.262778453148516    -73.7277268336598    0.262778453148516    -73.7277268336598    0.960099116043908    15.2324199841244     
1713.80770284258     0.961359235445917    14.9580456664506     0.258155495896524    -73.9863675085881    0.258155495896524    -73.9863675085881    0.961359235445917    14.9580456664506     
1731.37911918376     0.962592528339898    14.6844254538438     0.25353939534569     -74.2434073985485    0.25353939534569     -74.2434073985485    0.962592528339898    14.6844254538438     
1749.13069265209     0.963799167495253    14.4115530474604     0.248930200917389    -74.4988051998143    0.248930200917389    -74.4988051998143    0.963799167495253    14.4115530474604     
1767.06427037189     0.964979325279799    14.1394218167191     0.244327954363224    -74.7525164176713    0.244327954363224    -74.7525164176713    0.964979325279799    14.1394218167191     
1785.18171840578     0.966133173481929    13.8680248062845     0.239732689902575    -75.0044930331482    0.239732689902575    -75.0044930331482    0.966133173481929    13.8680248062845     
1803.48492194883     0.967260883136955    13.5973547430784     0.235144434365458    -75.2546831328543    0.235144434365458    -75.2546831328543    0.967260883136955    13.5973547430784     
1821.97578552474     0.968362624357632    13.3274040433159     0.23056320734089     -75.5030304969834    0.23056320734089     -75.5030304969834    0.968362624357632    13.3274040433159     
1840.65623318401     0.969438566168899    13.0581648195577     0.225989021330834    -75.749474139765     0.225989021330834    -75.749474139765     0.969438566168899    13.0581648195577     
1859.52820870414     0.970488876346827    12.7896288877759     0.221421881909978    -75.9939477957319    0.221421881909978    -75.9939477957319    0.970488876346827    12.7896288877759     
1878.59367579191     0.971513721261781    12.5217877744305     0.216861787891654    -76.2363793440915    0.216861787891654    -76.2363793440915    0.971513721261781    12.5217877744305     
1897.85461828767     0.972513265725791    12.2546327235474     0.212308731500206    -76.4766901622112    0.212308731500206    -76.4766901622112    0.972513265725791    12.2546327235474     
1917.31304037181     0.97348767284412     11.9881547037984     0.207762698550331    -76.7147943976942    0.207762698550331    -76.7147943976942    0.97348767284412     11.9881547037984     
1936.97096677328     0.974437103871004    11.7223444155791     0.203223668633917    -76.9505981467043    0.203223668633917    -76.9505981467043    0.974437103871004    11.7223444155791     
1956.83044298027     0.975361718069574    11.4571922980771     0.198691615315112    -77.1839985240113    0.198691615315112    -77.1839985240113    0.975361718069574    11.4571922980771     
1976.89353545305     0.976261672575894    11.1926885363325     0.194166506334507    -77.4148826075904    0.194166506334507    -77.4148826075904    0.976261672575894    11.1926885363325     
1997.16233183903     0.977137122267124    10.928823068284      0.189648303823445    -77.6431262374361    0.189648303823445    -77.6431262374361    0.977137122267124    10.928823068284      
2017.63894118992     0.977988219633752    10.6655855918001     0.185136964529822    -77.8685926443862    0.185136964529822    -77.8685926443862    0.977988219633752    10.6655855918001     
2038.32549418127     0.97881511465588     10.4029655716906     0.180632440056901    -78.0911308800515    0.180632440056901    -78.0911308800515    0.97881511465588     10.4029655716906     
2059.22414333408     0.979617954683505    10.1409522466983     0.176134677117102    -78.3105740131936    0.176134677117102    -78.3105740131936    0.979617954683505    10.1409522466983     
2080.33706323887     0.980396884320783    9.8795346364664      0.171643617803073    -78.5267370508153    0.171643617803073    -78.5267370508153    0.980396884320783    9.8795346364664      
2101.66645078191     0.981152045314198    9.61870154848342     0.167159199878986    -78.7394145334865    0.167159199878986    -78.7394145334865    0.981152045314198    9.61870154848342     
2123.21452537378     0.981883576444626    9.35844158499837     0.162681357095481    -78.9483777435781    0.162681357095481    -78.9483777435781    0.981883576444626    9.35844158499837     
2144.98352918039     0.982591613423226    9.09874314991097     0.15821001953266     -79.1533714515147    0.15821001953266     -79.1533714515147    0.982591613423226    9.09874314991097     
2166.97572735624     0.983276288791126    8.83959445563023     0.153745113976416    -79.3541101081511    0.153745113976416    -79.3541101081511    0.983276288791126    8.83959445563023     
2189.19340828009     0.983937731822834    8.58098352990388     0.149286564334722    -79.5502733698842    0.149286564334722    -79.5502733698842    0.983937731822834    8.58098352990388     
2211.63888379316     0.984576068433348    8.32289822261592     0.144834292102111    -79.7415008158075    0.144834292102111    -79.7415008158075    0.984576068433348    8.32289822261592     
2234.31448943959     0.985191421088897    8.06532621255315     0.140388216882647    -79.927385681288     0.140388216882647    -79.927385681288     0.985191421088897    8.06532621255315     
2257.22258470953     0.985783908721278    7.80825501413759     0.135948256984332    -80.107467387363     0.135948256984332    -80.107467387363     0.985783908721278    7.80825501413759     
2280.36555328462     0.986353646645716    7.55167198412712     0.131514330101405    -80.2812225869846    0.131514330101405    -80.2812225869846    0.986353646645716    7.55167198412712     
2303.74580328606     0.986900746482216    7.29556432828332     0.127086354105471    -80.4480543728293    0.127086354105471    -80.4480543728293    0.986900746482216    7.29556432828332     
2327.36576752513     0.98742531608035     7.03991910800502     0.122664247972358    -80.6072791907884    0.122664247972358    -80.6072791907884    0.98742531608035     7.03991910800502     
2351.22790375638     0.987927459447426    6.78472324693016     0.118247932879595    -80.7581108694594    0.118247932879595    -80.7581108694594    0.987927459447426    6.78472324693016     
2375.33469493335     0.988407276679977    6.52996353750453     0.113837333519988    -80.8996409963728    0.113837333519988    -80.8996409963728    0.988407276679977    6.52996353750453     
2399.68864946693     0.98886486389856     6.27562664751766     0.109432379691297    -81.0308146282202    0.109432379691297    -81.0308146282202    0.98886486389856     6.27562664751766     
2424.29230148637     0.989300313185759    6.02169912660808     0.105033008241801    -81.1503999887401    0.105033008241801    -81.1503999887401    0.989300313185759    6.02169912660808     
2449.148211103       0.989713712527399    5.76816741273697     0.100639165479078    -81.2569503455921    0.100639165479078    -81.2569503455921    0.989713712527399    5.76816741273697     
2474.25896467656     0.990105145756889    5.51501783863242     0.096250810187918    -81.3487556089044    0.096250810187918    -81.3487556089044    0.990105145756889    5.51501783863242     
2499.62717508436     0.990474692502665    5.2622366382028      0.091867917458277    -81.4237802720873    0.091867917458277    -81.4237802720873    0.990474692502665    5.2622366382028      
2525.25548199317     0.990822428138684    5.00980995292472     0.087490483603586    -81.4795829858366    0.087490483603586    -81.4795829858366    0.990822428138684    5.00980995292472     
2551.14655213386     0.991148423737937    4.75772383820086     0.083118532566048    -81.5132111090164    0.083118532566048    -81.5132111090164    0.991148423737937    4.75772383820086     
2577.3030795789      0.991452746028921    4.50596426969508     0.078752124379332    -81.5210606801385    0.078752124379332    -81.5210606801385    0.991452746028921    4.50596426969508     
2603.72778602267     0.991735457355061    4.25451714964116     0.07439136652295     -81.4986878543677    0.07439136652295     -81.4986878543677    0.991735457355061    4.25451714964116     
2630.42342106469     0.991996615637011    4.00336831312936     0.070036429412043    -81.4405510432878    0.070036429412043    -81.4405510432878    0.991996615637011    4.00336831312936     
2657.39276249574     0.992236274337842    3.75250353437188     0.06568756791597     -81.3396522234074    0.06568756791597     -81.3396522234074    0.992236274337842    3.75250353437188     
2684.63861658684     0.992454482431041    3.50190853294841     0.061345151855633    -81.1870284154373    0.061345151855633    -81.1870284154373    0.992454482431041    3.50190853294841     
2712.16381838131     0.992651284371326    3.25156898003334     0.057009710196718    -80.9710152426687    0.057009710196718    -80.9710152426687    0.992651284371326    3.25156898003334     
2739.97123198974     0.99282672006824     3.00147050460719     0.052681996704849    -80.6761545186948    0.052681996704849    -80.6761545186948    0.99282672006824     3.00147050460719     
2768.06375088804     0.992980824862487    2.75159869965274     0.048363090276722    -80.2815290638137    0.048363090276722    -80.2815290638137    0.992980824862487    2.75159869965274     
2796.44429821847     0.993113629505006    2.50193912834018     0.044054553292615    -79.758144115879     0.044054553292615    -79.758144115879     0.993113629505006    2.50193912834018     
2825.11582709386     0.993225160138752    2.25247733019957     0.039758691055706    -79.0646587986651    0.039758691055706    -79.0646587986651    0.993225160138752    2.25247733019957     
2854.08132090485     0.993315438283181    2.00319882728563     0.035478995846453    -78.1401309367424    0.035478995846453    -78.1401309367424    0.993315438283181    2.00319882728563     
2883.34379363036     0.9933844808214      1.75408913033584     0.031220947404448    -76.8910651955956    0.031220947404448    -76.8910651955956    0.9933844808214      1.75408913033584     
2912.90629015118     0.993432299989999    1.50513374492333     0.026993548699078    -75.1669104661376    0.026993548699078    -75.1669104661376    0.993432299989999    1.50513374492333     
2942.77188656681     0.993458903371536    1.25631817760749     0.022812504697081    -72.7104086555032    0.022812504697081    -72.7104086555032    0.993458903371536    1.25631817760749     
2972.94369051553     0.993464293889683    1.00762794208338     0.018707445278781    -69.0485983660045    0.018707445278781    -69.0485983660045    0.993464293889683    1.00762794208338     
3003.42484149781     0.99344846980702     0.759048565333266    0.014740316330659    -63.232091009351     0.014740316330659    -63.232091009351     0.99344846980702     0.759048565333266    
3034.21851120291     0.993411424725481    0.510565593780873    0.011058591599592    -53.1763176320871    0.011058591599592    -53.1763176320871    0.993411424725481    0.510565593780873    
3065.32790383899     0.993353147589454    0.262164599452207    0.008060886363267    -34.3231188046858    0.008060886363267    -34.3231188046858    0.993353147589454    0.262164599452207    
3096.75625646645     0.993273622691542    0.01383118614291     0.006730678536151    -2.04155638299177    0.006730678536151    -2.04155638299177    0.993273622691542    0.01383118614291     
3128.5068393348      0.99317282968099     -0.234449004403924   0.007952334411532    30.7331166577667     0.007952334411532    30.7331166577667     0.99317282968099     -0.234449004403924   
3160.58295622295     0.993050743574796    -0.482690286308298   0.010898225814869    50.1422486677455     0.010898225814869    50.1422486677455     0.993050743574796    -0.482690286308298   
3192.98794478293     0.992907334771508    -0.730906923350106   0.014556225796587    60.4745550930205     0.014556225796587    60.4745550930205     0.992907334771508    -0.730906923350106   
3225.72517688726     0.992742569067728    -0.979113122750604   0.018508624874568    66.4254340638088     0.018508624874568    66.4254340638088     0.992742569067728    -0.979113122750604   
3258.79805897975     0.992556407677359    -1.22732302893498    0.022601460378967    70.1586901836865     0.022601460378967    70.1586901836865     0.992556407677359    -1.22732302893498    
3292.21003242998     0.992348807253584    -1.47555071727704    0.026770471440968    72.6565381074486     0.026770471440968    72.6565381074486     0.992348807253584    -1.47555071727704    
3325.96457389136     0.992119719913631    -1.72381018782029    0.030985081199883    74.4062090722354     0.030985081199883    74.4062090722354     0.992119719913631    -1.72381018782029    
3360.06519566294     0.991869093266333    -1.9721153589776     0.03522914491741     75.67174571578       0.03522914491741     75.67174571578       0.991869093266333    -1.9721153589776     
3394.51544605485     0.991596870442526    -2.22048006120466    0.039493431876649    76.6072049829446     0.039493431876649    76.6072049829446     0.991596870442526    -2.22048006120466    
3429.31890975749     0.991302990128302    -2.4689180306466     0.043772332372403    77.3080259875725     0.043772332372403    77.3080259875725     0.991302990128302    -2.4689180306466     
3464.47920821459     0.990987386601162    -2.71744290275695    0.048062272866928    77.8362936300432     0.048062272866928    77.8362936300432     0.990987386601162    -2.71744290275695    
3500.00000000001     0.99064998976911     -2.96606820588593    0.052360892524048    78.2340542490349     0.052360892524048    78.2340542490349     0.99064998976911     -2.96606820588593    
