# MHz S MA R 50      
!Freq                MagS11               AngS11               MagS21               AngS21               MagS12               AngS12               MagS22               AngS22               
1                    0.009260419649646    46.9090491157602     0.993696677857393    -0.38992976024012    0.993696677857393    -0.38992976024012    0.009260419649646    46.9090491157602     
1.0094134579211      0.009312318316124    47.1406205983765     0.993689194997622    -0.393597444523185   0.993689194997622    -0.393597444523185   0.009312318316124    47.1406205983765     
1.01891552903223     0.009364839943641    47.3718718173379     0.993681670930553    -0.397299611754175   0.993681670930553    -0.397299611754175   0.009364839943641    47.3718718173379     
1.02850704748993     0.009417990873761    47.6027867661134     0.99367410534715     -0.40103658588867    0.99367410534715     -0.40103658588867    0.009417990873761    47.6027867661134     
1.03818885530303     0.009471777493762    47.8333495445458     0.993666497934745    -0.404808693921337   0.993666497934745    -0.404808693921337   0.009471777493762    47.8333495445458     
1.04796180240658     0.009526206236973    48.0635443637257     0.993658848376961    -0.408616265914357   0.993658848376961    -0.408616265914357   0.009526206236973    48.0635443637257     
1.05782674673645     0.009581283583119    48.2933555507682     0.993651156353681    -0.412459635026119   0.993651156353681    -0.412459635026119   0.009581283583119    48.2933555507682     
1.06778455430467     0.00963701605867     48.5227675534953     0.993643421540938    -0.416339137540152   0.993643421540938    -0.416339137540152   0.00963701605867     48.5227675534953     
1.07783609927541     0.009693410237212    48.7517649450156     0.993635643610926    -0.42025511289438    0.993635643610926    -0.42025511289438    0.009693410237212    48.7517649450156     
1.08798226404179     0.00975047273981     48.9803324282026     0.99362782223186     -0.424207903710594   0.99362782223186     -0.424207903710594   0.00975047273981     48.9803324282026     
1.09822393930324     0.009808210235403    49.2084548400645     0.993619957067987    -0.428197855824227   0.993619957067987    -0.428197855824227   0.009808210235403    49.2084548400645     
1.10856202414382     0.009866629441185    49.4361171560065     0.993612047779428    -0.432225318314391   0.993612047779428    -0.432225318314391   0.009866629441185    49.4361171560065     
1.11899742611102     0.009925737123021    49.6633044939796     0.99360409402223     -0.436290643534216   0.99360409402223     -0.436290643534216   0.009925737123021    49.6633044939796     
1.12953106129554     0.009985540095849    49.890002118517      0.993596095448186    -0.440394187141432   0.993596095448186    -0.440394187141432   0.009985540095849    49.890002118517      
1.14016385441162     0.010046045224115    50.1161954446518     0.993588051704849    -0.444536308129275   0.993588051704849    -0.444536308129275   0.010046045224115    50.1161954446518     
1.15089673887828     0.010107259422196    50.3418700417172     0.993579962435394    -0.448717368857648   0.993579962435394    -0.448717368857648   0.010107259422196    50.3418700417172     
1.16173065690124     0.010169189654857    50.5670116370256     0.993571827278612    -0.452937735084583   0.993571827278612    -0.452937735084583   0.010169189654857    50.5670116370256     
1.17266655955563     0.010231842937696    50.7916061194247     0.993563645868795    -0.457197775998021   0.993563645868795    -0.457197775998021   0.010231842937696    50.7916061194247     
1.18370540686949     0.010295226337618    51.0156395427301     0.993555417835667    -0.461497864247822   0.993555417835667    -0.461497864247822   0.010295226337618    51.0156395427301     
1.19484816790803     0.010359346973304    51.2390981290304     0.99354714280433     -0.465838375978127   0.99354714280433     -0.465838375978127   0.010359346973304    51.2390981290304     
1.20609582085873     0.010424212015706    51.4619682718678     0.99353882039516     -0.470219690860013   0.99353882039516     -0.470219690860013   0.010424212015706    51.4619682718678     
1.2174493531172      0.010489828688538    51.6842365392876     0.993530450223765    -0.474642192124434   0.993530450223765    -0.474642192124434   0.010489828688538    51.6842365392876     
1.22890976137384     0.010556204268791    51.9058896767604     0.993522031900846    -0.479106266595453   0.993522031900846    -0.479106266595453   0.010556204268791    51.9058896767604     
1.24047805170136     0.010623346087245    52.1269146099723     0.993513565032205    -0.483612304723834   0.993513565032205    -0.483612304723834   0.010623346087245    52.1269146099723     
1.2521552396431      0.010691261529006    52.3472984474867     0.993505049218552    -0.488160700620879   0.993505049218552    -0.488160700620879   0.010691261529006    52.3472984474867     
1.26394235030216     0.010759958034043    52.5670284832722     0.993496484055538    -0.492751852092647   0.993496484055538    -0.492751852092647   0.010759958034043    52.5670284832722     
1.27584041843143     0.010829443097742    52.7860921990997     0.993487869133574    -0.497386160674415   0.993487869133574    -0.497386160674415   0.010829443097742    52.7860921990997     
1.28785048852437     0.010899724271463    53.0044772668079     0.993479204037804    -0.502064031665538   0.993479204037804    -0.502064031665538   0.010899724271463    53.0044772668079     
1.29997361490676     0.010970809163121    53.2221715504359     0.993470488347977    -0.506785874164529   0.993470488347977    -0.506785874164529   0.010970809163121    53.2221715504359     
1.31221086182922     0.011042705437764    53.4391631082245     0.993461721638395    -0.51155210110459    0.993461721638395    -0.51155210110459    0.011042705437764    53.4391631082245     
1.32456330356066     0.01111542081817     53.6554401944854     0.99345290347779     -0.51636312928936    0.99345290347779     -0.51636312928936    0.01111542081817     53.6554401944854     
1.33703202448256     0.011188963085452    53.870991261339      0.993444033429252    -0.521219379429062   0.993444033429252    -0.521219379429062   0.011188963085452    53.870991261339      
1.34961811918419     0.011263340079676    54.085804960321      0.993435111050129    -0.526121276176944   0.993435111050129    -0.526121276176944   0.011263340079676    54.085804960321      
1.36232269255868     0.011338559700484    54.2998701438593     0.993426135891903    -0.531069248166064   0.993426135891903    -0.531069248166064   0.011338559700484    54.2998701438593     
1.37514685990004     0.011414629907736    54.5131758666212     0.993417107500137    -0.536063728046443   0.993417107500137    -0.536063728046443   0.011414629907736    54.5131758666212     
1.38809174700104     0.011491558722155    54.7257113867319     0.99340802541435     -0.541105152522535   0.99340802541435     -0.541105152522535   0.011491558722155    54.7257113867319     
1.40115849025206     0.011569354225989    54.9374661668656     0.993398889167916    -0.546193962391034   0.993398889167916    -0.546193962391034   0.011569354225989    54.9374661668656     
1.41434823674084     0.011648024563676    55.1484298752105     0.993389698287956    -0.551330602579055   0.993389698287956    -0.551330602579055   0.011648024563676    55.1484298752105     
1.42766214435318     0.011727577942532    55.3585923863077     0.993380452295245    -0.556515522182643   0.993380452295245    -0.556515522182643   0.011727577942532    55.3585923863077     
1.44110138187459     0.011808022633432    55.5679437817679     0.993371150704101    -0.561749174505664   0.993371150704101    -0.561749174505664   0.011808022633432    55.5679437817679     
1.45466712909291     0.011889366971521    55.7764743508641     0.993361793022266    -0.567032017099024   0.993361793022266    -0.567032017099024   0.011889366971521    55.7764743508641     
1.46836057690183     0.011971619356919    55.9841745910058     0.993352378750793    -0.572364511800262   0.993352378750793    -0.572364511800262   0.011971619356919    55.9841745910058     
1.48218292740549     0.012054788255445    56.191035208092      0.993342907383949    -0.577747124773529   0.993342907383949    -0.577747124773529   0.012054788255445    56.191035208092      
1.496135394024       0.012138882199353    56.3970471167489     0.9933333784091      -0.583180326549897   0.9933333784091      -0.583180326549897   0.012138882199353    56.3970471167489     
1.51021920159991     0.012223909788069    56.6022014404498     0.993323791306556    -0.588664592068037   0.993323791306556    -0.588664592068037   0.012223909788069    56.6022014404498     
1.5244355865058      0.012309879688952    56.8064895115273     0.993314145549504    -0.594200400715362   0.993314145549504    -0.594200400715362   0.012309879688952    56.8064895115273     
1.5387857967528      0.012396800638049    57.0099028710656     0.993304440603837    -0.599788236369386   0.993304440603837    -0.599788236369386   0.012396800638049    57.0099028710656     
1.55327109210012     0.012484681440876    57.2124332686911     0.99329467592806     -0.605428587439607   0.99329467592806     -0.605428587439607   0.012484681440876    57.2124332686911     
1.56789274416566     0.012573530973199    57.414072662253      0.993284850973164    -0.611121946909712   0.993284850973164    -0.611121946909712   0.012573530973199    57.414072662253      
1.58265203653766     0.012663358181829    57.6148132173994     0.993274965182479    -0.616868812380186   0.993274965182479    -0.616868812380186   0.012663358181829    57.6148132173994     
1.59755026488735     0.012754172085425    57.8146473070504     0.99326501799156     -0.622669686111294   0.99326501799156     -0.622669686111294   0.012754172085425    57.8146473070504     
1.61258873708271     0.01284598177531     58.0135675107713     0.993255008828008    -0.628525075066424   0.993255008828008    -0.628525075066424   0.01284598177531     58.0135675107713     
1.62776877330328     0.012938796416293    58.2115666140507     0.993244937111424    -0.634435490955995   0.993244937111424    -0.634435490955995   0.012938796416293    58.2115666140507     
1.64309170615604     0.013032625247507    58.4086376074786     0.993234802253187    -0.640401450281502   0.993234802253187    -0.640401450281502   0.013032625247507    58.4086376074786     
1.65855888079245     0.01312747758325     58.6047736858372     0.99322460365633     -0.64642347438021    0.99322460365633     -0.64642347438021    0.01312747758325     58.6047736858372     
1.67417165502646     0.013223362813838    58.7999682470962     0.993214340715422    -0.652502089470084   0.993214340715422    -0.652502089470084   0.013223362813838    58.7999682470962     
1.68993139945374     0.013320290406474    58.9942148913247     0.993204012816415    -0.658637826695251   0.993204012816415    -0.658637826695251   0.013320290406474    58.9942148913247     
1.70583949757205     0.013418269906116    59.187507419516      0.993193619336471    -0.664831222171797   0.993193619336471    -0.664831222171797   0.013418269906116    59.187507419516      
1.72189734590259     0.013517310936361    59.379839832331      0.993183159643823    -0.671082817034038   0.993183159643823    -0.671082817034038   0.013517310936361    59.379839832331      
1.73810635411269     0.013617423200341    59.5712063287604     0.993172633097635    -0.677393157481149   0.993172633097635    -0.677393157481149   0.013617423200341    59.5712063287604     
1.75446794513953     0.013718616481622    59.7616013047118     0.993162039047826    -0.683762794824321   0.993162039047826    -0.683762794824321   0.013718616481622    59.7616013047118     
1.77098355531502     0.01382090064512     59.9510193515216     0.99315137683491     -0.690192285534227   0.99315137683491     -0.690192285534227   0.01382090064512     59.9510193515216     
1.78765463449193     0.013924285638016    60.1394552543921     0.993140645789841    -0.696682191289005   0.993140645789841    -0.696682191289005   0.013924285638016    60.1394552543921     
1.80448264617118     0.014028781490693    60.3269039907671     0.993129845233844    -0.703233079022679   0.993129845233844    -0.703233079022679   0.014028781490693    60.3269039907671     
1.82146906763026     0.014134398317673    60.513360728632      0.993118974478227    -0.709845520973947   0.993118974478227    -0.709845520973947   0.014134398317673    60.513360728632      
1.83861539005299     0.014241146318568    60.6988208247564     0.993108032824248    -0.716520094735527   0.993108032824248    -0.716520094735527   0.014241146318568    60.6988208247564     
1.85592311866033     0.014349035779039    60.8832798228734     0.993097019562906    -0.723257383303835   0.993097019562906    -0.723257383303835   0.014349035779039    60.8832798228734     
1.87339377284264     0.014458077071764    61.0667334518009     0.993085933974767    -0.730057975129214   0.993085933974767    -0.730057975129214   0.014458077071764    61.0667334518009     
1.89102888629294     0.014568280657416    61.2491776235059     0.993074775329782    -0.736922464166536   0.993074775329782    -0.736922464166536   0.014568280657416    61.2491776235059     
1.90883000714164     0.014679657085649    61.4306084311184     0.993063542887123    -0.743851449926363   0.993063542887123    -0.743851449926363   0.014679657085649    61.4306084311184     
1.9267986980924      0.014792216996095    61.6110221468912     0.99305223589495     -0.750845537526459   0.99305223589495     -0.750845537526459   0.014792216996095    61.6110221468912     
1.94493653655932     0.014905971119369    61.7904152201138     0.993040853590269    -0.757905337743841   0.993040853590269    -0.757905337743841   0.014905971119369    61.7904152201138     
1.96324511480543     0.015020930278083    61.9687842749818     0.993029395198688    -0.765031467067328   0.993029395198688    -0.765031467067328   0.015020930278083    61.9687842749818     
1.98172604008245     0.015137105387869    62.14612610842       0.993017859934261    -0.772224547750491   0.993017859934261    -0.772224547750491   0.015137105387869    62.14612610842       
2.00038093477192     0.015254507458415    62.3224376878686     0.993006246999233    -0.779485207865122   0.993006246999233    -0.779485207865122   0.015254507458415    62.3224376878686     
2.01921143652756     0.015373147594502    62.4977161490292     0.992994555583882    -0.786814081355186   0.992994555583882    -0.786814081355186   0.015373147594502    62.4977161490292     
2.03821919841911     0.015493036997057    62.6719587935758     0.992982784866297    -0.794211808091311   0.992982784866297    -0.794211808091311   0.015493036997057    62.6719587935758     
2.05740588907741     0.015614186964212    62.8451630868336     0.992970934012125    -0.801679033925636   0.992970934012125    -0.801679033925636   0.015614186964212    62.8451630868336     
2.07677319284086     0.015736608892375    63.0173266554247     0.992959002174399    -0.809216410747305   0.992959002174399    -0.809216410747305   0.015736608892375    63.0173266554247     
2.09632280990333     0.015860314277306    63.1884472848883     0.992946988493296    -0.816824596538423   0.992946988493296    -0.816824596538423   0.015860314277306    63.1884472848883     
2.1160564564634      0.015985314715201    63.3585229172714     0.992934892095891    -0.82450425543038    0.992934892095891    -0.82450425543038    0.015985314715201    63.3585229172714     
2.13597586487499     0.016111621903795    63.5275516486988     0.992922712095982    -0.832256057760963   0.992922712095982    -0.832256057760963   0.016111621903795    63.5275516486988     
2.15608278379947     0.01623924764346     63.6955317269179     0.99291044759377     -0.840080680131654   0.99291044759377     -0.840080680131654   0.01623924764346     63.6955317269179     
2.17637897835917     0.01636820383832     63.8624615488272     0.99289809767569     -0.847978805465748   0.99289809767569     -0.847978805465748   0.01636820383832     63.8624615488272     
2.19686623029232     0.016498502497377    64.0283396579843     0.992885661414159    -0.855951123066781   0.992885661414159    -0.855951123066781   0.016498502497377    64.0283396579843     
2.21754633810946     0.01663015573564     64.1931647420993     0.992873137867264    -0.863998328677547   0.992873137867264    -0.863998328677547   0.01663015573564     64.1931647420993     
2.23842111725134     0.016763175775265    64.3569356305162     0.992860526078597    -0.872121124539736   0.992860526078597    -0.872121124539736   0.016763175775265    64.3569356305162     
2.25949240024828     0.016897574946708    64.5196512916797     0.992847825076925    -0.880320219453951   0.992847825076925    -0.880320219453951   0.016897574946708    64.5196512916797     
2.28076203688106     0.01703336568988     64.681310830595      0.992835033875973    -0.888596328840417   0.992835033875973    -0.888596328840417   0.01703336568988     64.681310830595      
2.30223189434328     0.017170560555314    64.8419134862781     0.992822151474124    -0.896950174800093   0.992822151474124    -0.896950174800093   0.017170560555314    64.8419134862781     
2.3239038574053      0.017309172205347    65.0014586291998     0.992809176854168    -0.905382486176444   0.992809176854168    -0.905382486176444   0.017309172205347    65.0014586291998     
2.34577982857966     0.017449213415302    65.1599457587277     0.992796108983021    -0.913893998617746   0.992796108983021    -0.913893998617746   0.017449213415302    65.1599457587277     
2.36786172828816     0.01759069707468     65.3173745005613     0.992782946811438    -0.922485454639879   0.992782946811438    -0.922485454639879   0.01759069707468     65.3173745005613     
2.39015149503038     0.017733636188368    65.4737446041711     0.992769689273697    -0.931157603689735   0.992769689273697    -0.931157603689735   0.017733636188368    65.4737446041711     
2.4126510855539      0.017878043877852    65.6290559402342     0.992756335287364    -0.939911202209269   0.992756335287364    -0.939911202209269   0.017878043877852    65.6290559402342     
2.43536247502605     0.018023933382435    65.7833084980736     0.992742883752968    -0.948747013699945   0.992742883752968    -0.948747013699945   0.018023933382435    65.7833084980736     
2.45828765720733     0.018171318060473    65.9365023831014     0.99272933355365     -0.957665808787889   0.99272933355365     -0.957665808787889   0.018171318060473    65.9365023831014     
2.48142864462641     0.018320211390609    66.0886378142663     0.992715683554921    -0.966668365289603   0.992715683554921    -0.966668365289603   0.018320211390609    66.0886378142663     
2.50478746875681     0.018470626973028    66.2397151215086     0.992701932604333    -0.975755468278285   0.992701932604333    -0.975755468278285   0.018470626973028    66.2397151215086     
2.52836618019525     0.018622578530714    66.3897347432203     0.992688079531106    -0.984927910150601   0.992688079531106    -0.984927910150601   0.018622578530714    66.3897347432203     
2.55216684884165     0.018776079910716    66.5386972237176     0.992674123145871    -0.994186490694273   0.992674123145871    -0.994186490694273   0.018776079910716    66.5386972237176     
2.57619156408084     0.018931145085425    66.6866032107218     0.992660062240284    -1.00353201715608    0.992660062240284    -1.00353201715608    0.018931145085425    66.6866032107218     
2.60044243496601     0.019087788153865    66.8334534528509     0.992645895586695    -1.01296530431051    0.992645895586695    -1.01296530431051    0.019087788153865    66.8334534528509     
2.6249215904038      0.019246023342982    66.9792487971259     0.992631621937832    -1.02248717452917    0.992631621937832    -1.02248717452917    0.019246023342982    66.9792487971259     
2.64963117934125     0.019405865008954    67.1239901864882     0.992617240026432    -1.03209845785052    0.992617240026432    -1.03209845785052    0.019405865008954    67.1239901864882     
2.67457337095441     0.019567327638504    67.2676786573343     0.99260274856485     -1.04179999205051    0.99260274856485     -1.04179999205051    0.019567327638504    67.2676786573343     
2.69975035483878     0.019730425850223    67.4103153370639     0.992588146244736    -1.05159262271366    0.992588146244736    -1.05159262271366    0.019730425850223    67.4103153370639     
2.72516434120153     0.019895174395904    67.5519014416458     0.992573431736651    -1.06147720330485    0.992573431736651    -1.06147720330485    0.019895174395904    67.5519014416458     
2.75081756105551     0.020061588161888    67.692438273201      0.992558603689689    -1.07145459524171    0.992558603689689    -1.07145459524171    0.020061588161888    67.692438273201      
2.77671226641512     0.020229682170412    67.8319272176038     0.992543660731053    -1.08152566796764    0.992543660731053    -1.08152566796764    0.020229682170412    67.8319272176038     
2.80285073049402     0.020399471580974    67.970369742103      0.992528601465741    -1.09169129902556    0.992528601465741    -1.09169129902556    0.020399471580974    67.970369742103      
2.82923524790465     0.020570971691704    68.1077673929622     0.992513424476065    -1.10195237413217    0.992513424476065    -1.10195237413217    0.020570971691704    68.1077673929622     
2.85586813485969     0.020744197940748    68.24412179312       0.992498128321276    -1.11230978725292    0.992498128321276    -1.11230978725292    0.020744197940748    68.24412179312       
2.8827517293754      0.020919165907655    68.3794346398739     0.992482711537178    -1.12276444067773    0.992482711537178    -1.12276444067773    0.020919165907655    68.3794346398739     
2.90988839147685     0.021095891314785    68.5137077025833     0.992467172635645    -1.13331724509719    0.992467172635645    -1.13331724509719    0.021095891314785    68.5137077025833     
2.93728050340511     0.021274390028714    68.6469428203976     0.992451510104222    -1.14396911967961    0.992451510104222    -1.14396911967961    0.021274390028714    68.6469428203976     
2.96493046982638     0.021454678061659    68.7791419000051     0.992435722405696    -1.15472099214861    0.992435722405696    -1.15472099214861    0.021454678061659    68.7791419000051     
2.99284071804307     0.021636771572909    68.9103069134071     0.992419807977639    -1.16557379886144    0.992419807977639    -1.16557379886144    0.021636771572909    68.9103069134071     
3.02101369820692     0.021820686870266    69.040439895716      0.992403765231937    -1.17652848488801    0.992403765231937    -1.17652848488801    0.021820686870266    69.040439895716      
3.04945188353406     0.022006440411496    69.1695429429768     0.992387592554341    -1.18758600409055    0.992387592554341    -1.18758600409055    0.022006440411496    69.1695429429768     
3.07815777052212     0.022194048805791    69.297618210015      0.992371288304003    -1.19874731920396    0.992371288304003    -1.19874731920396    0.022194048805791    69.297618210015      
3.10713387916943     0.022383528815244    69.4246679083089     0.992354850812968    -1.21001340191693    0.992354850812968    -1.21001340191693    0.022383528815244    69.4246679083089     
3.13638275319622     0.022574897356326    69.5506943038878     0.992338278385715    -1.22138523295372    0.992338278385715    -1.22138523295372    0.022574897356326    69.5506943038878     
3.16590696026789     0.022768171501385    69.6756997152561     0.992321569298638    -1.23286380215657    0.992321569298638    -1.23286380215657    0.022768171501385    69.6756997152561     
3.19570909222048     0.022963368480144    69.7996865113449     0.992304721799547    -1.24445010856901    0.992304721799547    -1.24445010856901    0.022963368480144    69.7996865113449     
3.22579176528817     0.023160505681216    69.9226571094873     0.992287734107129    -1.25614516051962    0.992287734107129    -1.25614516051962    0.023160505681216    69.9226571094873     
3.25615762033294     0.023359600653634    70.044613973424      0.992270604410462    -1.26794997570684    0.992270604410462    -1.26794997570684    0.023359600653634    70.044613973424      
3.28680932307641     0.023560671108376    70.165559611333      0.992253330868437    -1.27986558128415    0.992253330868437    -1.27986558128415    0.023560671108376    70.165559611333      
3.31774956433387     0.02376373491992     70.285496573888      0.992235911609229    -1.29189301394629    0.992235911609229    -1.29189301394629    0.02376373491992     70.285496573888      
3.34898106025047     0.023968810127795    70.4044274523431     0.992218344729754    -1.30403332001604    0.992218344729754    -1.30403332001604    0.023968810127795    70.4044274523431     
3.38050655253969     0.024175914938149    70.5223548766459     0.992200628295068    -1.31628755553178    0.992200628295068    -1.31628755553178    0.024175914938149    70.5223548766459     
3.41232880872402     0.024385067725329    70.639281513577      0.99218276033782     -1.32865678633581    0.99218276033782     -1.32865678633581    0.024385067725329    70.639281513577      
3.4444506223779      0.024596287033472    70.7552100649176     0.992164738857655    -1.34114208816347    0.992164738857655    -1.34114208816347    0.024596287033472    70.7552100649176     
3.47687481337296     0.024809591578098    70.8701432656447     0.992146561820603    -1.35374454673289    0.992146561820603    -1.35374454673289    0.024809591578098    70.8701432656447     
3.50960422812557     0.025025000247728    70.9840838821536     0.992128227158467    -1.36646525783556    0.992128227158467    -1.36646525783556    0.025025000247728    70.9840838821536     
3.54264173984674     0.025242532105504    71.097034710508      0.992109732768247    -1.37930532742782    0.992109732768247    -1.37930532742782    0.025242532105504    71.097034710508      
3.57599024879432     0.025462206390825    71.2089985747178     0.992091076511436    -1.3922658717228     0.992091076511436    -1.3922658717228     0.025462206390825    71.2089985747178     
3.6096526825276      0.025684042520985    71.3199783250445     0.992072256213438    -1.40534801728348    0.992072256213438    -1.40534801728348    0.025684042520985    71.3199783250445     
3.64363199616436     0.02590806009284     71.4299768363339     0.992053269662881    -1.41855290111626    0.992053269662881    -1.41855290111626    0.02590806009284     71.4299768363339     
3.67793117264022     0.026134278884463    71.5389970063759     0.992034114610924    -1.43188167076544    0.992034114610924    -1.43188167076544    0.026134278884463    71.5389970063759     
3.71255322297057     0.026362718856836    71.6470417542921     0.992014788770658    -1.4453354844086     0.992014788770658    -1.4453354844086     0.026362718856836    71.6470417542921     
3.74750118651484     0.02659340015553     71.7541140189503     0.991995289816321    -1.45891551095246    0.991995289816321    -1.45891551095246    0.02659340015553     71.7541140189503     
3.78277813124337     0.026826343112414    71.8602167574064     0.991975615382636    -1.47262293012987    0.991975615382636    -1.47262293012987    0.026826343112414    71.8602167574064     
3.81838715400668     0.027061568247365    71.9653529433719     0.991955763064117    -1.48645893259746    0.991955763064117    -1.48645893259746    0.027061568247365    71.9653529433719     
3.85433138080739     0.027299096269993    72.0695255657103     0.991935730414252    -1.500424720034      0.991935730414252    -1.500424720034      0.027299096269993    72.0695255657103     
3.89061396707459     0.027538948081384    72.1727376269581     0.991915514944877    -1.51452150523984    0.991915514944877    -1.51452150523984    0.027538948081384    72.1727376269581     
3.92723809794088     0.027781144775842    72.2749921418734     0.991895114125311    -1.5287505122369     0.991895114125311    -1.5287505122369     0.027781144775842    72.2749921418734     
3.96420698852199     0.028025707642652    72.37629213601       0.991874525381623    -1.54311297636959    0.991874525381623    -1.54311297636959    0.028025707642652    72.37629213601       
4.00152388419897     0.028272658167857    72.476640644318      0.991853746095877    -1.55761014440672    0.991853746095877    -1.55761014440672    0.028272658167857    72.476640644318      
4.03919206090314     0.028522018036034    72.5760407097698     0.991832773605272    -1.57224327464385    0.991832773605272    -1.57224327464385    0.028522018036034    72.5760407097698     
4.07721482540369     0.028773809132099    72.6744953820118     0.991811605201352    -1.58701363700689    0.991811605201352    -1.58701363700689    0.028773809132099    72.6744953820118     
4.11559551559791     0.029028053543112    72.7720077160419     0.991790238129196    -1.60192251315632    0.991790238129196    -1.60192251315632    0.029028053543112    72.7720077160419     
4.15433750080425     0.029284773560097    72.8685807709109     0.991768669586527    -1.61697119659231    0.991768669586527    -1.61697119659231    0.029284773560097    72.8685807709109     
4.19344418205812     0.029543991679876    72.96421760845       0.991746896722891    -1.63216099276063    0.991746896722891    -1.63216099276063    0.029543991679876    72.96421760845       
4.2329189924104      0.029805730606914    73.0589212920222     0.991724916638737    -1.64749321915954    0.991724916638737    -1.64749321915954    0.029805730606914    73.0589212920222     
4.27276539722888     0.030070013255175    73.1526948852979     0.991702726384581    -1.66296920544745    0.991702726384581    -1.66296920544745    0.030070013255175    73.1526948852979     
4.31298689450242     0.030336862749994    73.2455414510549     0.991680322960022    -1.67859029355142    0.991680322960022    -1.67859029355142    0.030336862749994    73.2455414510549     
4.35358701514807     0.030606302429956    73.3374640500022     0.991657703312886    -1.69435783777663    0.991657703312886    -1.69435783777663    0.030606302429956    73.3374640500022     
4.39456932332101     0.030878355848791    73.4284657396266     0.99163486433822     -1.7102732049166     0.99163486433822     -1.7102732049166     0.030878355848791    73.4284657396266     
4.43593741672744     0.031153046777279    73.5185495730634     0.991611802877391    -1.72633777436441    0.991611802877391    -1.72633777436441    0.031153046777279    73.5185495730634     
4.47769492694043     0.031430399205171    73.6077185979893     0.991588515717042    -1.74255293822467    0.991588515717042    -1.74255293822467    0.031430399205171    73.6077185979893     
4.5198455197187      0.031710437343119    73.6959758555383     0.991564999588149    -1.75892010142645    0.991564999588149    -1.75892010142645    0.031710437343119    73.6959758555383     
4.56239289532844     0.031993185624618    73.783324379239      0.991541251164984    -1.77544068183716    0.991541251164984    -1.77544068183716    0.031993185624618    73.783324379239      
4.60534078886814     0.032278668707963    73.8697671939759     0.991517267064075    -1.79211611037712    0.991517267064075    -1.79211611037712    0.032278668707963    73.8697671939759     
4.64869297059647     0.032566911478216    73.9553073149697     0.991493043843166    -1.80894783113525    0.991493043843166    -1.80894783113525    0.032566911478216    73.9553073149697     
4.69245324626329     0.032857939049188    74.039947746781      0.991468578000127    -1.82593730148547    0.991468578000127    -1.82593730148547    0.032857939049188    74.039947746781      
4.73662545744371     0.03315177676543     74.1236914823342     0.991443865971896    -1.84308599220419    0.991443865971896    -1.84308599220419    0.03315177676543     74.1236914823342     
4.78121348187536     0.033448450204242    74.2065415019624     0.991418904133331    -1.86039538758849    0.991418904133331    -1.86039538758849    0.033448450204242    74.2065415019624     
4.82622123379879     0.033747985177684    74.2885007724723     0.9913936887961      -1.87786698557535    0.9913936887961      -1.87786698557535    0.033747985177684    74.2885007724723     
4.87165266430106     0.034050407734614    74.3695722462298     0.991368216207515    -1.89550229786182    0.991368216207515    -1.89550229786182    0.034050407734614    74.3695722462298     
4.91751176166267     0.034355744162725    74.4497588602648     0.991342482549374    -1.91330285002591    0.991342482549374    -1.91330285002591    0.034355744162725    74.4497588602648     
4.96380255170759     0.034664020990601    74.5290635353956     0.991316483936773    -1.93127018164866    0.991316483936773    -1.93127018164866    0.034664020990601    74.5290635353956     
5.01052909815674     0.034975264989786    74.6074891753734     0.991290216416837    -1.94940584643684    0.991290216416837    -1.94940584643684    0.034975264989786    74.6074891753734     
5.05769550298468     0.035289503176863    74.6850386660435     0.991263675967556    -1.96771141234686    0.991263675967556    -1.96771141234686    0.035289503176863    74.6850386660435     
5.10530590677975     0.035606762815543    74.7617148745274     0.991236858496473    -1.98618846170938    0.991236858496473    -1.98618846170938    0.035606762815543    74.7617148745274     
5.15336448910756     0.035927071418774    74.8375206484213     0.991209759839415    -2.0048385913549     0.991209759839415    -2.0048385913549     0.035927071418774    74.8375206484213     
5.20187546887786     0.036250456750853    74.9124588150132     0.991182375759196    -2.02366341274042    0.991182375759196    -2.02366341274042    0.036250456750853    74.9124588150132     
5.25084310471494     0.036576946829557    74.9865321805179     0.991154701944253    -2.04266455207672    0.991154701944253    -2.04266455207672    0.036576946829557    74.9865321805179     
5.30027169533146     0.036906569928284    75.059743529328      0.991126734007352    -2.06184365045698    0.991126734007352    -2.06184365045698    0.036906569928284    75.059743529328      
5.35016557990586     0.037239354578202    75.1320956232836     0.991098467484137    -2.08120236398589    0.991098467484137    -2.08120236398589    0.037239354578202    75.1320956232836     
5.40052913846321     0.037575329570418    75.2035912009567     0.991069897831777    -2.1007423639101     0.991069897831777    -2.1007423639101     0.037575329570418    75.2035912009567     
5.45136679225981     0.037914523958153    75.2742329769533     0.991041020427496    -2.12046533674923    0.991041020427496    -2.12046533674923    0.037914523958153    75.2742329769533     
5.50268300417122     0.038256967058932    75.3440236412308     0.991011830567174    -2.1403729844282     0.991011830567174    -2.1403729844282     0.038256967058932    75.3440236412308     
5.55448227908413     0.03860268845678     75.4129658584314     0.990982323463795    -2.16046702441009    0.990982323463795    -2.16046702441009    0.03860268845678     75.4129658584314     
5.60676916429178     0.038951718004439    75.4810622672305     0.990952494246004    -2.18074918983033    0.990952494246004    -2.18074918983033    0.038951718004439    75.4810622672305     
5.65954824989316     0.039304085825589    75.5483154797007     0.990922337956512    -2.20122122963144    0.990922337956512    -2.20122122963144    0.039304085825589    75.5483154797007     
5.71282416919595     0.039659822317083    75.6147280806896     0.990891849550572    -2.22188490869903    0.990891849550572    -2.22188490869903    0.039659822317083    75.6147280806896     
5.76660159912332     0.040018958151194    75.6803026272137     0.990861023894379    -2.24274200799858    0.990861023894379    -2.24274200799858    0.040018958151194    75.6803026272137     
5.82088526062441     0.040381524277875    75.7450416478645     0.99082985576344     -2.26379432471316    0.99082985576344     -2.26379432471316    0.040381524277875    75.7450416478645     
5.87567991908884     0.040747551927022    75.8089476422301     0.990798339840917    -2.28504367238205    0.990798339840917    -2.28504367238205    0.040747551927022    75.8089476422301     
5.93099038476502     0.041117072610762    75.8720230803294     0.990766470715985    -2.30649188104045    0.990766470715985    -2.30649188104045    0.041117072610762    75.8720230803294     
5.98682151318245     0.041490118125735    75.93427040206       0.99073424288207     -2.32814079735996    0.99073424288207     -2.32814079735996    0.041490118125735    75.93427040206       
6.04317820557792     0.041866720555403    75.9956920166592     0.990701650735142    -2.34999228478995    0.990701650735142    -2.34999228478995    0.041866720555403    75.9956920166592     
6.10006540932584     0.042246912272357    76.0562903021778     0.990668688571944    -2.37204822370014    0.990668688571944    -2.37204822370014    0.042246912272357    76.0562903021778     
6.15748811837248     0.042630725940642    76.1160676049656     0.990635350588164    -2.39431051152377    0.990635350588164    -2.39431051152377    0.042630725940642    76.1160676049656     
6.21545137367444     0.043018194518089    76.1750262391699     0.99060163087663     -2.41678106290189    0.99060163087663     -2.41678106290189    0.043018194518089    76.1750262391699     
6.27396026364116     0.043409351258656    76.2331684862461     0.990567523425402    -2.43946180982848    0.990567523425402    -2.43946180982848    0.043409351258656    76.2331684862461     
6.33301992458159     0.043804229714785    76.2904965944789     0.990533022115921    -2.46235470179659    0.990533022115921    -2.46235470179659    0.043804229714785    76.2904965944789     
6.39263554115512     0.044202863739757    76.3470127785159     0.990498120721016    -2.48546170594527    0.990498120721016    -2.48546170594527    0.044202863739757    76.3470127785159     
6.45281234682671     0.044605287490071    76.402719218912      0.990462812902989    -2.50878480720754    0.990462812902989    -2.50878480720754    0.044605287490071    76.402719218912      
6.51355562432631     0.045011535427819    76.4576180616844     0.990427092211547    -2.53232600845902    0.990427092211547    -2.53232600845902    0.045011535427819    76.4576180616844     
6.57487070611264     0.045421642323077    76.5117114178789     0.990390952081828    -2.55608733066789    0.990390952081828    -2.55608733066789    0.045421642323077    76.5117114178789     
6.6367629748413      0.045835643256306    76.5650013631452     0.990354385832272    -2.58007081304529    0.990354385832272    -2.58007081304529    0.045835643256306    76.5650013631452     
6.69923786383727     0.046253573620754    76.6174899373249     0.99031738666252     -2.60427851319684    0.99031738666252     -2.60427851319684    0.046253573620754    76.6174899373249     
6.76230085757194     0.046675469124874    76.6691791440464     0.990279947651262    -2.62871250727506    0.990279947651262    -2.62871250727506    0.046675469124874    76.6691791440464     
6.8259574921445      0.047101365794745    76.7200709503313     0.990242061754046    -2.65337489013257    0.990242061754046    -2.65337489013257    0.047101365794745    76.7200709503313     
6.89021335576801     0.047531299976504    76.7701672862099     0.990203721801063    -2.67826777547623    0.990203721801063    -2.67826777547623    0.047531299976504    76.7701672862099     
6.95507408925993     0.047965308338778    76.8194700443461     0.990164920494835    -2.70339329602211    0.990164920494835    -2.70339329602211    0.047965308338778    76.8194700443461     
7.0205453865373      0.048403427875137    76.86798107967       0.990125650407959    -2.72875360365136    0.990125650407959    -2.72875360365136    0.048403427875137    76.86798107967       
7.08663299511664     0.048845695906534    76.9157022090214     0.990085903980724    -2.7543508695668     0.990085903980724    -2.7543508695668     0.048845695906534    76.9157022090214     
7.15334271661844     0.049292150083772    76.9626352108001     0.990045673518704    -2.78018728445056    0.990045673518704    -2.78018728445056    0.049292150083772    76.9626352108001     
7.22068040727653     0.049742828389957    77.0087818246251     0.990004951190359    -2.80626505862224    0.990004951190359    -2.80626505862224    0.049742828389957    77.0087818246251     
7.28865197845213     0.050197769142975    77.0541437510021     0.989963729024566    -2.83258642219842    0.989963729024566    -2.83258642219842    0.050197769142975    77.0541437510021     
7.35726339715282     0.050657010997959    77.0987226509992     0.989921998908026    -2.85915362525217    0.989921998908026    -2.85915362525217    0.050657010997959    77.0987226509992     
7.42652068655636     0.051120592949767    77.1425201459288     0.989879752582773    -2.88596893797415    0.989879752582773    -2.88596893797415    0.051120592949767    77.1425201459288     
7.49642992653943     0.051588554335465    77.1855378170395     0.989836981643546    -2.91303465083417    0.989836981643546    -2.91303465083417    0.051588554335465    77.1855378170395     
7.56699725421137     0.052060934836814    77.227777205213      0.989793677535116    -2.94035307474329    0.989793677535116    -2.94035307474329    0.052060934836814    77.227777205213      
7.63822886445296     0.052537774482754    77.2692398106697     0.989749831549578    -2.9679265412171     0.989749831549578    -2.9679265412171     0.052537774482754    77.2692398106697     
7.71013101046021     0.053019113651898    77.3099270926804     0.989705434823632    -2.99575740253947    0.989705434823632    -2.99575740253947    0.053019113651898    77.3099270926804     
7.78271000429334     0.053504993075026    77.3498404692854     0.989660478335752    -3.02384803192717    0.989660478335752    -3.02384803192717    0.053504993075026    77.3498404692854     
7.85597221743087     0.053995453837577    77.3889813170198     0.989614952903365    -3.0522008236951     0.989614952903365    -3.0522008236951     0.053995453837577    77.3889813170198     
7.92992408132898     0.054490537382147    77.4273509706454     0.989568849179932    -3.08081819342229    0.989568849179932    -3.08081819342229    0.054490537382147    77.4273509706454     
8.00457208798608     0.054990285510986    77.4649507228886     0.989522157652042    -3.10970257811865    0.989522157652042    -3.10970257811865    0.054990285510986    77.4649507228886     
8.07992279051274     0.055494740388493    77.5017818241855     0.989474868636332    -3.13885643639212    0.989474868636332    -3.13885643639212    0.055494740388493    77.5017818241855     
8.15598280370696     0.056003944543711    77.5378454824312     0.989426972276536    -3.16828224861681    0.989426972276536    -3.16828224861681    0.056003944543711    77.5378454824312     
8.23275880463486     0.056517940872824    77.5731428627366     0.989378458540317    -3.19798251710165    0.989378458540317    -3.19798251710165    0.056517940872824    77.5731428627366     
8.31025753321684     0.057036772641644    77.6076750871897     0.98932931721611     -3.22795976625937    0.98932931721611     -3.22795976625937    0.057036772641644    77.6076750871897     
8.38848579281927     0.05756048348811     77.6414432346231     0.989279537909962    -3.25821654277666    0.989279537909962    -3.25821654277666    0.05756048348811     77.6414432346231     
8.46745045085172     0.058089117424763    77.6744483403865     0.9892291100422      -3.28875541578425    0.9892291100422      -3.28875541578425    0.058089117424763    77.6744483403865     
8.5471584393698      0.058622718841234    77.7066913961247     0.989178022844164    -3.31957897702806    0.989178022844164    -3.31957897702806    0.058622718841234    77.7066913961247     
8.62761675568377     0.059161332506723    77.7381733495605     0.989126265354797    -3.35068984104054    0.989126265354797    -3.35068984104054    0.059161332506723    77.7381733495605     
8.70883246297277     0.059705003572462    77.7688951042825     0.989073826417196    -3.38209064531255    0.989073826417196    -3.38209064531255    0.059705003572462    77.7688951042825     
8.79081269090486     0.06025377757419     77.7988575195381     0.989020694675163    -3.41378405046608    0.989020694675163    -3.41378405046608    0.06025377757419     77.7988575195381     
8.87356463626296     0.060807700434601    77.8280614100311     0.988966858569578    -3.44577274042671    0.988966858569578    -3.44577274042671    0.060807700434601    77.8280614100311     
8.95709556357657     0.061366818465801    77.8565075457233     0.988912306334859    -3.47805942259728    0.988912306334859    -3.47805942259728    0.061366818465801    77.8565075457233     
9.04141280575956     0.061931178371741    77.884196651642      0.988857025995229    -3.51064682803134    0.988857025995229    -3.51064682803134    0.061931178371741    77.884196651642      
9.12652376475386     0.062500827250651    77.9111294076901     0.988801005360994    -3.54353771160725    0.988801005360994    -3.54353771160725    0.062500827250651    77.9111294076901     
9.21243591217928     0.063075812597456    77.9373064484622     0.988744232024716    -3.57673485220254    0.988744232024716    -3.57673485220254    0.063075812597456    77.9373064484622     
9.2991567899894      0.063656182306188    77.9627283630635     0.988686693357412    -3.61024105286874    0.988686693357412    -3.61024105286874    0.063656182306188    77.9627283630635     
9.38669401113366     0.064241984672369    77.9873956949336     0.988628376504513    -3.64405914100603    0.988628376504513    -3.64405914100603    0.064241984672369    77.9873956949336     
9.4750552602257      0.064833268395402    78.0113089416743     0.988569268381961    -3.67819196853863    0.988569268381961    -3.67819196853863    0.064833268395402    78.0113089416743     
9.56424829421793     0.065430082580929    78.0344685548804     0.988509355672089    -3.71264241209017    0.988509355672089    -3.71264241209017    0.065430082580929    78.0344685548804     
9.65428094308248     0.066032476743178    78.0568749399757     0.988448624819501    -3.74741337315902    0.988448624819501    -3.74741337315902    0.066032476743178    78.0568749399757     
9.74516111049866     0.066640500807293    78.0785284560519     0.988387062026856    -3.78250777829415    0.988387062026856    -3.78250777829415    0.066640500807293    78.0785284560519     
9.83689677454667     0.067254205111651    78.0994294157104     0.988324653250604    -3.81792857927066    0.988324653250604    -3.81792857927066    0.067254205111651    78.0994294157104     
9.92949598840806     0.067873640410144    78.11957808491       0.988261384196631    -3.85367875326573    0.988261384196631    -3.85367875326573    0.067873640410144    78.11957808491       
10.0229668810727     0.068498857874459    78.1389746828154     0.988197240315845    -3.88976130303425    0.988197240315845    -3.88976130303425    0.068498857874459    78.1389746828154     
10.1173176580522     0.069129909096316    78.1576193816513     0.988132206799691    -3.92617925708453    0.988132206799691    -3.92617925708453    0.069129909096316    78.1576193816513     
10.2125566021007     0.069766846089697    78.1755123065585     0.988066268575551    -3.96293566985392    0.988066268575551    -3.96293566985392    0.069766846089697    78.1755123065585     
10.3086920739414     0.070409721293041    78.1926535354541     0.987999410302134    -4.00003362188435    0.987999410302134    -4.00003362188435    0.070409721293041    78.1926535354541     
10.405732513001      0.071058587571419    78.2090430988945     0.987931616364783    -4.03747621999757    0.987931616364783    -4.03747621999757    0.071058587571419    78.2090430988945     
10.5036864381503     0.071713498218672    78.2246809799422     0.987862870870595    -4.07526659747014    0.987862870870595    -4.07526659747014    0.071713498218672    78.2246809799422     
10.6025624484523     0.072374506959526    78.239567114035      0.987793157643631    -4.11340791420821    0.987793157643631    -4.11340791420821    0.072374506959526    78.239567114035      
10.7023692239166     0.073041667951673    78.2537013888592     0.987722460219924    -4.15190335692194    0.987722460219924    -4.15190335692194    0.073041667951673    78.2537013888592     
10.803115526262      0.073715035787818    78.2670836442253     0.987650761842434    -4.19075613929946    0.987650761842434    -4.19075613929946    0.073715035787818    78.2670836442253     
10.9048101996853     0.074394665497696    78.2797136719469     0.987578045455975    -4.22996950218047    0.987578045455975    -4.22996950218047    0.074394665497696    78.2797136719469     
11.0074621716376     0.075080612550043    78.2915912157227     0.987504293701966    -4.26954671372906    0.987504293701966    -4.26954671372906    0.075080612550043    78.2915912157227     
11.1110804536084     0.075772932854539    78.3027159710218     0.987429488913192    -4.30949106960634    0.987429488913192    -4.30949106960634    0.075772932854539    78.3027159710218     
11.2156741419163     0.076471682763705    78.3130875849713     0.987353613108412    -4.34980589314221    0.987353613108412    -4.34980589314221    0.076471682763705    78.3130875849713     
11.321252418508      0.077176919074756    78.3227056562476     0.987276647986892    -4.39049453550608    0.987276647986892    -4.39049453550608    0.077176919074756    78.3227056562476     
11.4278245517638     0.077888699031422    78.3315697349701     0.987198574922935    -4.43156037587782    0.987198574922935    -4.43156037587782    0.077888699031422    78.3315697349701     
11.5353998973115     0.078607080325702    78.3396793225985     0.987119374960152    -4.47300682161639    0.987119374960152    -4.47300682161639    0.078607080325702    78.3396793225985     
11.6439878988479     0.079332121099591    78.3470338718321     0.987039028805834    -4.51483730842898    0.987039028805834    -4.51483730842898    0.079332121099591    78.3470338718321     
11.7535980889675     0.080063879946745    78.3536327865133     0.986957516825083    -4.55705530053806    0.986957516825083    -4.55705530053806    0.080063879946745    78.3536327865133     
11.8642400899995     0.080802415914096    78.3594754215327     0.986874819034966    -4.59966429084824    0.986874819034966    -4.59966429084824    0.080802415914096    78.3594754215327     
11.9759236148525     0.081547788503414    78.3645610827384     0.986790915098481    -4.64266780111109    0.986790915098481    -4.64266780111109    0.081547788503414    78.3645610827384     
12.0886584678672     0.082300057672808    78.3688890268472     0.986705784318488    -4.6860693820895     0.986705784318488    -4.6860693820895     0.082300057672808    78.3688890268472     
12.202454545677      0.083059283838176    78.3724584613597     0.986619405631557    -4.72987261372019    0.986619405631557    -4.72987261372019    0.083059283838176    78.3724584613597     
12.3173218380769     0.08382552787458     78.3752685444781     0.986531757601625    -4.7740811052751     0.986531757601625    -4.7740811052751     0.08382552787458     78.3752685444781     
12.4332704289003     0.084598851117574    78.3773183850263     0.986442818413729    -4.81869849552118    0.986442818413729    -4.81869849552118    0.084598851117574    78.3773183850263     
12.5503104969044     0.085379315364449    78.3786070423743     0.986352565867445    -4.8637284528786     0.986352565867445    -4.8637284528786     0.085379315364449    78.3786070423743     
12.6684523166637     0.086166982875416    78.3791335263649     0.986260977370357    -4.90917467557712    0.986260977370357    -4.90917467557712    0.086166982875416    78.3791335263649     
12.7877062594721     0.086961916374716    78.378896797244      0.986168029931395    -4.95504089181095    0.986168029931395    -4.95504089181095    0.086961916374716    78.378896797244      
12.908082794253      0.087764179051659    78.3778957655936     0.986073700154076    -5.00133085989161    0.986073700154076    -5.00133085989161    0.087764179051659    78.3778957655936     
13.0295924884787     0.088573834561576    78.3761292922679     0.985977964229605    -5.0480483683987     0.985977964229605    -5.0480483683987     0.088573834561576    78.3761292922679     
13.1522460090981     0.089390947026701    78.3735961883336     0.985880797929938    -5.09519723632868    0.985880797929938    -5.09519723632868    0.089390947026701    78.3735961883336     
13.2760541234727     0.090215581036954    78.3702952150132     0.985782176600663    -5.14278131324117    0.985782176600663    -5.14278131324117    0.090215581036954    78.3702952150132     
13.4010277003222     0.09104780165066     78.3662250836305     0.98568207515389     -5.1908044794038     0.98568207515389     -5.1908044794038     0.09104780165066     78.3662250836305     
13.5271777106787     0.091887674395151    78.3613844555613     0.985580468060878    -5.23927064593305    0.985580468060878    -5.23927064593305    0.091887674395151    78.3613844555613     
13.6545152288494     0.092735265267299    78.3557719421866     0.985477329344715    -5.28818375493425    0.985477329344715    -5.28818375493425    0.092735265267299    78.3557719421866     
13.7830514333892     0.093590640733934    78.3493861048498     0.985372632572782    -5.33754777963774    0.985372632572782    -5.33754777963774    0.093590640733934    78.3493861048498     
13.9127976080817     0.094453867732173    78.342225454817      0.985266350849157    -5.38736672453261    0.985266350849157    -5.38736672453261    0.094453867732173    78.342225454817      
14.0437651429302     0.095325013669639    78.3342884532424     0.98515845680689     -5.43764462549737    0.98515845680689     -5.43764462549737    0.095325013669639    78.3342884532424     
14.1759655351569     0.096204146424577    78.3255735111355     0.985048922600178    -5.4883855499279     0.985048922600178    -5.4883855499279     0.096204146424577    78.3255735111355     
14.3094103902131     0.097091334345855    78.3160789893348     0.984937719896414    -5.53959359686151    0.984937719896414    -5.53959359686151    0.097091334345855    78.3160789893348     
14.4441114227971     0.097986646252856    78.3058031984825     0.98482481986819     -5.59127289709867    0.98482481986819     -5.59127289709867    0.097986646252856    78.3058031984825     
14.5800804578832     0.098890151435241    78.294744399007      0.984710193185041    -5.64342761331977    0.984710193185041    -5.64342761331977    0.098890151435241    78.294744399007      
14.7173294317598     0.099801919652603    78.282900801106      0.984593810005253    -5.69606194019991    0.984593810005253    -5.69606194019991    0.099801919652603    78.282900801106      
14.8558703930766     0.100722021133975    78.2702705647367     0.984475639967428    -5.74918010451821    0.984475639967428    -5.74918010451821    0.100722021133975    78.2702705647367     
14.9957155039031     0.101650526577235    78.2568517996091     0.984355652181985    -5.80278636526477    0.984355652181985    -5.80278636526477    0.101650526577235    78.2568517996091     
15.1368770407959     0.102587507148345    78.2426425651844     0.984233815222556    -5.85688501374223    0.984233815222556    -5.85688501374223    0.102587507148345    78.2426425651844     
15.2793673958762     0.103533034480468    78.227640870678      0.984110097117225    -5.91148037366332    0.984110097117225    -5.91148037366332    0.103533034480468    78.227640870678      
15.4231990779183     0.104487180672941    78.2118446750682     0.983984465339678    -5.96657680124474    0.983984465339678    -5.96657680124474    0.104487180672941    78.2118446750682     
15.5683847134471     0.105450018290087    78.195251887108      0.983856886800238    -6.02217868529496    0.983856886800238    -6.02217868529496    0.105450018290087    78.195251887108      
15.7149370478466     0.106421620359889    78.1778603653441     0.983727327836792    -6.078290447299      0.983727327836792    -6.078290447299      0.106421620359889    78.1778603653441     
15.8628689464792     0.107402060372492    78.1596679181403     0.983595754205546    -6.13491654149605    0.983595754205546    -6.13491654149605    0.107402060372492    78.1596679181403     
16.0121933958148     0.108391412278549    78.1406723037068     0.983462131071741    -6.19206145495408    0.983462131071741    -6.19206145495408    0.108391412278549    78.1406723037068     
16.1629235045708     0.109389750487392    78.1208712301344     0.983326423000152    -6.2497297076371     0.983326423000152    -6.2497297076371     0.109389750487392    78.1208712301344     
16.315072504863      0.110397149865042    78.1002623554356     0.983188593945604    -6.3079258524684     0.983188593945604    -6.3079258524684     0.110397149865042    78.1002623554356     
16.4686537533672     0.111413685732022    78.0788432875908     0.983048607243228    -6.36665447538685    0.983048607243228    -6.36665447538685    0.111413685732022    78.0788432875908     
16.6236807324917     0.112439433860996    78.0566115846012     0.982906425598654    -6.42592019539785    0.982906425598654    -6.42592019539785    0.112439433860996    78.0566115846012     
16.7801670515608     0.11347447047422     78.0335647545478     0.98276201107814     -6.48572766461771    0.98276201107814     -6.48572766461771    0.11347447047422     78.0335647545478     
16.9381264480096     0.114518872240787    78.0097002556579     0.982615325098482    -6.54608156831163    0.982615325098482    -6.54608156831163    0.114518872240787    78.0097002556579     
17.0975727885902     0.115572716273683    77.9850154963763     0.982466328416894    -6.60698662492531    0.982466328416894    -6.60698662492531    0.115572716273683    77.9850154963763     
17.2585200705885     0.11663608012662     77.9595078354462     0.982314981120668    -6.66844758610887    0.982314981120668    -6.66844758610887    0.11663608012662     77.9595078354462     
17.4209824230535     0.11770904179067     77.933174581995      0.982161242616836    -6.73046923673453    0.982161242616836    -6.73046923673453    0.11770904179067     77.933174581995      
17.5849741080371     0.118791679690672    77.9060129956286     0.982005071621644    -6.79305639490652    0.982005071621644    -6.79305639490652    0.118791679690672    77.9060129956286     
17.7505095218467     0.119884072681406    77.878020286534      0.981846426149849    -6.85621391196259    0.981846426149849    -6.85621391196259    0.119884072681406    77.878020286534      
17.9176031963087     0.12098630004355     77.8491936155877     0.981685263504057    -6.91994667246946    0.981685263504057    -6.91994667246946    0.12098630004355     77.8491936155877     
18.0862698000441     0.122098441479383    77.8195300944747     0.981521540263782    -6.9842595942078     0.981521540263782    -6.9842595942078     0.122098441479383    77.8195300944747     
18.2565241397564     0.123220577108247    77.7890267858142     0.981355212274485    -7.04915762815051    0.981355212274485    -7.04915762815051    0.123220577108247    77.7890267858142     
18.4283811615316     0.124352787461758    77.7576807032948     0.981186234636476    -7.11464575843161    0.981186234636476    -7.11464575843161    0.124352787461758    77.7576807032948     
18.6018559521496     0.125495153478748    77.7254888118176     0.981014561693651    -7.18072900230598    0.981014561693651    -7.18072900230598    0.125495153478748    77.7254888118176     
18.7769637404095     0.12664775649996     77.6924480276501     0.980840147022223    -7.24741241010046    0.980840147022223    -7.24741241010046    0.12664775649996     77.6924480276501     
18.9537198984659     0.127810678262436    77.6585552185876     0.980662943419227    -7.3147010651543     0.980662943419227    -7.3147010651543     0.127810678262436    77.6585552185876     
19.1321399431784     0.128984000893652    77.6238072041265     0.980482902890956    -7.38260008375091    0.980482902890956    -7.38260008375091    0.128984000893652    77.6238072041265     
19.312239537474      0.13016780690535     77.588200755645      0.980299976641342    -7.45111461503873    0.980299976641342    -7.45111461503873    0.13016780690535     77.588200755645      
19.4940344917222     0.131362179187066    77.5517325965974     0.980114115060109    -7.52024984094118    0.980114115060109    -7.52024984094118    0.131362179187066    77.5517325965974     
19.6775407651225     0.132567200999371    77.5143994027155     0.979925267710943    -7.59001097605725    0.979925267710943    -7.59001097605725    0.132567200999371    77.5143994027155     
19.8627744671057     0.133782955966783    77.4761978022235     0.979733383319494    -7.66040326754943    0.979733383319494    -7.66040326754943    0.133782955966783    77.4761978022235     
20.0497518587481     0.135009528070354    77.4371243760635     0.979538409761238    -7.7314319950206     0.979538409761238    -7.7314319950206     0.135009528070354    77.4371243760635     
20.2384893541989     0.136247001639945    77.3971756581322     0.979340294049329    -7.80310247037933    0.979340294049329    -7.80310247037933    0.136247001639945    77.3971756581322     
20.4290035221212     0.137495461346143    77.3563481355294     0.979138982322286    -7.875420037693      0.979138982322286    -7.875420037693      0.137495461346143    77.3563481355294     
20.6213110871467     0.138754992191841    77.3146382488198     0.978934419831604    -7.94839007302807    0.978934419831604    -7.94839007302807    0.138754992191841    77.3146382488198     
20.8154289313435     0.140025679503456    77.2720423923066     0.978726550929268    -8.02201798427737    0.978726550929268    -8.02201798427737    0.140025679503456    77.2720423923066     
21.0113740956983     0.141307608921783    77.228556914318      0.978515319055169    -8.09630921097439    0.978515319055169    -8.09630921097439    0.141307608921783    77.228556914318      
21.2091637816126     0.142600866392486    77.184178117508      0.978300666724452    -8.17126922409395    0.978300666724452    -8.17126922409395    0.142600866392486    77.184178117508      
21.4088153524125     0.14390553815618     77.1389022591694     0.978082535514763    -8.2469035258384     0.978082535514763    -8.2469035258384     0.14390553815618     77.1389022591694     
21.610346334873      0.145221710738144    77.0927255515629     0.977860866053418    -8.32321764940969    0.977860866053418    -8.32321764940969    0.145221710738144    77.0927255515629     
21.8137744207567     0.146549470937613    77.0456441622586     0.97763559800449     -8.40021715876645    0.97763559800449     -8.40021715876645    0.146549470937613    77.0456441622586     
22.0191174683669     0.147888905816677    76.9976542144948     0.97740667005581     -8.4779076483655     0.97740667005581     -8.4779076483655     0.147888905816677    76.9976542144948     
22.2263935041151     0.149240102688738    76.9487517875497     0.977174019905958    -8.55629474288877    0.977174019905958    -8.55629474288877    0.149240102688738    76.9487517875497     
22.4356207241038     0.150603149106541    76.8989329171305     0.976937584251091    -8.63538409695208    0.976937584251091    -8.63538409695208    0.150603149106541    76.8989329171305     
22.6468174957239     0.15197813284977     76.8481935957784     0.976697298771805    -8.71518139479959    0.976697298771805    -8.71518139479959    0.15197813284977     76.8481935957784     
22.8600023592667     0.153365141912182    76.7965297732895     0.976453098119872    -8.79569234997965    0.976453098119872    -8.79569234997965    0.153365141912182    76.7965297732895     
23.0751940295519     0.15476426448828     76.7439373571542     0.976204915904959    -8.87692270500367    0.976204915904959    -8.87692270500367    0.15476426448828     76.7439373571542     
23.2924113975703     0.156175588959514    76.6904122130122     0.975952684681292    -8.9588782309875     0.975952684681292    -8.9588782309875     0.156175588959514    76.6904122130122     
23.5116735321422     0.15759920387999     76.6359501651275     0.975696335934285    -9.04156472727326    0.975696335934285    -9.04156472727326    0.15759920387999     76.6359501651275     
23.7329996815917     0.159035197961696    76.5805469968801     0.975435800067104    -9.12498802103375    0.975435800067104    -9.12498802103375    0.159035197961696    76.5805469968801     
23.9564092754358     0.160483660059216    76.5241984512782     0.975171006387278    -9.20915396685681    0.975171006387278    -9.20915396685681    0.160483660059216    76.5241984512782     
24.1819219260907     0.161944679153914    76.4669002314879     0.974901883093194    -9.29406844630903    0.974901883093194    -9.29406844630903    0.161944679153914    76.4669002314879     
24.4095574305933     0.16341834433761     76.4086480013857     0.974628357260631    -9.37973736748051    0.974628357260631    -9.37973736748051    0.16341834433761     76.4086480013857     
24.6393357723388     0.164904744795702    76.3494373861282     0.974350354829279    -9.46616666450796    0.974350354829279    -9.46616666450796    0.164904744795702    76.3494373861282     
24.8712771228355     0.166403969789737    76.2892639727448     0.974067800589252    -9.5533622970762     0.974067800589252    -9.5533622970762     0.166403969789737    76.2892639727448     
25.1054018434753     0.167916108639428    76.2281233107513     0.973780618167614    -9.64133024989885    0.973780618167614    -9.64133024989885    0.167916108639428    76.2281233107513     
25.3417304873212     0.16944125070409     76.1660109127856     0.973488730014892    -9.730076532175      0.973488730014892    -9.730076532175      0.16944125070409     76.1660109127856     
25.5802838009114     0.17097948536348     76.1029222552656     0.973192057391672    -9.81960717702413    0.973192057391672    -9.81960717702413    0.17097948536348     76.1029222552656     
25.821082726081      0.172530901998058    76.0388527790706     0.972890520355139    -9.90992824089698    0.972890520355139    -9.90992824089698    0.172530901998058    76.0388527790706     
26.0641484018002     0.17409558996863     75.9737978902454     0.972584037745773    -10.0010458029626    0.972584037745773    -10.0010458029626    0.17409558996863     75.9737978902454     
26.3095021660298     0.175673638595356    75.9077529607305     0.972272527173975    -10.0929659644703    0.972272527173975    -10.0929659644703    0.175673638595356    75.9077529607305     
26.5571655575948     0.177265137136142    75.8407133291145     0.97195590500684     -10.1856948480864    0.97195590500684     -10.1856948480864    0.177265137136142    75.8407133291145     
26.8071603180749     0.178870174764378    75.7726743014142     0.971634086354967    -10.2792385972061    0.971634086354967    -10.2792385972061    0.178870174764378    75.7726743014142     
27.0595083937133     0.180488840546022    75.7036311518786     0.971306985059369    -10.3736033752379    0.971306985059369    -10.3736033752379    0.180488840546022    75.7036311518786     
27.3142319373431     0.182121223415997    75.6335791238212     0.970974513678425    -10.468795364861     0.970974513678425    -10.468795364861     0.182121223415997    75.6335791238212     
27.5713533103324     0.183767412153934    75.5625134304774     0.970636583475042    -10.5648207672563    0.970636583475042    -10.5648207672563    0.183767412153934    75.5625134304774     
27.830895084547      0.185427495359195    75.4904292558919     0.970293104403806    -10.6616858013079    0.970293104403806    -10.6616858013079    0.185427495359195    75.4904292558919     
28.0928800443319     0.187101561425194    75.4173217558326     0.969943985098353    -10.7593967027759    0.969943985098353    -10.7593967027759    0.187101561425194    75.4173217558326     
28.3573311885117     0.188789698513024    75.3431860587333     0.969589132858885    -10.8579597234415    0.969589132858885    -10.8579597234415    0.188789698513024    75.3431860587333     
28.6242717324094     0.190491994524303    75.268017266668      0.969228453639738    -10.9573811302197    0.969228453639738    -10.9573811302197    0.190491994524303    75.268017266668      
28.8937251098845     0.19220853707333     75.1918104563526     0.968861852037288    -11.0576672042428    0.968861852037288    -11.0576672042428    0.19220853707333     75.1918104563526     
29.1657149753902     0.193939413458449    75.1145606801798     0.968489231277878    -11.158824239912     0.968489231277878    -11.158824239912     0.193939413458449    75.1145606801798     
29.4402652060498     0.195684710632664    75.0362629672834     0.968110493206062    -11.2608585439177    0.968110493206062    -11.2608585439177    0.195684710632664    75.0362629672834     
29.717399903753      0.197444515173461    74.9569123246366     0.967725538272998    -11.3637764342262    0.967725538272998    -11.3637764342262    0.197444515173461    74.9569123246366     
29.9971433972714     0.199218913251864    74.8765037381803     0.96733426552513     -11.4675842390348    0.96733426552513     -11.4675842390348    0.199218913251864    74.8765037381803     
30.2795202443948     0.201007990600653    74.7950321739889     0.966936572593028    -11.572288295691     0.966936572593028    -11.572288295691     0.201007990600653    74.7950321739889     
30.5645552340865     0.202811832481799    74.7124925794651     0.966532355680615    -11.6778949495788    0.966532355680615    -11.6778949495788    0.202811832481799    74.7124925794651     
30.8522733886596     0.204630523653057    74.6288798845739     0.966121509554561    -11.7844105529691    0.966121509554561    -11.7844105529691    0.204630523653057    74.6288798845739     
31.142699965974      0.20646414833373     74.5441890031081     0.965703927534079    -11.8918414638344    0.965703927534079    -11.8918414638344    0.20646414833373     74.5441890031081     
31.4358604616531     0.208312790169582    74.4584148339927     0.965279501480969    -12.0001940446275    0.965279501480969    -12.0001940446275    0.208312790169582    74.4584148339927     
31.7317806113224     0.210176532196894    74.3715522626239     0.964848121790035    -12.1094746610222    0.964848121790035    -12.1094746610222    0.210176532196894    74.3715522626239     
32.0304863928687     0.212055456805651    74.2835961622471     0.964409677379856    -12.2196896806166    0.964409677379856    -12.2196896806166    0.212055456805651    74.2835961622471     
32.3320040287203     0.213949645701859    74.1945413953702     0.963964055683968    -12.3308454715989    0.963964055683968    -12.3308454715989    0.213949645701859    74.1945413953702     
32.6363599881494     0.215859179868951    74.104382815219      0.963511142642375    -12.442948401372     0.963511142642375    -12.442948401372     0.215859179868951    74.104382815219      
32.9435809895957     0.217784139528325    74.0131152672283     0.963050822693574    -12.5560048351408    0.963050822693574    -12.5560048351408    0.217784139528325    74.0131152672283     
33.2536940030116     0.219724604098949    73.9207335905756     0.962582978766962    -12.6700211344571    0.962582978766962    -12.6700211344571    0.219724604098949    73.9207335905756     
33.56672625223       0.221680652156068    73.8272326197533     0.96210749227575     -12.7850036557245    0.96210749227575     -12.7850036557245    0.221680652156068    73.8272326197533     
33.8827052173544     0.223652361388976    73.7326071861831     0.961624243110358    -12.900958748662     0.961624243110358    -12.900958748662     0.223652361388976    73.7326071861831     
34.201658637171      0.225639808557862    73.6368521198726     0.961133109632334    -13.017892754724     0.961133109632334    -13.017892754724     0.225639808557862    73.6368521198726     
34.5236145115838     0.22764306944971     73.5399622511126     0.960633968668812    -13.1358120054784    0.960633968668812    -13.1358120054784    0.22764306944971     73.5399622511126     
34.8486011040728     0.229662218833264    73.4419324122194     0.960126695507538    -13.254722820941     0.960126695507538    -13.254722820941     0.229662218833264    73.4419324122194     
35.1766469441752     0.231697330413025    73.3427574393191     0.959611163892512    -13.3746315078655    0.959611163892512    -13.3746315078655    0.231697330413025    73.3427574393191     
35.5077808299895     0.2337484767823      73.2424321741771     0.959087246020229    -13.4955443579887    0.959087246020229    -13.4955443579887    0.2337484767823      73.2424321741771     
35.8420318307042     0.235815729375284    73.1409514660724     0.958554812536597    -13.6174676462306    0.958554812536597    -13.6174676462306    0.235815729375284    73.1409514660724     
36.1794292891493     0.237899158418175    73.0383101737165     0.958013732534497    -13.7404076288486    0.958013732534497    -13.7404076288486    0.237899158418175    73.0383101737165     
36.520002824372      0.239998832879308    72.9345031672197     0.957463873552108    -13.8643705415447    0.957463873552108    -13.8643705415447    0.239998832879308    72.9345031672197     
36.8637823342377     0.242114820418334    72.8295253301018     0.956905101571911    -13.9893625975265    0.956905101571911    -13.9893625975265    0.242114820418334    72.8295253301018     
37.2107979980536     0.244247187334399    72.7233715613522     0.956337281020518    -14.1153899855197    0.956337281020518    -14.1153899855197    0.244247187334399    72.7233715613522     
37.5610802792188     0.246395998513355    72.616036777536      0.955760274769256    -14.2424588677332    0.955760274769256    -14.2424588677332    0.246395998513355    72.616036777536      
37.9146599278982     0.248561317373995    72.5075159149483     0.955173944135609    -14.3705753777753    0.955173944135609    -14.3705753777753    0.248561317373995    72.5075159149483     
38.2715679837222     0.250743205813286    72.3978039318189     0.954578148885488    -14.4997456185202    0.954578148885488    -14.4997456185202    0.250743205813286    72.3978039318189     
38.6318357785115     0.252941724150669    72.2868958105623     0.953972747236494    -14.6299756599268    0.953972747236494    -14.6299756599268    0.252941724150669    72.2868958105623     
38.9954949390273     0.255156931071326    72.1747865600814     0.95335759586197     -14.7612715368053    0.95335759586197     -14.7612715368053    0.255156931071326    72.1747865600814     
39.3625773897483     0.257388883568518    72.061471218118      0.952732549896134    -14.8936392465344    0.952732549896134    -14.8936392465344    0.257388883568518    72.061471218118      
39.7331153556727     0.259637636884944    71.9469448536551     0.952097462940146    -15.0270847467285    0.952097462940146    -15.0270847467285    0.259637636884944    71.9469448536551     
40.1071413651475     0.261903244453113    71.8312025693694     0.951452187069245    -15.161613952852     0.951452187069245    -15.161613952852     0.261903244453113    71.8312025693694     
40.4846882527238     0.264185757834798    71.7142395041344     0.950796572840936    -15.2972327357838    0.950796572840936    -15.2972327357838    0.264185757834798    71.7142395041344     
40.8657891620397     0.266485226659514    71.5960508355754     0.950130469304298    -15.433946919329     0.950130469304298    -15.433946919329     0.266485226659514    71.5960508355754     
41.250477548729      0.268801698562061    71.4766317826759     0.949453724010393    -15.5717622776785    0.949453724010393    -15.5717622776785    0.268801698562061    71.4766317826759     
41.6387871833592     0.271135219119152    71.3559776084355     0.948766183023917    -15.7106845328175    0.948766183023917    -15.7106845328175    0.271135219119152    71.3559776084355     
42.0307521543954     0.273485831785108    71.2340836225794     0.948067690936042    -15.8507193518797    0.948067690936042    -15.8507193518797    0.273485831785108    71.2340836225794     
42.4264068711929     0.275853577826658    71.1109451843213     0.947358090878472    -15.9918723444509    0.947358090878472    -15.9918723444509    0.275853577826658    71.1109451843213     
42.8257860670183     0.278238496256853    70.9865577051771     0.946637224538871    -16.134149059818     0.946637224538871    -16.134149059818     0.278238496256853    70.9865577051771     
43.2289248020981     0.280640623768096    70.8609166518319     0.945904932177545    -16.2775549841663    0.945904932177545    -16.2775549841663    0.280640623768096    70.8609166518319     
43.635858466697      0.283059994664328    70.734017549059      0.94516105264556     -16.4220955377237    0.94516105264556     -16.4220955377237    0.283059994664328    70.734017549059      
44.0466227842243     0.285496640792384    70.605855982691      0.94440542340421     -16.567776071852     0.94440542340421     -16.567776071852     0.285496640792384    70.605855982691      
44.4612538143701     0.287950591472528    70.4764276026431     0.943637880546014    -16.7146018660854    0.943637880546014    -16.7146018660854    0.287950591472528    70.4764276026431     
44.879787956271      0.290421873428199    70.3457281259894     0.942858258817104    -16.8625781251168    0.942858258817104    -16.8625781251168    0.290421873428199    70.3457281259894     
45.3022619517052     0.292910510714987    70.2137533400906     0.942066391641201    -17.0117099757304    0.942066391641201    -17.0117099757304    0.292910510714987    70.2137533400906     
45.7287128883182     0.2954165246489      70.0804991057725     0.941262111145198    -17.1620024636841    0.941262111145198    -17.1620024636841    0.2954165246489      70.0804991057725     
46.1591782028784     0.297939933733884    69.9459613605575     0.940445248186247    -17.3134605505378    0.940445248186247    -17.3134605505378    0.297939933733884    69.9459613605575     
46.5936956845637     0.300480753588688    69.8101361219471     0.939615632380582    -17.4660891104317    0.939615632380582    -17.4660891104317    0.300480753588688    69.8101361219471     
47.0323034782788     0.303038996873084    69.6730194907529     0.938773092134002    -17.6198929268124    0.938773092134002    -17.6198929268124    0.303038996873084    69.6730194907529     
47.4750400880039     0.30561467321347     69.5346076544814     0.937917454674067    -17.774876689109     0.937917454674067    -17.774876689109     0.30561467321347     69.5346076544814     
47.9219443801748     0.308207789127911    69.3948968907648     0.937048546084096    -17.9310449893588    0.937048546084096    -17.9310449893588    0.308207789127911    69.3948968907648     
48.3730555870948     0.310818347950635    69.2538835708439     0.936166191338931    -18.0884023187831    0.936166191338931    -18.0884023187831    0.310818347950635    69.2538835708439     
48.8284133103789     0.313446349756044    69.111564163097      0.935270214342587    -18.2469530643146    0.935270214342587    -18.2469530643146    0.313446349756044    69.111564163097      
49.2880575244302     0.316091791282288    68.9679352366182     0.934360437967737    -18.4067015050766    0.934360437967737    -18.4067015050766    0.316091791282288    68.9679352366182     
49.7520285799491     0.318754665854422    68.8229934648409     0.933436684097188    -18.5676518088151    0.933436684097188    -18.5676518088151    0.318754665854422    68.8229934648409     
50.2203672074758     0.321434963307216    68.6767356292095     0.932498773667213    -18.7298080282836    0.932498773667213    -18.7298080282836    0.321434963307216    68.6767356292095     
50.6931145209655     0.324132669907675    68.5291586228922     0.931546526712994    -18.8931740975846    0.931546526712994    -18.8931740975846    0.324132669907675    68.5291586228922     
51.1703120213981     0.326847768277303    68.380259454541      0.930579762416004    -19.0577538284648    0.930579762416004    -19.0577538284648    0.326847768277303    68.380259454541      
51.652001600421      0.329580237314174    68.2300352520934     0.929598299153518    -19.2235509065682    0.929598299153518    -19.2235509065682    0.329580237314174    68.2300352520934     
52.1382255440271     0.332330052114878    68.0784832666143     0.928601954550133    -19.3905688876473    0.928601954550133    -19.3905688876473    0.332330052114878    68.0784832666143     
52.6290265362665     0.3350971838964      67.9256008761778     0.92759054553157     -19.5588111937348    0.92759054553157     -19.5588111937348    0.3350971838964      67.9256008761778     
53.1244476629941     0.33788159991797     67.7713855897903     0.926563888380453    -19.7282811092736    0.926563888380453    -19.7282811092736    0.33788159991797     67.7713855897903     
53.6245324156513     0.340683263403018    67.6158350513459     0.925521798794453    -19.8989817772136    0.925521798794453    -19.8989817772136    0.340683263403018    67.6158350513459     
54.1293246950846     0.343502133461196    67.458947043622      0.924464091946521    -20.0709161950682    0.924464091946521    -20.0709161950682    0.343502133461196    67.458947043622      
54.6388688153993     0.346338165010666    67.3007194923047     0.923390582547458    -20.2440872109406    0.923390582547458    -20.2440872109406    0.346338165010666    67.3007194923047     
55.1532095078495     0.349191308700613    67.1411504700476     0.922301084910714    -20.418497519515     0.922301084910714    -20.418497519515     0.349191308700613    67.1411504700476     
55.6723919247652     0.352061510834145    66.9802382005597     0.921195413019507    -20.5941496580204    0.921195413019507    -20.5941496580204    0.352061510834145    66.9802382005597     
56.1964616435159     0.354948713291595    66.8179810627222     0.920073380596243    -20.7710460021633    0.920073380596243    -20.7710460021633    0.354948713291595    66.8179810627222     
56.7254646705118     0.357852853454388    66.6543775947281     0.918934801174298    -20.949188762038     0.918934801174298    -20.949188762038     0.357852853454388    66.6543775947281     
57.2594474452425     0.36077386412943     66.4894264982489     0.917779488172136    -21.1285799780083    0.917779488172136    -21.1285799780083    0.36077386412943     66.4894264982489     
57.7984568443536     0.363711673474283    66.323126642618      0.916607254969834    -21.3092215165742    0.916607254969834    -21.3092215165742    0.363711673474283    66.323126642618      
58.3425401857624     0.366666204923028    66.1554770690352     0.915417914987954    -21.4911150662139    0.915417914987954    -21.4911150662139    0.366666204923028    66.1554770690352     
58.8917452328111     0.36963737711307     65.9864769947861     0.914211281768842    -21.6742621332138    0.914211281768842    -21.6742621332138    0.36963737711307     65.9864769947861     
59.4461201984602     0.372625103812867    65.8161258174732     0.912987169060327    -21.8586640374833    0.912987169060327    -21.8586640374833    0.372625103812867    65.8161258174732     
60.005713749521      0.375629293850748    65.6444231192599     0.911745390901825    -22.0443219083594    0.911745390901825    -22.0443219083594    0.375629293850748    65.6444231192599     
60.5705750109276     0.37864985104489     65.4713686711179     0.910485761712859    -22.2312366804039    0.910485761712859    -22.2312366804039    0.37864985104489     65.4713686711179     
61.1407535700498     0.381686674134561    65.2969624370816     0.909208096383985    -22.4194090891955    0.909208096383985    -22.4194090891955    0.381686674134561    65.2969624370816     
61.7162994810457     0.384739656712759    65.1212045785023     0.907912210370162    -22.6088396671224    0.907912210370162    -22.6088396671224    0.384739656712759    65.1212045785023     
62.2972632692564     0.387808687160308    64.9440954582987     0.906597919786472    -22.7995287391751    0.906597919786472    -22.7995287391751    0.387808687160308    64.9440954582987     
62.8836959356412     0.390893648581567    64.7656356452032     0.905265041506277    -22.9914764187457    0.905265041506277    -22.9914764187457    0.390893648581567    64.7656356452032     
63.4756489612546     0.393994418741835    64.5858259179975     0.903913393261709    -23.1846826034362    0.903913393261709    -23.1846826034362    0.393994418741835    64.5858259179975     
64.0731743117658     0.397110870006566    64.4046672697357     0.902542793746551    -23.3791469708794    0.902542793746551    -23.3791469708794    0.397110870006566    64.4046672697357     
64.6763244420208     0.400242869282556    64.2221609119492     0.901153062721456    -23.5748689745769    0.901153062721456    -23.5748689745769    0.400242869282556    64.2221609119492     
65.2851523006471     0.403390277961141    64.0383082788315     0.899744021121457    -23.7718478397576    0.899744021121457    -23.7718478397576    0.403390277961141    64.0383082788315     
65.8997113347018     0.406552951863594    63.8531110313978     0.898315491165763    -23.9700825592601    0.898315491165763    -23.9700825592601    0.406552951863594    63.8531110313978     
66.5200554943636     0.409730741188789    63.6665710616158     0.896867296469802    -24.1695718894438    0.896867296469802    -24.1695718894438    0.409730741188789    63.6665710616158     
67.1462392376689     0.412923490463332    63.4786904965018     0.895399262159471    -24.3703143461351    0.895399262159471    -24.3703143461351    0.412923490463332    63.4786904965018     
67.7783175352928     0.416131038494155    63.2894717021809     0.893911214987564    -24.5723082006072    0.893911214987564    -24.5723082006072    0.416131038494155    63.2894717021809     
68.4163458753741     0.419353218323854    63.0989172879026     0.892402983452278    -24.7755514756059    0.892402983452278    -24.7755514756059    0.419353218323854    63.0989172879026     
69.0603802683873     0.422589857188743    62.9070301100128     0.890874397917812    -24.980041941418     0.890874397917812    -24.980041941418     0.422589857188743    62.9070301100128     
69.7104772520588     0.425840776479886    62.7138132758697     0.889325290736963    -25.1857771119943    0.889325290736963    -25.1857771119943    0.425840776479886    62.7138132758697     
70.3666938963308     0.429105791707112    62.5192701477085     0.887755496375662    -25.3927542411245    0.887755496375662    -25.3927542411245    0.429105791707112    62.5192701477085     
71.0290878083708     0.432384712466246    62.323404346441      0.886164851539377    -25.6009703186774    0.886164851539377    -25.6009703186774    0.432384712466246    62.323404346441      
71.6977171376289     0.435677342409599    62.1262197553913     0.88455319530132     -25.8104220669027    0.88455319530132     -25.8104220669027    0.435677342409599    62.1262197553913     
72.3726405809429     0.438983479219901    61.9277205239587     0.882920369232394    -26.0211059368062    0.882920369232394    -26.0211059368062    0.438983479219901    61.9277205239587     
73.0539173876904     0.44230291458776     61.7279110712063     0.881266217532744    -26.2330181045995    0.881266217532744    -26.2330181045995    0.44230291458776     61.7279110712063     
73.7416073649908     0.445635434192814    61.526796089366      0.879590587164892    -26.446154468231     0.879590587164892    -26.446154468231     0.445635434192814    61.526796089366      
74.4357708829553     0.448980817688661    61.3243805472584     0.877893327988294    -26.6605106440041    0.877893327988294    -26.6605106440041    0.448980817688661    61.3243805472584     
75.1364688799866     0.452338838691715    61.1206696936203     0.876174292895295    -26.8760819632851    0.876174292895295    -26.8760819632851    0.452338838691715    61.1206696936203     
75.8437628681283     0.455709264774104    60.9156690603331     0.874433337948306    -27.0928634693103    0.874433337948306    -27.0928634693103    0.455709264774104    60.9156690603331     
76.5577149384653     0.45909185746072     60.7093844655518     0.872670322518108    -27.310849914094     0.872670322518108    -27.310849914094     0.45909185746072     60.7093844655518     
77.278387766574      0.462486372230568    60.5018220167214     0.870885109423232    -27.5300357554452    0.870885109423232    -27.5300357554452    0.462486372230568    60.5018220167214     
78.0058446180249     0.46589255852247     60.2929881134832     0.869077565070178    -27.7504151540969    0.869077565070178    -27.7504151540969    0.46589255852247     60.2929881134832     
78.7401493539365     0.469310159745312    60.0828894504603     0.867247559594479    -27.971981970955     0.867247559594479    -27.971981970955     0.469310159745312    60.0828894504603     
79.4813664365808     0.472738913292892    59.8715330199167     0.865394967002325    -28.194729764472     0.865394967002325    -28.194729764472     0.472738913292892    59.8715330199167     
80.2295609350431     0.47617855056348     59.6589261142891     0.863519665312774    -28.4186517881492    0.863519665312774    -28.4186517881492    0.47617855056348     59.6589261142891     
80.9847985309333     0.47962879698422     59.4450763285797     0.861621536700287    -28.6437409881758    0.861621536700287    -28.6437409881758    0.47962879698422     59.4450763285797     
81.747145524153      0.48308937204045     59.2299915626093     0.859700467637472    -28.8699900012094    0.859700467637472    -28.8699900012094    0.48308937204045     59.2299915626093     
82.5166688387145     0.486559989310039    59.0136800231224     0.857756349037916    -29.0973911523019    0.857756349037916    -29.0973911523019    0.486559989310039    59.0136800231224     
83.293436028617      0.490040356502814    58.796150225741      0.855789076398875    -29.3259364529775    0.855789076398875    -29.3259364529775    0.490040356502814    58.796150225741      
84.0775152837761     0.493530175505214    58.5774109967586     0.853798549943768    -29.5556175994697    0.853798549943768    -29.5556175994697    0.493530175505214    58.5774109967586     
84.8689754360105     0.497029142430202    58.3574714747723     0.851784674764192    -29.78642597112      0.851784674764192    -29.78642597112      0.497029142430202    58.3574714747723     
85.6678859650842     0.500536947672497    58.1363411121459     0.849747360961362    -30.0183526289449    0.849747360961362    -30.0183526289449    0.500536947672497    58.1363411121459     
86.474317004806      0.504053275969278    57.9140296762974     0.847686523786759    -30.2513883143777    0.847686523786759    -30.2513883143777    0.504053275969278    57.9140296762974     
87.2883393491865     0.507577806466298    57.6905472508111     0.845602083781857    -30.4855234481863    0.845602083781857    -30.4855234481863    0.507577806466298    57.6905472508111     
88.1100244586526     0.511110212789593    57.4659042363609     0.843493966916646    -30.7207481295786    0.843493966916646    -30.7207481295786    0.511110212789593    57.4659042363609     
88.9394444663211     0.514650163122721    57.2401113514478     0.84136210472691     -30.957052135493     0.84136210472691     -30.957052135493     0.514650163122721    57.2401113514478     
89.7766721843308     0.518197320289648    57.0131796329421     0.839206434449893    -31.1944249200845    0.839206434449893    -31.1944249200845    0.518197320289648    57.0131796329421     
90.6217811102343     0.521751341843296    56.7851204364265     0.837026899158338    -31.432855614409     0.837026899158338    -31.432855614409     0.521751341843296    56.7851204364265     
91.4748454334505     0.525311880159751    56.5559454363365     0.834823447892559    -31.6723330263102    0.834823447892559    -31.6723330263102    0.525311880159751    56.5559454363365     
92.3359400417773     0.528878582538166    56.325666625894      0.832596035790394    -31.9128456405117    0.832596035790394    -31.9128456405117    0.528878582538166    56.325666625894      
93.2051405279657     0.532451091306423    56.0942963168255     0.830344624214919    -32.1543816189259    0.830344624214919    -32.1543816189259    0.532451091306423    56.0942963168255     
94.0825231963558     0.536029043932432    55.861847138869      0.828069180879524    -32.3969288011724    0.828069180879524    -32.3969288011724    0.536029043932432    55.861847138869      
94.9681650695755     0.539612073141181    55.6283320390576     0.825769679970395    -32.6404747053195    0.825769679970395    -32.6404747053195    0.539612073141181    55.6283320390576     
95.8621438953019     0.543199807037443    55.3937642807809     0.823446102265995    -32.8850065288475    0.823446102265995    -32.8850065288475    0.543199807037443    55.3937642807809     
96.7645381530867     0.546791869234164    55.1581574426193     0.821098435253392    -33.1305111498388    0.821098435253392    -33.1305111498388    0.546791869234164    55.1581574426193     
97.6754270612454     0.550387878986454    54.9215254169475     0.818726673241327    -33.376975128398     0.818726673241327    -33.376975128398     0.550387878986454    54.9215254169475     
98.5948905838117     0.553987451331145    54.6838824083064     0.816330817469643    -33.6243847083036    0.816330817469643    -33.6243847083036    0.553987451331145    54.6838824083064     
99.5230094375578     0.557590197231896    54.4452429315378     0.813910876215028    -33.872725818896     0.813910876215028    -33.872725818896     0.557590197231896    54.4452429315378     
100.459865099079     0.561195723729722    54.205621809681      0.811466864892758    -34.1219840772028    0.811466864892758    -34.1219840772028    0.561195723729722    54.205621809681      
101.405539811949     0.564803634098917    53.9650341716299     0.80899880615429     -34.3721447903042    0.80899880615429     -34.3721447903042    0.564803634098917    53.9650341716299     
102.360116593935     0.568413528008263    53.7234954495474     0.806506729980523    -34.6231929579399    0.806506729980523    -34.6231929579399    0.568413528008263    53.7234954495474     
103.323679244291     0.572025001687442    53.4810213760343     0.803990673770427    -34.8751132753603    0.803990673770427    -34.8751132753603    0.572025001687442    53.4810213760343     
104.29631235111      0.575637648098505    53.2376279810572     0.801450682424967    -35.1278901364201    0.801450682424967    -35.1278901364201    0.575637648098505    53.2376279810572     
105.278101298753     0.579251057112355    52.9933315886259     0.798886808426077    -35.3815076369198    0.798886808426077    -35.3815076369198    0.579251057112355    52.9933315886259     
106.269132275342     0.582864815690061    52.7481488132253     0.796299111910461    -35.6359495781935    0.796299111910461    -35.6359495781935    0.582864815690061    52.7481488132253     
107.269492280327     0.58647850806883     52.5020965560046     0.793687660738113    -35.8911994709392    0.793687660738113    -35.8911994709392    0.58647850806883     52.5020965560046     
108.279269132126     0.590091715952626    52.2551920007113     0.791052530555284    -36.1472405393013    0.791052530555284    -36.1472405393013    0.590091715952626    52.2551920007113     
109.298551475829     0.593704018707094    52.0074526093876     0.788393804851849    -36.4040557251943    0.788393804851849    -36.4040557251943    0.593704018707094    52.0074526093876     
110.327428790983     0.597314993558793    51.7588961178144     0.785711575012742    -36.6616276928742    0.785711575012742    -36.6616276928742    0.597314993558793    51.7588961178144     
111.36599139945      0.60092421579843     51.5095405307148     0.78300594036346     -36.9199388337528    0.78300594036346     -36.9199388337528    0.60092421579843     51.5095405307148     
112.414330473331     0.604531258987979    51.2594041167121     0.78027700820939     -37.1789712714551    0.78027700820939     -37.1789712714551    0.604531258987979    51.2594041167121     
113.47253804297      0.608135695171498    51.0085054030471     0.777524893868811    -37.4387068671186    0.777524893868811    -37.4387068671186    0.608135695171498    51.0085054030471     
114.540707005037     0.611737095089334    50.7568631700583     0.774749720699488    -37.6991272249269    0.774749720699488    -37.6991272249269    0.611737095089334    50.7568631700583     
115.618931130682     0.615335028395661    50.5044964454223     0.77195162011866     -37.9602136978849    0.77195162011866     -37.9602136978849    0.615335028395661    50.5044964454223     
116.707305073763     0.618929063878994    50.2514244981634     0.769130731616377    -38.2219473938225    0.769130731616377    -38.2219473938225    0.618929063878994    50.2514244981634     
117.80592437916      0.622518769685498    49.9976668324321     0.766287202761991    -38.4843091816298    0.766287202761991    -38.4843091816298    0.622518769685498    49.9976668324321     
118.91488549116      0.62610371354486     49.7432431810577     0.76342118920377     -38.7472796977165    0.76342118920377     -38.7472796977165    0.62610371354486     49.7432431810577     
120.034285761923     0.62968346299848     49.4881734988776     0.760532854661502    -39.0108393526961    0.760532854661502    -39.0108393526961    0.62968346299848     49.4881734988776     
121.164223460032     0.633257585629676    49.2324779558505     0.757622370911998    -39.2749683382828    0.757622370911998    -39.2749683382828    0.633257585629676    49.2324779558505     
122.304797779115     0.636825649295708    48.9761769299559     0.754689917767494    -39.539646634404     0.754689917767494    -39.539646634404     0.636825649295708    48.9761769299559     
123.456108846558     0.640387222361347    48.7192909998842     0.751735683046775    -39.8048540165197    0.751735683046775    -39.8048540165197    0.640387222361347    48.7192909998842     
124.618257732287     0.643941873933618    48.4618409375289     0.748759862539099    -40.0705700631405    0.748759862539099    -40.0705700631405    0.643941873933618    48.4618409375289     
125.791346457651     0.647489174097606    48.2038477002787     0.745762659960756    -40.3367741635444    0.745762659960756    -40.3367741635444    0.647489174097606    48.2038477002787     
126.975478004368     0.651028694152903    47.9453324231206     0.742744286904398    -40.6034455256818    0.742744286904398    -40.6034455256818    0.651028694152903    47.9453324231206     
128.170756323574     0.65456000685047     47.6863164105616     0.739704962780906    -40.8705631842622    0.739704962780906    -40.8705631842622    0.65456000685047     47.6863164105616     
129.377286344941     0.658082686629615    47.4268211283716     0.736644914754055    -41.1381060090169    0.736644914754055    -41.1381060090169    0.658082686629615    47.4268211283716     
130.595173985895     0.66159630985479     47.1668681951601     0.733564377667751    -41.4060527131301    0.733564377667751    -41.4060527131301    0.66159630985479     47.1668681951601     
131.82452616091      0.665100455051941    46.9064793737878     0.730463593966001    -41.6743818618325    0.730463593966001    -41.6743818618325    0.665100455051941    46.9064793737878     
133.065450790895     0.668594703144062    46.6456765626268     0.727342813605645    -41.9430718811452    0.727342813605645    -41.9430718811452    0.668594703144062    46.6456765626268     
134.318056812667     0.672078637685685    46.3844817866775     0.724202293961836    -42.2121010667679    0.724202293961836    -42.2121010667679    0.672078637685685    46.3844817866775     
135.582454188517     0.675551845096034    46.1229171885435     0.72104229972637     -42.4814475931069    0.72104229972637     -42.4814475931069    0.675551845096034    46.1229171885435     
136.85875391586      0.67901391489051     45.8610050192821     0.717863102798971    -42.7510895224278    0.717863102798971    -42.7510895224278    0.67901391489051     45.8610050192821     
138.147068036981     0.682464439910195    45.5987676291346     0.714664982171552    -43.0210048141263    0.714664982171552    -43.0210048141263    0.682464439910195    45.5987676291346     
139.44750964887      0.685903016549171    45.3362274581444     0.7114482238056      -43.2911713341114    0.7114482238056      -43.2911713341114    0.685903016549171    45.3362274581444     
140.760192913152     0.689329244979222    45.0734070266786     0.708213120502799    -43.561566864285     0.708213120502799    -43.561566864285     0.689329244979222    45.0734070266786     
142.085233066105     0.692742729371774    44.810328925853      0.704959971768957    -43.8321691121146    0.704959971768957    -43.8321691121146    0.692742729371774    44.810328925853      
143.422746428783     0.696143078116687    44.54701580788       0.701689083671482    -44.1029557202859    0.701689083671482    -44.1029557202859    0.696143078116687    44.54701580788       
144.772850417218     0.699529904037668    44.2834903763421     0.698400768690429    -44.3739042764253    0.698400768690429    -44.3739042764253    0.699529904037668    44.2834903763421     
146.135663552738     0.702902824604024    44.0197753764044     0.695095345563386    -44.6449923228857    0.695095345563386    -44.6449923228857    0.702902824604024    44.0197753764044     
147.511305472364     0.706261462138436    43.7558935849779     0.691773139124312    -44.9161973665784    0.691773139124312    -44.9161973665784    0.706261462138436    43.7558935849779     
148.899896939314     0.709605444020583    43.4918678008384     0.688434480136509    -45.1874968888493    0.688434480136509    -45.1874968888493    0.709605444020583    43.4918678008384     
150.301559853609     0.712934402886301    43.2277208347144     0.685079705119954    -45.458868355385     0.685079705119954    -45.458868355385     0.712934402886301    43.2277208347144     
151.716417262766     0.716247976821983    42.9634754993596     0.68170915617317     -45.7302892261339    0.68170915617317     -45.7302892261339    0.716247976821983    42.9634754993596     
153.144593372609     0.719545809554111    42.6991545996077     0.678323180789861    -46.0017369652433    0.678323180789861    -46.0017369652433    0.719545809554111    42.6991545996077     
154.586213558166     0.722827550633538    42.434780922434      0.674922131670509    -46.2731890509884    0.674922131670509    -46.2731890509884    0.722827550633538    42.434780922434      
156.041404374678     0.726092855614407    42.1703772270247     0.671506366529185    -46.5446229856943    0.671506366529185    -46.5446229856943    0.726092855614407    42.1703772270247     
157.510293568708     0.729341386227426    41.9059662348682     0.668076247895834    -46.8160163056325    0.668076247895834    -46.8160163056325    0.729341386227426    41.9059662348682     
158.993010089357     0.732572810547365    41.6415706198765     0.664632142914223    -47.0873465908881    0.664632142914223    -47.0873465908881    0.732572810547365    41.6415706198765     
160.489684099582     0.735786803154452    41.3772129985535     0.661174423135871    -47.3585914751784    0.661174423135871    -47.3585914751784    0.735786803154452    41.3772129985535     
162.000446987624     0.738983045289682    41.1129159202073     0.657703464310138    -47.6297286556258    0.657703464310138    -47.6297286556258    0.738983045289682    41.1129159202073     
163.525431378541     0.742161225003654    40.8487018572331     0.654219646170866    -47.9007359024599    0.654219646170866    -47.9007359024599    0.742161225003654    40.8487018572331     
165.064771145852     0.745321037298952    40.5845931954623     0.6507233522197      -48.1715910686513    0.6507233522197      -48.1715910686513    0.745321037298952    40.5845931954623     
166.61860142329      0.748462184265784    40.3206122245984     0.647214969506466    -48.4422720994586    0.647214969506466    -48.4422720994586    0.748462184265784    40.3206122245984     
168.18705861666      0.751584375210878    40.05678112874       0.643694888406853    -48.7127570418848    0.643694888406853    -48.7127570418848    0.751584375210878    40.05678112874       
169.770280415821     0.754687326779358    39.7931219770105     0.640163502397686    -48.9830240540284    0.640163502397686    -48.9830240540284    0.754687326779358    39.7931219770105     
171.368405806769     0.75777076306966     39.5296567142926     0.636621207830057    -49.2530514143265    0.636621207830057    -49.2530514143265    0.75777076306966     39.5296567142926     
172.981575083837     0.760834415741201    39.2664071520895     0.633068403700652    -49.5228175306704    0.633068403700652    -49.5228175306704    0.760834415741201    39.2664071520895     
174.609929862014     0.763878024114914    39.0033949595076     0.629505491421514    -49.7923009493985    0.629505491421514    -49.7923009493985    0.763878024114914    39.0033949595076     
176.253613089376     0.766901335266398    38.7406416543822     0.625932874588541    -50.0614803641443    0.625932874588541    -50.0614803641443    0.766901335266398    38.7406416543822     
177.912769059634     0.769904104111729    38.4781685945474     0.622350958749083    -50.3303346245388    0.622350958749083    -50.3303346245388    0.769904104111729    38.4781685945474     
179.587543424804     0.772886093485884    38.2159969692571     0.618760151168791    -50.5988427447608    0.618760151168791    -50.5988427447608    0.772886093485884    38.2159969692571     
181.278083207986     0.775847074213668    37.9541477907716     0.615160860598134    -50.8669839119192    0.615160860598134    -50.8669839119192    0.775847074213668    37.9541477907716     
182.984536816282     0.778786825173207    37.6926418861123     0.611553497038835    -51.1347374942665    0.611553497038835    -51.1347374942665    0.778786825173207    37.6926418861123     
184.707054053814     0.781705133351952    37.4314998889908     0.607938471510464    -51.402083049235     0.607938471510464    -51.402083049235     0.781705133351952    37.4314998889908     
186.44578613488      0.784601793895207    37.1707422319239     0.604316195817543    -51.6690003312867    0.604316195817543    -51.6690003312867    0.784601793895207    37.1707422319239     
188.200885697227     0.78747661014721     36.9103891385368     0.600687082317402    -51.9354692995718    0.600687082317402    -51.9354692995718    0.78747661014721     36.9103891385368     
189.972506815451     0.790329393684777    36.6504606160636     0.597051543689068    -52.2014701253902    0.597051543689068    -52.2014701253902    0.790329393684777    36.6504606160636     
191.760805014524     0.793159964343571    36.3909764480488     0.593409992703461    -52.4669831994473    0.593409992703461    -52.4669831994473    0.793159964343571    36.3909764480488     
193.565937283444     0.795968150237017    36.1319561872566     0.589762841995146    -52.7319891389024    0.589762841995146    -52.7319891389024    0.795968150237017    36.1319561872566     
195.38806208902      0.798753787767976    35.8734191487934     0.586110503835969    -52.9964687942009    0.586110503835969    -52.9964687942009    0.798753787767976    35.8734191487934     
197.22733938978      0.801516721633204    35.6153844034465     0.582453389910721    -53.2604032556881    0.582453389910721    -53.2604032556881    0.801516721633204    35.6153844034465     
199.083930650016     0.804256804820702    35.3578707712464     0.578791911095165    -53.5237738599975    0.578791911095165    -53.5237738599975    0.804256804820702    35.3578707712464     
200.957998853957     0.806973898600091    35.1008968152523     0.575126477236643    -53.7865621962143    0.575126477236643    -53.7865621962143    0.806973898600091    35.1008968152523     
202.849708520077     0.809667872506032    34.84448083557       0.571457496937483    -54.048750111803     0.571457496937483    -54.048750111803     0.809667872506032    34.84448083557       
204.759225715538     0.812338604314897    34.5886408636012     0.567785377341436    -54.310319718302     0.567785377341436    -54.310319718302     0.812338604314897    34.5886408636012     
206.686718070768     0.814985980014773    34.3333946565277     0.564110523923376    -54.5712533967809    0.564110523923376    -54.5712533967809    0.814985980014773    34.3333946565277     
208.632354794177     0.817609893768924    34.0787596920367     0.560433340282444    -54.8315338030543    0.560433340282444    -54.8315338030543    0.817609893768924    34.0787596920367     
210.596306687012     0.820210247872907    33.8247531632818     0.55675422793887     -55.0911438726566    0.55675422793887     -55.0911438726566    0.820210247872907    33.8247531632818     
212.578746158349     0.822786952705405    33.5713919740925     0.553073586134628    -55.3500668255665    0.553073586134628    -55.3500668255665    0.822786952705405    33.5713919740925     
214.57984724023      0.825339926673039    33.3186927344215     0.549391811638143    -55.6082861706904    0.549391811638143    -55.6082861706904    0.825339926673039    33.3186927344215     
216.599785602942     0.82786909614925     33.0666717560394     0.545709298553159    -55.8657857100956    0.545709298553159    -55.8657857100956    0.82786909614925     33.0666717560394     
218.638738570434     0.83037439540745     32.8153450484746     0.542026438132031    -56.1225495429958    0.542026438132031    -56.1225495429958    0.83037439540745     32.8153450484746     
220.696885135889     0.832855766548596    32.5647283152005     0.538343618593491    -56.3785620694859    0.538343618593491    -56.3785620694859    0.832855766548596    32.5647283152005     
222.774405977434     0.835313159423457    32.3148369500626     0.534661224945082    -56.6338079940331    0.534661224945082    -56.6338079940331    0.835313159423457    32.3148369500626     
224.871483474        0.837746531549603    32.0656860339599     0.530979638810402    -56.8882723287124    0.530979638810402    -56.8882723287124    0.837746531549603    32.0656860339599     
226.988301721338     0.840155848023487    31.8172903317623     0.527299238261233    -57.1419403961998    0.527299238261233    -57.1419403961998    0.840155848023487    31.8172903317623     
229.125046548173     0.842541081427681    31.5696642894778     0.523620397654722    -57.3947978325153    0.523620397654722    -57.3947978325153    0.842541081427681    31.5696642894778     
231.281905532524     0.844902211733548    31.3228220316584     0.519943487475677    -57.6468305895216    0.519943487475677    -57.6468305895216    0.844902211733548    31.3228220316584     
233.459068018166     0.847239226199502    31.0767773590484     0.516268874184084    -57.8980249371768    0.516268874184084    -57.8980249371768    0.847239226199502    31.0767773590484     
235.656725131254     0.849552119265094    30.8315437464719     0.512596920067914    -58.1483674655451    0.512596920067914    -58.1483674655451    0.849552119265094    30.8315437464719     
237.875069797101     0.851840892441128    30.5871343409545     0.508927983101328    -58.3978450865684    0.508927983101328    -58.3978450865684    0.851840892441128    30.5871343409545     
240.114296757115     0.854105554195983    30.3435619600825     0.505262416808296    -58.6464450355963    0.505262416808296    -58.6464450355963    0.854105554195983    30.3435619600825     
242.374602585892     0.856346119838403    30.1008390905911     0.501600570131701    -58.8941548726825    0.501600570131701    -58.8941548726825    0.856346119838403    30.1008390905911     
244.656185708477     0.858562611396936    29.8589778871802     0.497942787307968    -59.1409624836514    0.497942787307968    -59.1409624836514    0.858562611396936    29.8589778871802     
246.959246417781     0.860755057496218    29.6179901715587     0.494289407747278    -59.3868560809271    0.494289407747278    -59.3868560809271    0.860755057496218    29.6179901715587     
249.283986892161     0.862923493230347    29.377887431707      0.490640765919327    -59.6318242041446    0.490640765919327    -59.6318242041446    0.862923493230347    29.377887431707      
251.630611213174     0.865067960033538    29.1386808213585     0.486997191244727    -59.8758557205328    0.486997191244727    -59.8758557205328    0.865067960033538    29.1386808213585     
253.99932538349      0.867188505548261    28.9003811596971     0.48335900799195     -60.118939825079     0.48335900799195     -60.118939825079     0.867188505548261    28.9003811596971     
256.390337344975     0.869285183491085    28.6629989312605     0.479726535179935    -60.3610660404804    0.479726535179935    -60.3610660404804    0.869285183491085    28.6629989312605     
258.803856996947     0.871358053516425    28.4265442860536     0.476100086486248    -60.6022242168817    0.476100086486248    -60.6022242168817    0.871358053516425    28.4265442860536     
261.240096214606     0.873407181078391    28.1910270398599     0.47247997016079     -60.8424045314076    0.47247997016079     -60.8424045314076    0.873407181078391    28.1910270398599     
263.699268867626     0.875432637290943    27.9564566747515     0.46886648894511     -61.0815974874914    0.46886648894511     -61.0815974874914    0.875432637290943    27.9564566747515     
266.181590838936     0.877434498786551    27.7228423397897     0.465259939997143    -61.319793914006     0.465259939997143    -61.319793914006     0.877434498786551    27.7228423397897     
268.68728004367      0.879412847573563    27.4901928519129     0.461660614821456    -61.5569849642025    0.461660614821456    -61.5569849642025    0.879412847573563    27.4901928519129     
271.216556448296     0.881367770892434    27.2585166970073     0.45806879920491     -61.7931621144579    0.45806879920491     -61.7931621144579    0.881367770892434    27.2585166970073     
273.769642089927     0.883299361071054    27.0278220311541     0.454484773157642    -62.0283171628397    0.454484773157642    -62.0283171628397    0.883299361071054    27.0278220311541     
276.346761095815     0.885207715379322    26.7981166820477     0.450908810859365    -62.2624422274935    0.450908810859365    -62.2624422274935    0.885207715379322    26.7981166820477     
278.948139703022     0.88709293588316     26.5694081505813     0.447341180610887    -62.4955297448534    0.447341180610887    -62.4955297448534    0.88709293588316     26.5694081505813     
281.574006278285     0.888955129298131    26.3417036125932     0.443782144790775    -62.7275724676855    0.443782144790775    -62.7275724676855    0.888955129298131    26.3417036125932     
284.224591338061     0.890794406842835    26.1150099207691     0.440231959817073    -62.9585634629673    0.440231959817073    -62.9585634629673    0.890794406842835    26.1150099207691     
286.900127568764     0.89261088409226     25.889333606694      0.436690876114034    -63.1884961096081    0.436690876114034    -63.1884961096081    0.89261088409226     25.889333606694      
289.60084984719      0.894404680831218    25.6646808830501     0.433159138083716    -63.4173640960145    0.433159138083716    -63.4173640960145    0.894404680831218    25.6646808830501     
292.326995261141     0.896175920908057    25.4410576459518     0.429636984082385    -63.6451614175113    0.429636984082385    -63.6451614175113    0.896175920908057    25.4410576459518     
295.078803130233     0.897924732088763    25.2184694774165     0.426124646401617    -63.8718823736151    0.426124646401617    -63.8718823736151    0.897924732088763    25.2184694774165     
297.856515026908     0.899651245911612    24.9969216479635     0.422622351254016    -64.0975215651703    0.422622351254016    -64.0975215651703    0.899651245911612    24.9969216479635     
300.660374797639     0.901355597542543    24.7764191193323     0.41913031876338     -64.322073891357     0.41913031876338     -64.322073891357     0.901355597542543    24.7764191193323     
303.490628584338     0.903037925631294    24.5569665473232     0.415648762959304    -64.5455345465625    0.415648762959304    -64.5455345465625    0.903037925631294    24.5569665473232     
306.347524845965     0.904698372168553    24.3385682847441     0.412177891775996    -64.7678990171388    0.412177891775996    -64.7678990171388    0.904698372168553    24.3385682847441     
309.231314380335     0.906337082344127    24.1212283844667     0.408717907055311    -64.9891630780368    0.408717907055311    -64.9891630780368    0.906337082344127    24.1212283844667     
312.14225034614      0.907954204406332    23.9049506025826     0.405269004553761    -65.2093227893292    0.405269004553761    -65.2093227893292    0.907954204406332    23.9049506025826     
315.080588285171     0.909549889522672    23.6897384016531     0.401831373953509    -65.4283744926263    0.401831373953509    -65.4283744926263    0.909549889522672    23.6897384016531     
318.046586144749     0.911124291641912    23.475594954051      0.39840519887711     -65.6463148073877    0.39840519887711     -65.6463148073877    0.911124291641912    23.475594954051      
321.040504300371     0.912677567357672    23.2625231453845     0.394990656905965    -65.8631406271359    0.394990656905965    -65.8631406271359    0.912677567357672    23.2625231453845     
324.062605578571     0.914209875773612    23.0505255780021     0.391587919602323    -66.0788491155775    0.391587919602323    -66.0788491155775    0.914209875773612    23.0505255780021     
327.113155279986     0.915721378370297    22.8396045745705     0.388197152534714    -66.2934377026327    0.388197152534714    -66.2934377026327    0.915721378370297    22.8396045745705     
330.192421202652     0.917212238873842    22.6297621817218     0.384818515306697    -66.5069040803827    0.384818515306697    -66.5069040803827    0.917212238873842    22.6297621817218     
333.300673665509     0.918682623126399    22.4210001737644     0.381452161588778    -66.7192461989349    0.381452161588778    -66.7192461989349    0.918682623126399    22.4210001737644     
336.438185532134     0.920132698958568    22.2133200564531     0.37809823915341     -66.9304622622135    0.37809823915341     -66.9304622622135    0.920132698958568    22.2133200564531     
339.605232234691     0.921562636063792    22.0067230708124     0.374756889912919    -67.140550723676     0.374756889912919    -67.140550723676     0.921562636063792    22.0067230708124     
342.802091798118     0.922972605874805    21.8012101970106     0.371428249960237    -67.3495102819635    0.371428249960237    -67.3495102819635    0.922972605874805    21.8012101970106     
346.029044864524     0.924362781442185    21.5967821582771     0.368112449612316    -67.5573398764857    0.368112449612316    -67.5573398764857    0.924362781442185    21.5967821582771     
349.286374717834     0.925733337315075    21.3934394248598     0.364809613456143    -67.7640386829459    0.364809613456143    -67.7640386829459    0.925733337315075    21.3934394248598     
352.574367308654     0.927084449424088    21.1911822180203     0.361519860397144    -67.9696061088071    0.361519860397144    -67.9696061088071    0.927084449424088    21.1911822180203     
355.893311279372     0.928416294966496    20.9900105140567     0.358243303709964    -68.1740417887064    0.358243303709964    -68.1740417887064    0.928416294966496    20.9900105140567     
359.2434979895       0.92972905229367     20.7899240483572     0.354980051091398    -68.3773455798177    0.354980051091398    -68.3773455798177    0.92972905229367     20.7899240483572     
362.625221541253     0.93102290080087     20.5909223194744     0.351730204715453    -68.5795175571661    0.351730204715453    -68.5795175571661    0.93102290080087     20.5909223194744     
366.038778805361     0.932298020819373    20.3930045932175     0.348493861290342    -68.7805580088996    0.348493861290342    -68.7805580088996    0.932298020819373    20.3930045932175     
369.484469447135     0.933554593510972    20.1961699067631     0.345271112117341    -68.9804674315161    0.345271112117341    -68.9804674315161    0.933554593510972    20.1961699067631     
372.962595952775     0.934792800764885    20.0004170727738     0.342062043151386    -69.1792465250527    0.342062043151386    -69.1792465250527    0.934792800764885    20.0004170727738     
376.473463655921     0.936012825097062    19.8057446835253     0.338866735063307    -69.3768961882363    0.338866735063307    -69.3768961882363    0.936012825097062    19.8057446835253     
380.017380764456     0.937214849551931    19.612151115039      0.335685263303545    -69.5734175135998    0.335685263303545    -69.5734175135998    0.937214849551931    19.612151115039      
383.594658387569     0.938399057606578    19.4196345312122     0.332517698167312    -69.7688117825653    0.332517698167312    -69.7688117825653    0.938399057606578    19.4196345312122     
387.205610563058     0.939565633077367    19.2281928879481     0.329364104861046    -69.9630804604934    0.329364104861046    -69.9630804604934    0.939565633077367    19.2281928879481     
390.850554284907     0.940714760028995    19.0378239372799     0.326224543570058    -70.1562251917048    0.326224543570058    -70.1562251917048    0.940714760028995    19.0378239372799     
394.529809531106     0.941846622686022    18.8485252314824     0.323099069527284    -70.3482477944725    0.323099069527284    -70.3482477944725    0.941846622686022    18.8485252314824     
398.243699291747     0.942961405346801    18.6602941271768     0.319987733083047    -70.5391502559833    0.319987733083047    -70.5391502559833    0.942961405346801    18.6602941271768     
401.992549597372     0.944059292299884    18.4731277894159     0.316890579775711    -70.728934727277     0.316890579775711    -70.728934727277     0.944059292299884    18.4731277894159     
405.776689547602     0.945140467742811    18.2870231957554     0.313807650403159    -70.9176035181547    0.313807650403159    -70.9176035181547    0.945140467742811    18.2870231957554     
409.596451340021     0.946205115703354    18.1019771403025     0.31073898109499     -71.1051590920626    0.31073898109499     -71.1051590920626    0.946205115703354    18.1019771403025     
413.452170299342     0.94725341996312     17.9179862377428     0.307684603385351    -71.2916040609507    0.307684603385351    -71.2916040609507    0.94725341996312     17.9179862377428     
417.344184906842     0.948285563983566    17.735046927343      0.304644544286307    -71.4769411801032    0.304644544286307    -71.4769411801032    0.948285563983566    17.735046927343      
421.272836830078     0.949301730834359    17.5531554769245     0.301618826361698    -71.661173342943     0.301618826361698    -71.661173342943     0.949301730834359    17.5531554769245     
425.23847095288      0.950302103124076    17.3723079868094     0.29860746780136     -71.8443035758089    0.29860746780136     -71.8443035758089    0.950302103124076    17.3723079868094     
429.241435405627     0.951286862933231    17.1925003937336     0.295610482495663    -72.026335032704     0.295610482495663    -72.026335032704     0.951286862933231    17.1925003937336     
433.28208159581      0.952256191749587    17.0137284747269     0.292627880110281    -72.2072709900148    0.292627880110281    -72.2072709900148    0.952256191749587    17.0137284747269     
437.360764238878     0.953210270405729    16.8359878509582     0.289659666161121    -72.3871148411976    0.289659666161121    -72.3871148411976    0.953210270405729    16.8359878509582     
441.477841389381     0.954149279018885    16.6592739915434     0.286705842089341    -72.5658700914335    0.286705842089341    -72.5658700914335    0.954149279018885    16.6592739915434     
445.633674472397     0.955073396932931    16.4835822173146     0.283766405336398    -72.7435403522453    0.283766405336398    -72.7435403522453    0.955073396932931    16.4835822173146     
449.828628315268     0.9559828026626      16.3089077045484     0.280841349419038    -72.9201293360793    0.280841349419038    -72.9201293360793    0.9559828026626      16.3089077045484     
454.063071179619     0.956877673839801    16.1352454886545     0.277930664004205    -73.0956408508427    0.277930664004205    -73.0956408508427    0.956877673839801    16.1352454886545     
458.337374793693     0.957758187162065    15.9625904678198     0.275034334983771    -73.2700787943984    0.275034334983771    -73.2700787943984    0.957758187162065    15.9625904678198     
462.651914384981     0.958624518343056    15.7909374066082     0.272152344549051    -73.4434471490118    0.272152344549051    -73.4434471490118    0.958624518343056    15.7909374066082     
467.007068713159     0.959476842065117    15.6202809395157     0.26928467126505     -73.6157499757437    0.26928467126505     -73.6157499757437    0.959476842065117    15.6202809395157     
471.403220103346     0.960315331933815    15.4506155744792     0.266431290144372    -73.7869914087869    0.266431290144372    -73.7869914087869    0.960315331933815    15.4506155744792     
475.84075447966      0.961140160434443    15.2819356963372     0.263592172720773    -73.9571756497409    0.263592172720773    -73.9571756497409    0.961140160434443    15.2819356963372     
480.320061399098     0.961951498890454    15.1142355702423     0.260767287122268    -74.1263069618192    0.260767287122268    -74.1263069618192    0.961951498890454    15.1142355702423     
484.841534085738     0.962749517423763    14.9475093450253     0.257956598143795    -74.2943896639809    0.257956598143795    -74.2943896639809    0.962749517423763    14.9475093450253     
489.405569465256     0.96353438491691     14.781751056508      0.255160067319352    -74.4614281249852    0.255160067319352    -74.4614281249852    0.96353438491691     14.781751056508      
494.012568199768     0.964306268977008    14.6169546307668     0.252377652993604    -74.6274267573552    0.252377652993604    -74.6274267573552    0.964306268977008    14.6169546307668     
498.66293472301      0.965065335901462    14.4531138873445     0.24960931039288     -74.7923900112475    0.24960931039288     -74.7923900112475    0.965065335901462    14.4531138873445     
503.357077275837     0.965811750645415    14.2902225424101     0.246854991695569    -74.9563223682188    0.246854991695569    -74.9563223682188    0.965811750645415    14.2902225424101     
508.095407942061     0.966545676790866    14.1282742118671     0.244114646101854    -75.1192283348773    0.244114646101854    -75.1192283348773    0.966545676790866    14.1282742118671     
512.878342684627     0.967267276517432    13.9672624144084     0.241388219902746    -75.281112436413     0.241388219902746    -75.281112436413     0.967267276517432    13.9672624144084     
517.706301382132     0.967976710574707    13.8071805745192     0.238675656548421    -75.4419792099921    0.238675656548421    -75.4419792099921    0.967976710574707    13.8071805745192     
522.57970786568      0.968674138256181    13.6480220254261     0.235976896715809    -75.601833198008     0.235976896715809    -75.601833198008     0.968674138256181    13.6480220254261     
527.498989956094     0.969359717374673    13.4897800119931     0.233291878375396    -75.760678941172     0.233291878375396    -75.760678941172     0.969359717374673    13.4897800119931     
532.464579501467     0.970033604239237    13.3324476935641     0.230620536857262    -75.9185209714339    0.230620536857262    -75.9185209714339    0.970033604239237    13.3324476935641     
537.47691241508      0.970695953633509    13.1760181467511     0.22796280491628     -76.0753638047149    0.22796280491628     -76.0753638047149    0.970695953633509    13.1760181467511     
542.536428713662     0.97134691879544     13.0204843681694     0.225318612796487    -76.2312119334395    0.225318612796487    -76.2312119334395    0.97134691879544     13.0204843681694     
547.643572556021     0.971986651398385    12.8658392771195     0.222687888294617    -76.3860698188463    0.222687888294617    -76.3860698188463    0.971986651398385    12.8658392771195     
552.798792282037     0.972615301533507    12.7120757182136     0.220070556822736    -76.5399418830628    0.220070556822736    -76.5399418830628    0.972615301533507    12.7120757182136     
558.002540452018     0.973233017693445    12.5591864639509     0.217466541470023    -76.6928325009205    0.217466541470023    -76.6928325009205    0.973233017693445    12.5591864639509     
563.25527388643      0.973839946757228    12.4071642172373     0.214875763063627    -76.8447459914916    0.214875763063627    -76.8447459914916    0.973839946757228    12.4071642172373     
568.557453705997     0.97443623397637     12.2560016138527     0.212298140228629    -76.9956866093236    0.212298140228629    -76.9956866093236    0.97443623397637     12.2560016138527     
573.909545372185     0.975022022962129    12.1056912248661     0.209733589447081    -77.1456585353432    0.209733589447081    -77.1456585353432    0.975022022962129    12.1056912248661     
579.312018728064     0.975597455673873    11.9562255589969     0.207182025116114    -77.294665867408     0.207182025116114    -77.294665867408     0.975597455673873    11.9562255589969     
584.765348039547     0.976162672408539    11.8075970649226     0.204643359605101    -77.4427126104722    0.204643359605101    -77.4427126104722    0.976162672408539    11.8075970649226     
590.270012037034     0.976717811791117    11.6597981335373     0.202117503311894    -77.5898026663343    0.202117503311894    -77.5898026663343    0.976717811791117    11.6597981335373     
595.826493957431     0.977263010766149    11.5128211001553     0.19960436471809     -77.7359398229355    0.19960436471809     -77.7359398229355    0.977263010766149    11.5128211001553     
601.435281586575     0.977798404590193    11.3666582466655     0.197103850443365    -77.8811277431672    0.197103850443365    -77.8811277431672    0.977798404590193    11.3666582466655     
607.096867302055     0.978324126825218    11.2213018036324     0.194615865298837    -78.0253699531502    0.194615865298837    -78.0253699531502    0.978324126825218    11.2213018036324     
612.811748116433     0.978840309332895    11.0767439523495     0.192140312339475    -78.1686698299379    0.192140312339475    -78.1686698299379    0.978840309332895    11.0767439523495     
618.580425720882     0.979347082269758    10.932976826839      0.189677092915556    -78.3110305885995    0.189677092915556    -78.3110305885995    0.979347082269758    10.932976826839      
624.403406529221     0.979844574083181    10.7899925158047     0.187226106723156    -78.4524552686266    0.187226106723156    -78.4524552686266    0.979844574083181    10.7899925158047     
630.281201722375     0.980332911508158    10.6477830645342     0.184787251853694    -78.5929467196087    0.184787251853694    -78.5929467196087    0.980332911508158    10.6477830645342     
636.214327293248     0.980812219564845    10.5063404767529     0.182360424842516    -78.7325075861149    0.182360424842516    -78.7325075861149    0.980812219564845    10.5063404767529     
642.203304092024     0.981282621556827    10.3656567164292     0.179945520716526    -78.8711402917143    0.179945520716526    -78.8711402917143    0.981282621556827    10.3656567164292     
648.248657871885     0.981744239070091    10.2257237095336     0.177542433040885    -79.0088470220591    0.177542433040885    -79.0088470220591    0.981744239070091    10.2257237095336     
654.350919335171     0.982197191972654    10.0865333457483     0.175151053964752    -79.1456297069539    0.175151053964752    -79.1456297069539    0.982197191972654    10.0865333457483     
660.510624179964     0.982641598414847    9.94807748013351     0.172771274266108    -79.2814900013165    0.172771274266108    -79.2814900013165    0.982641598414847    9.94807748013351     
666.728313147121     0.983077574830184    9.81034793474469     0.170402983395635    -79.4164292649396    0.170402983395635    -79.4164292649396    0.983077574830184    9.81034793474469     
673.004532067737     0.983505235936831    9.67333650020734     0.168046069519692    -79.5504485409422    0.168046069519692    -79.5504485409422    0.983505235936831    9.67333650020734     
679.339831911065     0.983924694739608    9.53703493724532     0.16570041956237     -79.6835485327973    0.16570041956237     -79.6835485327973    0.983924694739608    9.53703493724532     
685.734768832886     0.984336062532531    9.40143497816591     0.16336591924665     -79.8157295798065    0.16336591924665     -79.8157295798065    0.984336062532531    9.40143497816591     
692.189904224329     0.984739448901828    9.26652832830171     0.161042453134667    -79.9469916308798    0.161042453134667    -79.9469916308798    0.984739448901828    9.26652832830171     
698.705804761154     0.98513496172945     9.13230666740957     0.158729904667093    -80.0773342164675    0.158729904667093    -80.0773342164675    0.98513496172945     9.13230666740957     
705.283042453501     0.985522707197       8.99876165102751     0.156428156201658    -80.2067564184718    0.156428156201658    -80.2067564184718    0.985522707197       8.99876165102751     
711.922194696102     0.985902789790106    8.8658849117902      0.154137089050805    -80.3352568379488    0.154137089050805    -80.3352568379488    0.985902789790106    8.8658849117902      
718.62384431897      0.986275312303162    8.73366806070471     0.15185658351851     -80.4628335603925    0.15185658351851     -80.4628335603925    0.986275312303162    8.73366806070471     
725.388579638565     0.986640375844469    8.6021026883841      0.149586518936266    -80.5894841183724    0.149586518936266    -80.5894841183724    0.986640375844469    8.6021026883841      
732.216994509439     0.986998079841692    8.47118036624433     0.14732677369826     -80.7152054512631    0.14732677369826     -80.7152054512631    0.986998079841692    8.47118036624433     
739.109688376367     0.987348522047668    8.34089264766105     0.145077225295751    -80.8399938617863    0.145077225295751    -80.8399938617863    0.987348522047668    8.34089264766105     
746.067266326974     0.987691798546504    8.21123106908783     0.142837750350655    -80.9638449690491    0.142837750350655    -80.9638449690491    0.987691798546504    8.21123106908783     
753.090339144852     0.988028003759958    8.08218715113888     0.140608224648383    -81.0867536577247    0.140608224648383    -81.0867536577247    0.988028003759958    8.08218715113888     
760.179523363178     0.988357230454082    7.95375239963367     0.138388523169922    -81.2087140229859    0.138388523169922    -81.2087140229859    0.988357230454082    7.95375239963367     
767.335441318838     0.988679569746106    7.82591830660661     0.136178520123189    -81.3297193107533    0.136178520123189    -81.3297193107533    0.988679569746106    7.82591830660661     
774.558721207061     0.988995111111544    7.69867635128062     0.13397808897369     -81.4497618527706    0.13397808897369     -81.4497618527706    0.988995111111544    7.69867635128062     
781.849997136564     0.989303942391502    7.57201800100733     0.131787102474486    -81.5688329959576    0.131787102474486    -81.5688329959576    0.989303942391502    7.57201800100733     
789.20990918522      0.989606149800168    7.44593471217218     0.129605432695502    -81.6869230254299    0.129605432695502    -81.6869230254299    0.989606149800168    7.44593471217218     
796.63910345625      0.989901817932467    7.32041793106763     0.127432951052196    -81.8040210804923    0.127432951052196    -81.8040210804923    0.989901817932467    7.32041793106763     
804.138232134937     0.990191029771875    7.19545909473263     0.125269528333638    -81.920115062834     0.125269528333638    -81.920115062834     0.990191029771875    7.19545909473263     
811.707953545886     0.990473866698345    7.07104963176146     0.123115034729985    -82.0351915360464    0.123115034729985    -82.0351915360464    0.990473866698345    7.07104963176146     
819.348932210812     0.990750408496372    6.94718096308071     0.120969339859424    -82.1492356154777    0.120969339859424    -82.1492356154777    0.990750408496372    6.94718096308071     
827.061838906876     0.991020733363139    6.82384450269606     0.118832312794589    -82.2622308473058    0.118832312794589    -82.2622308473058    0.991020733363139    6.82384450269606     
834.847350725572     0.991284917916758    6.70103165840931     0.11670382208851     -82.3741590755602    0.11670382208851     -82.3741590755602    0.991284917916758    6.70103165840931     
842.706151132167     0.991543037204576    6.57873383250649     0.114583735800111    -82.485000295653     0.114583735800111    -82.485000295653     0.991543037204576    6.57873383250649     
850.638930025701     0.991795164711544    6.45694242241705     0.112471921519311    -82.594732492778     0.112471921519311    -82.594732492778     0.991795164711544    6.45694242241705     
858.646383799547     0.992041372368613    6.33564882134575     0.110368246391786    -82.7033314633069    0.110368246391786    -82.7033314633069    0.992041372368613    6.33564882134575     
866.729215402548     0.992281730561178    6.21484441887748     0.108272577143416    -82.8107706170418    0.108272577143416    -82.8107706170418    0.992281730561178    6.21484441887748     
874.888134400727     0.992516308137522    6.09452060155495     0.106184780104508    -82.9170207578715    0.106184780104508    -82.9170207578715    0.992516308137522    6.09452060155495     
883.123857039577     0.992745172417267    5.97466875343118     0.104104721233825    -83.0220498400125    0.104104721233825    -83.0220498400125    0.992745172417267    5.97466875343118     
891.437106306938     0.992968389199823    5.85528025659709     0.102032266142533    -83.1258226965907    0.102032266142533    -83.1258226965907    0.992968389199823    5.85528025659709     
899.828611996464     0.993186022772807    5.73634649168343     0.099967280118105    -83.2283007368144    0.099967280118105    -83.2283007368144    0.993186022772807    5.73634649168343     
908.299110771694     0.99339813592044     5.61785883833989     0.097909628148302    -83.3294416074026    0.097909628148302    -83.3294416074026    0.99339813592044     5.61785883833989     
916.849346230715     0.993604789931888    5.49980867569053     0.095859174945334    -83.4291988132305    0.095859174945334    -83.4291988132305    0.993604789931888    5.49980867569053     
925.480068971445     0.993806044609566    5.38218738276619     0.093815784970301    -83.5275212913309    0.093815784970301    -83.5275212913309    0.993806044609566    5.38218738276619     
934.192036657522     0.994001958277371    5.26498633891553     0.09177932245808     -83.624352931407     0.09177932245808     -83.624352931407     0.994001958277371    5.26498633891553     
942.986014084823     0.994192587788837    5.14819692419407     0.089749651442788    -83.7196320348383    0.089749651442788    -83.7196320348383    0.994192587788837    5.14819692419407     
951.862773248596     0.99437798853522     5.03181051973271     0.087726635784026    -83.8132907027634    0.087726635784026    -83.8132907027634    0.99437798853522     5.03181051973271     
960.823093411232     0.994558214453488    4.91581850808595     0.085710139194113    -83.9052541421361    0.085710139194113    -83.9052541421361    0.994558214453488    4.91581850808595     
969.867761170678     0.994733318034203    4.8002122735602      0.08370002526655     -83.9954398766221    0.08370002526655     -83.9954398766221    0.994733318034203    4.8002122735602      
978.997570529489     0.994903350329312    4.68498320252349     0.081696157506027    -84.083756846746     0.081696157506027    -84.083756846746     0.994903350329312    4.68498320252349     
988.213322964527     0.995068360959806    4.57012268369605     0.079698399360311    -84.1701043807104    0.079698399360311    -84.1701043807104    0.995068360959806    4.57012268369605     
997.515827497323     0.995228398123265    4.45562210842392     0.077706614254442    -84.2543710136612    0.077706614254442    -84.2543710136612    0.995228398123265    4.45562210842392     
1006.9059007651      0.995383508601275    4.34147287093431     0.075720665627721    -84.3364331287014    0.075720665627721    -84.3364331287014    0.995383508601275    4.34147287093431     
1016.38436709246     0.995533737766698    4.22766636857448     0.073740416974096    -84.4161533874427    0.073740416974096    -84.4161533874427    0.995533737766698    4.22766636857448     
1025.95205856375     0.995679129590802    4.11419400203493     0.071765731886671    -84.4933789110596    0.071765731886671    -84.4933789110596    0.995679129590802    4.11419400203493     
1035.6098150961      0.995819726650249    4.00104717555595     0.0697964741072      -84.5679391643154    0.0697964741072      -84.5679391643154    0.995819726650249    4.00104717555595     
1045.35848451318     0.995955570133913    3.88821729711989     0.067832507581653    -84.6396434843949    0.067832507581653    -84.6396434843949    0.995955570133913    3.88821729711989     
1055.19892261961     0.996086699849538    3.77569577862849     0.065873696523147    -84.708278182993     0.065873696523147    -84.708278182993     0.996086699849538    3.77569577862849     
1065.13199327608     0.996213154230238    3.66347403606629     0.063919905483885    -84.7736031331541    0.063919905483885    -84.7736031331541    0.996213154230238    3.66347403606629     
1075.1585684752      0.99633497034081     3.55154348965017     0.061970999438084    -84.8353477307507    0.061970999438084    -84.8353477307507    0.99633497034081     3.55154348965017     
1085.27952841805     0.996452183883874    3.43989556396695     0.060026843878451    -84.8932060927583    0.060026843878451    -84.8932060927583    0.996452183883874    3.43989556396695     
1095.49576159144     0.996564829205831    3.3285216880971      0.058087304929331    -84.9468313186529    0.058087304929331    -84.9468313186529    0.996564829205831    3.3285216880971      
1105.80816484593     0.996672939302632    3.21741329572748     0.056152249480581    -84.9958285945896    0.056152249480581    -84.9958285945896    0.996672939302632    3.21741329572748     
1116.21764347451     0.996776545825344    3.10656182525265     0.054221545347283    -85.0397468587747    0.054221545347283    -85.0397468587747    0.996776545825344    3.10656182525265     
1126.72511129215     0.996875679085536    2.99595871986467     0.052295061461908    -85.0780686653602    0.052295061461908    -85.0780686653602    0.996875679085536    2.99595871986467     
1137.33149071594     0.99697036806045     2.88559542763331     0.050372668107518    -85.1101977758717    0.050372668107518    -85.1101977758717    0.99697036806045     2.88559542763331     
1148.03771284614     0.997060640397972    2.77546340157557     0.048454237203238    -85.1354438610923    0.048454237203238    -85.1354438610923    0.997060640397972    2.77546340157557     
1158.84471754785     0.997146522421395    2.66555409971629     0.046539642656871    -85.1530034972237    0.046539642656871    -85.1530034972237    0.997146522421395    2.66555409971629     
1169.75345353357     0.997228039133967    2.55585898513974     0.044628760804533    -85.161936365808     0.044628760804533    -85.161936365808     0.997228039133967    2.55585898513974     
1180.76487844647     0.997305214223224    2.44636952603274     0.042721470964151    -85.1611351843464    0.042721470964151    -85.1611351843464    0.997305214223224    2.44636952603274     
1191.87995894444     0.997378070065109    2.33707719571959     0.040817656139523    -85.1492873542536    0.040817656139523    -85.1492873542536    0.997378070065109    2.33707719571959     
1203.09967078496     0.997446627727866    2.22797347269021     0.038917203925802    -85.1248255390653    0.038917203925802    -85.1248255390653    0.997446627727866    2.22797347269021     
1214.42499891079     0.997510906975707    2.11904984062086     0.037020007687775    -85.0858632610895    0.037020007687775    -85.0858632610895    0.997510906975707    2.11904984062086     
1225.85693753636     0.997570926272257    2.01029778838806     0.035125968112706    -85.0301099428739    0.035125968112706    -85.0301099428739    0.997570926272257    2.01029778838806     
1237.39649023515     0.997626702783771    1.90170881007716     0.033234995285317    -84.9547573204193    0.033234995285317    -84.9547573204193    0.997626702783771    1.90170881007716     
1249.04467002769     0.997678252382118    1.79327440498493     0.031347011502632    -84.8563253218153    0.031347011502632    -84.8563253218153    0.997678252382118    1.79327440498493     
1260.80249947057     0.997725589647527    1.6849860776171      0.029461955156693    -84.7304494986846    0.029461955156693    -84.7304494986846    0.997725589647527    1.6849860776171      
1272.67101074615     0.997768727871108    1.57683533768157     0.027579786190162    -84.5715824606242    0.027579786190162    -84.5715824606242    0.997768727871108    1.57683533768157     
1284.65124575322     0.997807679057131    1.4688137000768      0.025700493922075    -84.3725658863726    0.025700493922075    -84.3725658863726    0.997807679057131    1.4688137000768      
1296.7442561984      0.997842453925066    1.36091268487754     0.023824108537846    -84.1240027466766    0.023824108537846    -84.1240027466766    0.997842453925066    1.36091268487754     
1308.95110368855     0.997873061911381    1.25312381731623     0.021950718411362    -83.8133121195911    0.021950718411362    -83.8133121195911    0.997873061911381    1.25312381731623     
1321.2728598239      0.997899511171114    1.14543862776249     0.020080497023621    -83.4232629014283    0.020080497023621    -83.4232629014283    0.997899511171114    1.14543862776249     
1333.71060629214     0.997921808579178    1.03784865169961     0.018213746290986    -82.929619000519     0.018213746290986    -82.929619000519     0.997921808579178    1.03784865169961     
1346.26543496339     0.997939959731453    0.930345429700088    0.016350969242112    -82.2972012906352    0.016350969242112    -82.2972012906352    0.997939959731453    0.930345429700088    
1358.93844798605     0.997953968945603    0.822920507398529    0.014492998051868    -81.472977960748     0.014492998051868    -81.472977960748     0.997953968945603    0.822920507398529    
1371.73075788353     0.997963839261681    0.715565435464599    0.012641233384197    -80.3732201092002    0.012641233384197    -80.3732201092002    0.997963839261681    0.715565435464599    
1384.64348765195     0.997969572442459    0.608271769575567    0.01079812578768     -78.8578767796677    0.01079812578768     -78.8578767796677    0.997969572442459    0.608271769575567    
1397.67777085868     0.99797116897354     0.50103107038778     0.008968237710305    -76.6747447101003    0.008968237710305    -76.6747447101003    0.99797116897354     0.50103107038778     
1410.83475174192     0.997968628063205    0.393834903509504    0.007160885186767    -73.3234540715834    0.007160885186767    -73.3234540715834    0.997968628063205    0.393834903509504    
1424.11558531106     0.997961947642023    0.286674839474419    0.00539785089396     -67.6736546476957    0.00539785089396     -67.6736546476957    0.997961947642023    0.286674839474419    
1437.52143744817     0.997951124362216    0.179542453716328    0.003741290826559    -56.7051066702658    0.003741290826559    -56.7051066702658    0.997951124362216    0.179542453716328    
1451.05348501027     0.99793615359678     0.072429326545688    0.002419543119347    -31.4254066065872    0.002419543119347    -31.4254066065872    0.99793615359678     0.072429326545688    
1464.71291593267     0.997917029438358    -0.034672956871553   0.002168921123901    16.1666342367675     0.002168921123901    16.1666342367675     0.997917029438358    -0.034672956871553   
1478.5009293333      0.997893744697867    -0.141772806532466   0.003247472701122    49.4943064132998     0.003247472701122    49.4943064132998     0.997893744697867    -0.141772806532466   
1492.41873561788     0.997866290902898    -0.248878627612237   0.004835349285233    63.6904951938505     0.004835349285233    63.6904951938505     0.997866290902898    -0.248878627612237   
1506.46755658628     0.997834658295844    -0.355998820476209   0.0065734864145      70.5894093855607     0.0065734864145      70.5894093855607     0.997834658295844    -0.355998820476209   
1520.6486255397      0.997798835831817    -0.46314178068726    0.008369078452185    74.5197253960843     0.008369078452185    74.5197253960843     0.997798835831817    -0.46314178068726    
1534.963187389       0.997758811176305    -0.57031589900861    0.010192153093108    77.012220686128      0.010192153093108    77.012220686128      0.997758811176305    -0.57031589900861    
1549.41249876392     0.997714570702598    -0.677529561402225   0.012030606104617    78.710516558837      0.012030606104617    78.710516558837      0.997714570702598    -0.677529561402225   
1563.99782812346     0.997666099488976    -0.784791149021134   0.013878735357144    79.9267595405309     0.013878735357144    79.9267595405309     0.997666099488976    -0.784791149021134   
1578.72045586719     0.997613381315655    -0.892109038195821   0.015733557856159    80.8293520355238     0.015733557856159    80.8293520355238     0.997613381315655    -0.892109038195821   
1593.58167444767     0.997556398661508    -0.999491600414679   0.017593397807832    81.5167608162299     0.017593397807832    81.5167608162299     0.997556398661508    -0.999491600414679   
1608.58278848392     0.997495132700546    -1.10694720229672    0.019457269184623    82.0502683458815     0.019457269184623    82.0502683458815     0.997495132700546    -1.10694720229672    
1623.72511487592     0.997429563298175    -1.21448420555797    0.021324577205178    82.4699554312556     0.021324577205178    82.4699554312556     0.997429563298175    -1.21448420555797    
1639.00998292023     0.997359669007217    -1.32211096696846    0.023194962168989    82.8031151390739     0.023194962168989    82.8031151390739     0.997359669007217    -1.32211096696846    
1654.43873442672     0.997285427063712    -1.42983583830306    0.025068212412022    83.068963639025      0.025068212412022    83.068963639025      0.997285427063712    -1.42983583830306    
1670.01272383628     0.997206813382499    -1.53766716628081    0.026944213193491    83.2814155479934     0.026944213193491    83.2814155479934     0.997206813382499    -1.53766716628081    
1685.73331833981     0.997123802552566    -1.64561329249698    0.02882291534449     83.4507904386281     0.02882291534449     83.4507904386281     0.997123802552566    -1.64561329249698    
1701.6018979982      0.997036367832197    -1.75368255334471    0.030704315313066    83.5849010404027     0.030704315313066    83.5849010404027     0.997036367832197    -1.75368255334471    
1717.61985586346     0.996944481143892    -1.86188327992552    0.032588442052465    83.6897692587213     0.032588442052465    83.6897692587213     0.996944481143892    -1.86188327992552    
1733.78859810108     0.996848113069084    -1.97022379795028    0.034475348164223    83.7701103311608     0.034475348164223    83.7701103311608     0.996848113069084    -1.97022379795028    
1750.10954411338     0.99674723284265     -2.07871242762729    0.036365103768269    83.8296681364561     0.036365103768269    83.8296681364561     0.99674723284265     -2.07871242762729    
1766.58412666421     0.996641808347215    -2.18735748354025    0.03825779216818     83.871452389723      0.03825779216818     83.871452389723      0.996641808347215    -2.18735748354025    
1783.21379200464     0.996531806107256    -2.29616727451208    0.040153506726362    83.8979096303435     0.040153506726362    83.8979096303435     0.996531806107256    -2.29616727451208    
1800                 0.996417191283013    -2.40515010345704    0.042052348572155    83.9110485869001     0.042052348572155    83.9110485869001     0.996417191283013    -2.40515010345704    
