# MHz S MA R 50      
!Freq                MagS11               AngS11               MagS21               AngS21               MagS12               AngS12               MagS22               AngS22               
1                    0.081743964733856    58.0838293305267     0.95929641782291     -4.14783818565154    0.95929641782291     -4.14783818565154    0.081743964733856    58.0838293305267     
1.00779851133806     0.082253944867032    58.2124744802796     0.959222480982022    -4.17992056802061    0.959222480982022    -4.17992056802061    0.082253944867032    58.2124744802796     
1.01565783945522     0.082768389744103    58.3401844974202     0.959147810117835    -4.21224874785927    0.959147810117835    -4.21224874785927    0.082768389744103    58.3401844974202     
1.0235784586318      0.083287330795191    58.4669556294251     0.959072395580814    -4.24482456038279    0.959072395580814    -4.24482456038279    0.083287330795191    58.4669556294251     
1.03156084684684     0.083810799629778    58.5927842067175     0.958996227583025    -4.27764985346926    0.958996227583025    -4.27764985346926    0.083810799629778    58.5927842067175     
1.03960548580688     0.08433882803768     58.717666641685      0.958919296196192    -4.31072648772327    0.958919296196192    -4.31072648772327    0.08433882803768     58.717666641685      
1.04771286097506     0.084871447990017    58.8415994276811     0.958841591349685    -4.34405633653931    0.958841591349685    -4.34405633653931    0.084871447990017    58.8415994276811     
1.05588346160041     0.08540869164016     58.9645791380121     0.958763102828514    -4.377641286165      0.958763102828514    -4.377641286165      0.08540869164016     58.9645791380121     
1.06411778074737     0.08595059132468     59.0866024249093     0.958683820271317    -4.41148323576413    0.958683820271317    -4.41148323576413    0.08595059132468     59.0866024249093     
1.07241631532557     0.086497179564265    59.207666018487      0.95860373316824     -4.44558409747893    0.95860373316824     -4.44558409747893    0.086497179564265    59.207666018487      
1.08077956611976     0.087048489064638    59.3277667256892     0.958522830858896    -4.47994579649261    0.958522830858896    -4.47994579649261    0.087048489064638    59.3277667256892     
1.08920803782009     0.087604552717444    59.4469014292224     0.958441102530191    -4.51457027109088    0.958441102530191    -4.51457027109088    0.087604552717444    59.4469014292224     
1.09770223905254     0.088165403601146    59.565067086479      0.958358537214246    -4.54945947272397    0.958358537214246    -4.54945947272397    0.088165403601146    59.565067086479      
1.10626268240961     0.088731074981869    59.6822607284486     0.958275123786139    -4.58461536606705    0.958275123786139    -4.58461536606705    0.088731074981869    59.6822607284486     
1.11488988448126     0.089301600314259    59.7984794586209     0.958190850961796    -4.6200399290816     0.958190850961796    -4.6200399290816     0.089301600314259    59.7984794586209     
1.12358436588608     0.089877013242308    59.9137204518789     0.958105707295684    -4.65573515307527    0.958105707295684    -4.65573515307527    0.089877013242308    59.9137204518789     
1.13234665130272     0.090457347600156    60.0279809533839     0.958019681178583    -4.69170304276157    0.958019681178583    -4.69170304276157    0.090457347600156    60.0279809533839     
1.14117726950152     0.091042637412884    60.1412582774534     0.957932760835299    -4.72794561631931    0.957932760835299    -4.72794561631931    0.091042637412884    60.1412582774534     
1.15007675337647     0.091632916897282    60.2535498064317     0.957844934322351    -4.76446490545145    0.957844934322351    -4.76446490545145    0.091632916897282    60.2535498064317     
1.15904563997732     0.092228220462595    60.3648529895548     0.957756189525643    -4.80126295544326    0.957756189525643    -4.80126295544326    0.092228220462595    60.3648529895548     
1.16808447054201     0.092828582711241    60.4751653418095     0.957666514158037    -4.83834182521973    0.957666514158037    -4.83834182521973    0.092828582711241    60.4751653418095     
1.17719379052935     0.09343403843952     60.5844844427885     0.957575895757026    -4.87570358740305    0.957575895757026    -4.87570358740305    0.09343403843952     60.5844844427885     
1.18637414965189     0.094044622638284    60.6928079355398     0.957484321682218    -4.91335032836877    0.957484321682218    -4.91335032836877    0.094044622638284    60.6928079355398     
1.19562610190914     0.094660370493593    60.8001335254149     0.957391779112968    -4.95128414830179    0.957391779112968    -4.95128414830179    0.094660370493593    60.8001335254149     
1.20495020562097     0.095281317387336    60.9064589789125     0.957298255045804    -4.98950716125137    0.957298255045804    -4.98950716125137    0.095281317387336    60.9064589789125     
1.2143470234613      0.095907498897838    61.0117821225202     0.957203736291959    -5.02802149518568    0.957203736291959    -5.02802149518568    0.095907498897838    61.0117821225202     
1.22381712249211     0.096538950800423    61.1161008415559     0.957108209474776    -5.06682929204537    0.957108209474776    -5.06682929204537    0.096538950800423    61.1161008415559     
1.23336107419758     0.097175709067962    61.2194130790063     0.957011661027169    -5.10593270779667    0.957011661027169    -5.10593270779667    0.097175709067962    61.2194130790063     
1.24297945451864     0.097817809871391    61.3217168343667     0.956914077188976    -5.14533391248351    0.956914077188976    -5.14533391248351    0.097817809871391    61.3217168343667     
1.25267284388768     0.098465289580187    61.4230101624799     0.956815444004337    -5.18503509027884    0.956815444004337    -5.18503509027884    0.098465289580187    61.4230101624799     
1.26244182726363     0.099118184762826    61.5232911723765     0.956715747318994    -5.22503843953519    0.956715747318994    -5.22503843953519    0.099118184762826    61.5232911723765     
1.27228699416719     0.0997765321872      61.6225580261159     0.956614972777594    -5.26534617283396    0.956614972777594    -5.26534617283396    0.0997765321872      61.6225580261159     
1.28220893871647     0.100440368821012    61.7208089376297     0.956513105820977    -5.30596051703478    0.956513105820977    -5.30596051703478    0.100440368821012    61.7208089376297     
1.29220825966282     0.101109731832116    61.8180421715667     0.956410131683325    -5.34688371332239    0.956410131683325    -5.34688371332239    0.101109731832116    61.8180421715667     
1.30228556042694     0.101784658588849    61.9142560421414     0.956306035389461    -5.38811801725408    0.956306035389461    -5.38811801725408    0.101784658588849    61.9142560421414     
1.31244144913533     0.1024651866603      62.0094489119853     0.956200801751924    -5.42966569880487    0.956200801751924    -5.42966569880487    0.1024651866603      62.0094489119853     
1.32267653865696     0.103151353816567    62.1036191910029     0.956094415368165    -5.47152904241275    0.956094415368165    -5.47152904241275    0.103151353816567    62.1036191910029     
1.33299144664026     0.103843198028955    62.1967653352301     0.955986860617606    -5.51371034702169    0.955986860617606    -5.51371034702169    0.103843198028955    62.1967653352301     
1.34338679555043     0.104540757470142    62.2888858456995     0.955878121658711    -5.5562119261243     0.955878121658711    -5.5562119261243     0.104540757470142    62.2888858456995     
1.35386321270694     0.105244070514312    62.3799792673094     0.955768182426017    -5.59903610780301    0.955768182426017    -5.59903610780301    0.105244070514312    62.3799792673094     
1.36442133032142     0.105953175737233    62.4700441876983     0.955657026627169    -5.64218523477023    0.955657026627169    -5.64218523477023    0.105953175737233    62.4700441876983     
1.37506178553583     0.106668111916304    62.5590792361268     0.955544637739826    -5.68566166440687    0.955544637739826    -5.68566166440687    0.106668111916304    62.5590792361268     
1.38578522046087     0.107388918030549    62.6470830823644     0.955430999008643    -5.72946776880008    0.955430999008643    -5.72946776880008    0.107388918030549    62.6470830823644     
1.39659228221475     0.108115633260571    62.7340544355833     0.955316093442125    -5.77360593477904    0.955316093442125    -5.77360593477904    0.108115633260571    62.7340544355833     
1.40748362296226     0.108848296988463    62.8199920432602     0.955199903809544    -5.81807856395006    0.955199903809544    -5.81807856395006    0.108848296988463    62.8199920432602     
1.41845989995407     0.109586948797658    62.9048946900847     0.955082412637722    -5.86288807272961    0.955082412637722    -5.86288807272961    0.109586948797658    62.9048946900847     
1.42952177556645     0.110331628472748    62.9887611968759     0.954963602207854    -5.9080368923762     0.954963602207854    -5.9080368923762     0.110331628472748    62.9887611968759     
1.44066991734121     0.111082375999239    63.0715904195068     0.954843454552259    -5.95352746902064    0.954843454552259    -5.95352746902064    0.111082375999239    63.0715904195068     
1.45190499802601     0.111839231563262    63.153381247839      0.954721951451111    -5.99936226369498    0.954721951451111    -5.99936226369498    0.111839231563262    63.153381247839      
1.46322769561491     0.112602235551233    63.2341326046631     0.954599074429139    -6.04554375235942    0.954599074429139    -6.04554375235942    0.112602235551233    63.2341326046631     
1.47463869338933     0.113371428549447    63.3138434446507     0.954474804752285    -6.09207442592778    0.954474804752285    -6.09207442592778    0.113371428549447    63.3138434446507     
1.48613867995927     0.114146851343633    63.3925127533161     0.954349123424301    -6.13895679029093    0.954349123424301    -6.13895679029093    0.114146851343633    63.3925127533161     
1.49772834930487     0.114928544918439    63.4701395459847     0.954222011183392    -6.1861933663394     0.954222011183392    -6.1861933663394     0.114928544918439    63.4701395459847     
1.50940840081826     0.115716550456872    63.5467228667759     0.95409344849874     -6.23378668998293    0.95409344849874     -6.23378668998293    0.115716550456872    63.5467228667759     
1.52117953934581     0.116510909339664    63.622261787592      0.953963415567002    -6.28173931216868    0.953963415567002    -6.28173931216868    0.116510909339664    63.622261787592      
1.53304247523063     0.117311663144586    63.6967554071204     0.953831892308855    -6.33005379889787    0.953831892308855    -6.33005379889787    0.117311663144586    63.6967554071204     
1.54499792435545     0.118118853645704    63.770202849846      0.953698858365395    -6.37873273123977    0.953698858365395    -6.37873273123977    0.118118853645704    63.770202849846      
1.55704660818583     0.118932522812556    63.8426032650732     0.953564293094592    -6.42777870534415    0.953564293094592    -6.42777870534415    0.118932522812556    63.8426032650732     
1.56918925381366     0.119752712809279    63.9139558259608     0.953428175567654    -6.4771943324513     0.953428175567654    -6.4771943324513     0.119752712809279    63.9139558259608     
1.58142659400109     0.120579465993664    63.9842597285688     0.953290484565381    -6.52698223889994    0.953290484565381    -6.52698223889994    0.120579465993664    63.9842597285688     
1.59375936722473     0.121412824916135    64.0535141909143     0.953151198574459    -6.57714506613295    0.953151198574459    -6.57714506613295    0.121412824916135    64.0535141909143     
1.60618831772017     0.122252832318674    64.1217184520418     0.953010295783797    -6.62768547070118    0.953010295783797    -6.62768547070118    0.122252832318674    64.1217184520418     
1.61871419552698     0.123099531133655    64.1888717711042     0.952867754080704    -6.67860612426378    0.952867754080704    -6.67860612426378    0.123099531133655    64.1888717711042     
1.63133775653388     0.123952964482625    64.2549734264572     0.952723551047146    -6.72990971358753    0.952723551047146    -6.72990971358753    0.123952964482625    64.2549734264572     
1.64405976252442     0.124813175674991    64.3200227147648     0.952577663955913    -6.7815989405428     0.952577663955913    -6.7815989405428     0.124813175674991    64.3200227147648     
1.65688098122293     0.125680208206646    64.3840189501178     0.952430069766756    -6.83367652209695    0.952430069766756    -6.83367652209695    0.125680208206646    64.3840189501178     
1.66980218634082     0.126554105758507    64.4469614631663     0.952280745122512    -6.88614519030584    0.952280745122512    -6.88614519030584    0.126554105758507    64.4469614631663     
1.68282415762332     0.127434912194972    64.5088496002626     0.952129666345171    -6.9390076923013     0.952129666345171    -6.9390076923013     0.127434912194972    64.5088496002626     
1.69594768089651     0.128322671562309    64.5696827226205     0.95197680943191     -6.99226679027738    0.95197680943191     -6.99226679027738    0.128322671562309    64.5696827226205     
1.70917354811475     0.129217428086942    64.6294602054846     0.951822150051135    -7.04592526147275    0.951822150051135    -7.04592526147275    0.129217428086942    64.6294602054846     
1.72250255740844     0.130119226173663    64.6881814373145     0.951665663538434    -7.09998589815037    0.951665663538434    -7.09998589815037    0.130119226173663    64.6881814373145     
1.73593551313223     0.131028110403757    64.7458458189832     0.951507324892529    -7.15445150757444    0.951507324892529    -7.15445150757444    0.131028110403757    64.7458458189832     
1.74947322591354     0.131944125533037    64.8024527629874     0.951347108771213    -7.20932491198419    0.951347108771213    -7.20932491198419    0.131944125533037    64.8024527629874     
1.76311651270147     0.132867316489775    64.8580016926725     0.951184989487178    -7.26460894856381    0.951184989487178    -7.26460894856381    0.132867316489775    64.8580016926725     
1.7768661968161      0.133797728372567    64.9124920414715     0.951020941003943    -7.32030646941097    0.951020941003943    -7.32030646941097    0.133797728372567    64.9124920414715     
1.79072310799819     0.134735406448071    64.9659232521578     0.950854936931598    -7.3764203414994     0.950854936931598    -7.3764203414994     0.134735406448071    64.9659232521578     
1.80468808245925     0.135680396148678    65.0182947761109     0.950686950522666    -7.43295344664083    0.950686950522666    -7.43295344664083    0.135680396148678    65.0182947761109     
1.81876196293198     0.136632743070057    65.0696060725984     0.950516954667803    -7.48990868144132    0.950516954667803    -7.48990868144132    0.136632743070057    65.0696060725984     
1.83294559872114     0.137592492968616    65.1198566080705     0.950344921891563    -7.54728895725508    0.950344921891563    -7.54728895725508    0.137592492968616    65.1198566080705     
1.84723984575483     0.138559691758863    65.1690458554695     0.950170824348098    -7.60509720013473    0.950170824348098    -7.60509720013473    0.138559691758863    65.1690458554695     
1.86164556663607     0.139534385510635    65.2171732935536     0.949994633816813    -7.66333635077685    0.949994633816813    -7.66333635077685    0.139534385510635    65.2171732935536     
1.87616363069494     0.140516620446255    65.2642384062348     0.949816321698035    -7.72200936446503    0.949816321698035    -7.72200936446503    0.140516620446255    65.2642384062348     
1.89079491404098     0.141506442937555    65.3102406819329     0.949635859008625    -7.78111921100799    0.949635859008625    -7.78111921100799    0.141506442937555    65.3102406819329     
1.90554029961608     0.142503899502793    65.3551796129413     0.949453216377565    -7.84066887467417    0.949453216377565    -7.84066887467417    0.142503899502793    65.3551796129413     
1.92040067724777     0.143509036803453    65.3990546948113     0.949268364041501    -7.90066135412163    0.949268364041501    -7.90066135412163    0.143509036803453    65.3990546948113     
1.93537694370291     0.144521901640947    65.4418654257476     0.949081271840352    -7.96109966232516    0.949081271840352    -7.96109966232516    0.144521901640947    65.4418654257476     
1.95047000274181     0.145542540953161    65.4836113060205     0.948891909212752    -8.02198682649677    0.948891909212752    -8.02198682649677    0.145542540953161    65.4836113060205     
1.96568076517275     0.146571001810921    65.5242918373935     0.948700245191593    -8.0833258880045     0.948700245191593    -8.0833258880045     0.146571001810921    65.5242918373935     
1.98101014890696     0.147607331414304    65.5639065225641     0.948506248399479    -8.1451199022841     0.948506248399479    -8.1451199022841     0.147607331414304    65.5639065225641     
1.99645907901403     0.148651577088842    65.6024548646214     0.948309887044162    -8.20737193874817    0.948309887044162    -8.20737193874817    0.148651577088842    65.6024548646214     
2.0120284877777      0.149703786281585    65.6399363665177     0.948111128913992    -8.2700850806894     0.948111128913992    -8.2700850806894     0.149703786281585    65.6399363665177     
2.02771931475215     0.150764006557042    65.6763505305553     0.94790994137333     -8.33326242517926    0.94790994137333     -8.33326242517926    0.150764006557042    65.6763505305553     
2.04353250681865     0.151832285592983    65.7116968578897     0.947706291357897    -8.39690708296206    0.947706291357897    -8.39690708296206    0.151832285592983    65.7116968578897     
2.05946901824278     0.152908671176112    65.7459748480464     0.947500145370198    -8.46102217834347    0.947500145370198    -8.46102217834347    0.152908671176112    65.7459748480464     
2.07552981073194     0.153993211197588    65.7791839984537     0.947291469474847    -8.5256108490745     0.947291469474847    -8.5256108490745     0.153993211197588    65.7791839984537     
2.09171585349342     0.155085953648421    65.8113238039914     0.947080229293915    -8.59067624622941    0.947080229293915    -8.59067624622941    0.155085953648421    65.8113238039914     
2.1080281232929      0.156186946614715    65.8423937565546     0.94686639000224     -8.65622153407897    0.94686639000224     -8.65622153407897    0.156186946614715    65.8423937565546     
2.12446760451336     0.15729623827276     65.8723933446316     0.946649916322777    -8.72224988995789    0.946649916322777    -8.72224988995789    0.15729623827276     65.8723933446316     
2.1410352892145      0.158413876883994    65.9013220528994     0.946430772521871    -8.78876450412689    0.946430772521871    -8.78876450412689    0.158413876883994    65.9013220528994     
2.15773217719264     0.159539910789784    65.9291793618342     0.94620892240454     -8.85576857962816    0.94620892240454     -8.85576857962816    0.159539910789784    65.9291793618342     
2.17455927604098     0.160674388406083    65.9559647473355     0.945984329309788    -8.92326533213625    0.945984329309788    -8.92326533213625    0.160674388406083    65.9559647473355     
2.19151760121048     0.161817358217908    65.9816776803688     0.945756956105862    -8.99125798980221    0.945756956105862    -8.99125798980221    0.161817358217908    65.9816776803688     
2.20860817607109     0.162968868773672    66.0063176266224     0.94552676518553     -9.05974979309162    0.94552676518553     -9.05974979309162    0.162968868773672    66.0063176266224     
2.22583203197352     0.164128968679334    66.0298840461792     0.945293718461327    -9.12874399461614    0.945293718461327    -9.12874399461614    0.164128968679334    66.0298840461792     
2.24319020831149     0.165297706592414    66.0523763932061     0.945057777360845    -9.19824385896015    0.945057777360845    -9.19824385896015    0.165297706592414    66.0523763932061     
2.26068375258444     0.166475131215804    66.0737941156571     0.944818902821985    -9.2682526624984     0.944818902821985    -9.2682526624984     0.166475131215804    66.0737941156571     
2.27831372046075     0.167661291291442    66.0941366549946     0.944577055288219    -9.33877369320973    0.944577055288219    -9.33877369320973    0.167661291291442    66.0941366549946     
2.29608117584143     0.168856235593781    66.1134034459248     0.94433219470386     -9.40981025048161    0.94433219470386     -9.40981025048161    0.168856235593781    66.1134034459248     
2.31398719092434     0.170060012923099    66.131593916149      0.944084280509337    -9.4813656449097     0.944084280509337    -9.4813656449097     0.170060012923099    66.131593916149      
2.3320328462689      0.171272672098631    66.1487074861325     0.943833271636472    -9.55344319808908    0.943833271636472    -9.55344319808908    0.171272672098631    66.1487074861325     
2.35021923086127     0.172494261951501    66.1647435688872     0.943579126503772    -9.6260462423991     0.943579126503772    -9.6260462423991     0.172494261951501    66.1647435688872     
2.36854744218008     0.173724831317491    66.1797015697727     0.94332180301174     -9.69917812078042    0.94332180301174     -9.69917812078042    0.173724831317491    66.1797015697727     
2.38701858626266     0.174964429029593    66.1935808863118     0.943061258538147    -9.77284218650463    0.943061258538147    -9.77284218650463    0.174964429029593    66.1935808863118     
2.4056337777718      0.176213103910399    66.2063809080219     0.942797449933438    -9.84704180293674    0.942797449933438    -9.84704180293674    0.176213103910399    66.2063809080219     
2.42439414006298     0.177470904764271    66.2181010162649     0.942530333515999    -9.92178034328936    0.942530333515999    -9.92178034328936    0.177470904764271    66.2181010162649     
2.4433008052522      0.178737880369331    66.2287405841105     0.942259865067587    -9.99706119036938    0.942259865067587    -9.99706119036938    0.178737880369331    66.2287405841105     
2.46235491428426     0.180014079469235    66.2382989762176     0.941985999828707    -10.072887736316     0.941985999828707    -10.072887736316     0.180014079469235    66.2382989762176     
2.48155761700165     0.181299550764756    66.2467755487317     0.941708692494027    -10.1492633823317    0.941708692494027    -10.1492633823317    0.181299550764756    66.2467755487317     
2.50091007221389     0.182594342905147    66.254169649198      0.941427897207807    -10.2261915384033    0.941427897207807    -10.2261915384033    0.182594342905147    66.254169649198      
2.52041344776753     0.18389850447931     66.2604806164921     0.941143567559441    -10.3036756230165    0.941143567559441    -10.3036756230165    0.18389850447931     66.2604806164921     
2.54006892061656     0.185212084006731    66.2657077807659     0.940855656578909    -10.3817190628596    0.940855656578909    -10.3817190628596    0.185212084006731    66.2657077807659     
2.55987767689345     0.186535129928215    66.2698504634116     0.940564116732356    -10.4603252925197    0.940564116732356    -10.4603252925197    0.186535129928215    66.2698504634116     
2.57984091198076     0.187867690596401    66.2729079770404     0.940268899917708    -10.5394977541705    0.940268899917708    -10.5394977541705    0.187867690596401    66.2729079770404     
2.59995983058324     0.189209814266037    66.2748796254801     0.93996995746027     -10.6192398972491    0.93996995746027     -10.6192398972491    0.189209814266037    66.2748796254801     
2.62023564680056     0.190561549084058    66.2757647037869     0.939667240108443    -10.6995551781256    0.939667240108443    -10.6995551781256    0.190561549084058    66.2757647037869     
2.64066958420053     0.191922943079404    66.2755624982766     0.939360698029461    -10.7804470597611    0.939360698029461    -10.7804470597611    0.191922943079404    66.2755624982766     
2.661262875893       0.193294044152627    66.2742722865706     0.939050280805146    -10.8619190113583    0.939050280805146    -10.8619190113583    0.193294044152627    66.2742722865706     
2.68201676460422     0.194674900065266    66.2718933376595     0.938735937427814    -10.9439745080012    0.938735937427814    -10.9439745080012    0.194674900065266    66.2718933376595     
2.70293250275187     0.196065558428965    66.2684249119839     0.938417616296148    -11.0266170302845    0.938417616296148    -11.0266170302845    0.196065558428965    66.2684249119839     
2.7240113525206      0.197466066694364    66.2638662615326     0.938095265211172    -11.1098500639335    0.938095265211172    -11.1098500639335    0.197466066694364    66.2638662615326     
2.74525458593825     0.198876472139744    66.2582166299562     0.937768831372327    -11.1936770994139    0.937768831372327    -11.1936770994139    0.198876472139744    66.2582166299562     
2.76666348495256     0.200296821859432    66.2514752527        0.937438261373566    -11.2781016315307    0.937438261373566    -11.2781016315307    0.200296821859432    66.2514752527        
2.78823934150857     0.20172716275194     66.2436413571524     0.937103501199561    -11.3631271590174    0.937103501199561    -11.3631271590174    0.20172716275194     66.2436413571524     
2.80998345762656     0.203167541507861    66.2347141628121     0.936764496221973    -11.4487571841121    0.936764496221973    -11.4487571841121    0.203167541507861    66.2347141628121     
2.83189714548063     0.204618004597519    66.2246928814706     0.936421191195832    -11.5349952121267    0.936421191195832    -11.5349952121267    0.204618004597519    66.2246928814706     
2.8539817274779      0.206078598258343    66.2135767174148     0.936073530255985    -11.6218447510009    0.936073530255985    -11.6218447510009    0.206078598258343    66.2135767174148     
2.87623853633826     0.207549368481989    66.2013648676445     0.935721456913647    -11.7093093108471    0.935721456913647    -11.7093093108471    0.207549368481989    66.2013648676445     
2.89866891517487     0.209030361001208    66.1880565221095     0.93536491405306     -11.7973924034845    0.93536491405306     -11.7973924034845    0.209030361001208    66.1880565221095     
2.92127421757516     0.210521621276416    66.1736508639629     0.935003843928218    -11.886097541959     0.935003843928218    -11.886097541959     0.210521621276416    66.1736508639629     
2.94405580768251     0.212023194482044    66.1581470698329     0.934638188159782    -11.9754282400544    0.934638188159782    -11.9754282400544    0.212023194482044    66.1581470698329     
2.96701506027862     0.213535125492568    66.1415443101118     0.934267887732034    -12.0653880117896    0.934267887732034    -12.0653880117896    0.213535125492568    66.1415443101118     
2.99015336086641     0.215057458868294    66.1238417492641     0.93389288298997     -12.1559803709043    0.93389288298997     -12.1559803709043    0.215057458868294    66.1238417492641     
3.01347210575367     0.216590238840859    66.1050385461504     0.933513113636542    -12.2472088303327    0.933513113636542    -12.2472088303327    0.216590238840859    66.1050385461504     
3.03697270213733     0.218133509298455    66.0851338543717     0.933128518730002    -12.3390769016647    0.933128518730002    -12.3390769016647    0.218133509298455    66.0851338543717     
3.06065656818834     0.219687313770759    66.0641268226294     0.932739036681416    -12.431588094594     0.932739036681416    -12.431588094594     0.219687313770759    66.0641268226294     
3.08452513313728     0.221251695413603    66.0420165951057     0.932344605252269    -12.5247459163543    0.932344605252269    -12.5247459163543    0.221251695413603    66.0420165951057     
3.1085798373606      0.222826696993333    66.0188023118605     0.931945161552267    -12.6185538711413    0.931945161552267    -12.6185538711413    0.222826696993333    66.0188023118605     
3.13282213246753     0.224412360870909    65.9944831092471     0.931540642037291    -12.7130154595239    0.931540642037291    -12.7130154595239    0.224412360870909    65.9944831092471     
3.15725348138772     0.22600872898568     65.9690581203473     0.931130982507438    -12.8081341778391    0.931130982507438    -12.8081341778391    0.22600872898568     65.9690581203473     
3.18187535845946     0.227615842838908    65.9425264754226     0.930716118105365    -12.9039135175761    0.930716118105365    -12.9039135175761    0.227615842838908    65.9425264754226     
3.20668924951871     0.229233743476955    65.9148873023867     0.930295983314636    -13.0003569647454    0.930295983314636    -13.0003569647454    0.229233743476955    65.9148873023867     
3.23169665198873     0.23086247147422     65.8861397272941     0.929870511958407    -13.0974679992348    0.929870511958407    -13.0974679992348    0.23086247147422     65.8861397272941     
3.25689907497045     0.232502066915742    65.8562828748491     0.929439637198178    -13.1952500941513    0.929439637198178    -13.1952500941513    0.232502066915742    65.8562828748491     
3.28229803933354     0.234152569379529    65.8253158689324     0.929003291532819    -13.2937067151489    0.929003291532819    -13.2937067151489    0.234152569379529    65.8253158689324     
3.30789507780819     0.235814017918585    65.7932378331469     0.928561406797747    -13.3928413197427    0.928561406797747    -13.3928413197427    0.235814017918585    65.7932378331469     
3.3336917350776      0.237486451042617    65.7600478913828     0.928113914164302    -13.4926573566076    0.928113914164302    -13.4926573566076    0.237486451042617    65.7600478913828     
3.35968956787122     0.239169906699472    65.7257451684003     0.927660744139399    -13.5931582648643    0.927660744139399    -13.5931582648643    0.239169906699472    65.7257451684003     
3.38589014505864     0.240864422256249    65.6903287904329     0.927201826565318    -13.6943474733484    0.927201826565318    -13.6943474733484    0.240864422256249    65.6903287904329     
3.41229504774432     0.242570034480118    65.6537978858084     0.92673709061978     -13.796228399867     0.92673709061978     -13.796228399867     0.242570034480118    65.6537978858084     
3.43890586936297     0.244286779518839    65.6161515855895     0.926266464816244    -13.8988044504392    0.926266464816244    -13.8988044504392    0.244286779518839    65.6161515855895     
3.46572421577573     0.246014692880963    65.5773890242333     0.925789877004439    -14.0020790185212    0.925789877004439    -14.0020790185212    0.246014692880963    65.5773890242333     
3.49275170536706     0.24775380941575     65.5375093402705     0.925307254371137    -14.1060554842175    0.925307254371137    -14.1060554842175    0.24775380941575     65.5375093402705     
3.51998996914241     0.24950416329277     65.4965116770038     0.92481852344121     -14.2107372134762    0.92481852344121     -14.2107372134762    0.24950416329277     65.4965116770038     
3.54744065082664     0.251265787981204    65.4543951832242     0.924323610078939    -14.3161275572682    0.924323610078939    -14.3161275572682    0.251265787981204    65.4543951832242     
3.57510540696322     0.253038716228846    65.4111590139478     0.923822439489603    -14.4222298507524    0.923822439489603    -14.4222298507524    0.253038716228846    65.4111590139478     
3.6029859070142      0.254822980040798    65.3668023311729     0.923314936221339    -14.5290474124242    0.923314936221339    -14.5290474124242    0.254822980040798    65.3668023311729     
3.63108383346094     0.256618610657859    65.3213243046543     0.922801024167294    -14.636583543248     0.922801024167294    -14.636583543248     0.256618610657859    65.3213243046543     
3.65940088190564     0.25842563853464     65.2747241126984     0.922280626568101    -14.7448415257755    0.922280626568101    -14.7448415257755    0.25842563853464     65.2747241126984     
3.6879387611737      0.260244093317343    65.2270009429766     0.921753666014632    -14.8538246232462    0.921753666014632    -14.8538246232462    0.260244093317343    65.2270009429766     
3.7166991934168      0.262074003821273    65.1781539933605     0.921220064451076    -14.9635360786733    0.921220064451076    -14.9635360786733    0.262074003821273    65.1781539933605     
3.74568391421684     0.263915398008042    65.1281824727731     0.920679743178366    -15.0739791139126    0.920679743178366    -15.0739791139126    0.263915398008042    65.1281824727731     
3.77489467269066     0.265768302962478    65.0770856020622     0.920132622857907    -15.1851569287158    0.920132622857907    -15.1851569287158    0.265768302962478    65.0770856020622     
3.80433323159564     0.267632744869251    65.0248626148923     0.919578623515654    -15.2970726997675    0.919578623515654    -15.2970726997675    0.267632744869251    65.0248626148923     
3.83400136743601     0.269508748989207    64.9715127586562     0.919017664546556    -15.4097295797057    0.919017664546556    -15.4097295797057    0.269508748989207    64.9715127586562     
3.86390087057011     0.271396339635415    64.9170352954046     0.918449664719363    -15.5231306961261    0.918449664719363    -15.5231306961261    0.271396339635415    64.9170352954046     
3.89403354531841     0.273295540148938    64.8614295027981     0.917874542181772    -15.6372791505702    0.917874542181772    -15.6372791505702    0.273295540148938    64.8614295027981     
3.92440121007238     0.27520637287433     64.8046946750748     0.917292214466014    -15.7521780174971    0.917292214466014    -15.7521780174971    0.27520637287433     64.8046946750748     
3.95500569740424     0.277128859134831    64.7468301240407     0.916702598494736    -15.8678303432377    0.916702598494736    -15.8678303432377    0.277128859134831    64.7468301240407     
3.98584885417756     0.279063019207334    64.6878351800776     0.91610561058738     -15.9842391449343    0.91610561058738     -15.9842391449343    0.279063019207334    64.6878351800776     
4.01693254165867     0.281008872297057    64.6277091931697     0.915501166466917    -16.1014074094626    0.915501166466917    -16.1014074094626    0.281008872297057    64.6277091931697     
4.04825863562904     0.28296643651196     64.5664515339514     0.914889181266992    -16.2193380923371    0.914889181266992    -16.2193380923371    0.28296643651196     64.5664515339514     
4.0798290264984      0.284935728836918    64.5040615947722     0.914269569539528    -16.338034116601     0.914269569539528    -16.338034116601     0.284935728836918    64.5040615947722     
4.11164561941891     0.286916765107626    64.4405387907817     0.91364224526275     -16.4574983716987    0.91364224526275     -16.4574983716987    0.286916765107626    64.4405387907817     
4.14371033440006     0.288909559984277    64.3758825610339     0.913007121849628    -16.5777337123318    0.913007121849628    -16.5777337123318    0.288909559984277    64.3758825610339     
4.17602510642453     0.290914126925       64.3100923696087     0.912364112156856    -16.698742957301     0.912364112156856    -16.698742957301     0.290914126925       64.3100923696087     
4.20859188556502     0.292930478159055    64.2431677067533     0.911713128494186    -16.820528888328     0.911713128494186    -16.820528888328     0.292930478159055    64.2431677067533     
4.24141263710188     0.294958624659813    64.1751080900437     0.911054082634323    -16.9430942488644    0.911054082634323    -16.9430942488644    0.294958624659813    64.1751080900437     
4.27448934164173     0.296998576117535    64.1059130655609     0.910386885823278    -17.0664417428828    0.910386885823278    -17.0664417428828    0.296998576117535    64.1059130655609     
4.30782399523696     0.29905034091192     64.0355822090882     0.909711448791219    -17.1905740336529    0.909711448791219    -17.1905740336529    0.29905034091192     64.0355822090882     
4.3414186095062      0.301113926084458    63.9641151273268     0.909027681763788    -17.3154937425002    0.909027681763788    -17.3154937425002    0.301113926084458    63.9641151273268     
4.37527521175572     0.303189337310602    63.891511459128      0.908335494473989    -17.4412034475502    0.908335494473989    -17.4412034475502    0.303189337310602    63.891511459128      
4.40939584510174     0.305276578871767    63.8177708767434     0.907634796174582    -17.5677056824572    0.907634796174582    -17.5677056824572    0.305276578871767    63.8177708767434     
4.44378256859378     0.307375653627129    63.7428930870936     0.906925495650984    -17.6950029351157    0.906925495650984    -17.6950029351157    0.307375653627129    63.7428930870936     
4.47843745733885     0.309486562985289    63.6668778330541     0.906207501234724    -17.8230976463583    0.906207501234724    -17.8230976463583    0.309486562985289    63.6668778330541     
4.51336260262672     0.311609306875771    63.5897248947567     0.905480720817463    -17.951992208638     0.905480720817463    -17.951992208638     0.311609306875771    63.5897248947567     
4.5485601120561      0.313743883720403    63.5114340909105     0.904745061865588    -18.0816889646951    0.904745061865588    -18.0816889646951    0.313743883720403    63.5114340909105     
4.58403210966184     0.31589029040454     63.4320052801376     0.904000431435306    -18.2121902062095    0.904000431435306    -18.2121902062095    0.31589029040454     63.4320052801376     
4.61978073604308     0.318048522248193    63.3514383623254     0.903246736188392    -18.3434981724382    0.903246736188392    -18.3434981724382    0.318048522248193    63.3514383623254     
4.65580814849249     0.320218572977058    63.2697332799962     0.902483882408501    -18.4756150488398    0.902483882408501    -18.4756150488398    0.320218572977058    63.2697332799962     
4.69211652112636     0.32240043469344     63.18689001969       0.901711776018057    -18.6085429656835    0.901711776018057    -18.6085429656835    0.32240043469344     63.18689001969       
4.72870804501588     0.324594097847114    63.1029086133665     0.900930322595757    -18.7422839966447    0.900930322595757    -18.7422839966447    0.324594097847114    63.1029086133665     
4.76558492831933     0.32679955120612     63.0177891398186     0.900139427394694    -18.8768401573876    0.900139427394694    -18.8768401573876    0.32679955120612     63.0177891398186     
4.80274939641534     0.329016781827521    62.9315317261027     0.899338995361107    -19.0122134041354    0.899338995361107    -19.0122134041354    0.329016781827521    62.9315317261027     
4.84020369203716     0.33124577502811     62.8441365489821     0.898528931153732    -19.1484056322254    0.898528931153732    -19.1484056322254    0.33124577502811     62.8441365489821     
4.87795007540805     0.33348651435512     62.7556038363868     0.897709139163818    -19.2854186746535    0.897709139163818    -19.2854186746535    0.33348651435512     62.7556038363868     
4.91599082437764     0.335738981556944    62.6659338688821     0.896879523535776    -19.4232543006079    0.896879523535776    -19.4232543006079    0.335738981556944    62.6659338688821     
4.95432823455936     0.338003156553839    62.5751269811557     0.896039988188478    -19.5619142139875    0.896039988188478    -19.5619142139875    0.338003156553839    62.5751269811557     
4.99296461946907     0.340279017408699    62.4831835635142     0.8951904368372      -19.7014000519126    0.8951904368372      -19.7014000519126    0.340279017408699    62.4831835635142     
5.03190231066455     0.342566540297867    62.3901040633921     0.894330773016268    -19.8417133832231    0.894330773016268    -19.8417133832231    0.342566540297867    62.3901040633921     
5.0711436578863      0.344865699482027    62.295888986873      0.893460900102332    -19.9828557069668    0.893460900102332    -19.9828557069668    0.344865699482027    62.295888986873      
5.11069102919928     0.347176467277172    62.2005389002223     0.892580721338321    -20.1248284508775    0.892580721338321    -20.1248284508775    0.347176467277172    62.2005389002223     
5.15054681113583     0.349498814025716    62.1040544314288     0.891690139858132    -20.2676329698455    0.891690139858132    -20.2676329698455    0.349498814025716    62.1040544314288     
5.1907134088397      0.351832708067704    62.0064362717582     0.890789058711945    -20.4112705443769    0.890789058711945    -20.4112705443769    0.351832708067704    62.0064362717582     
5.23119324621118     0.354178115712194    61.907685177315      0.889877380892238    -20.5557423790464    0.889877380892238    -20.5557423790464    0.354178115712194    61.907685177315      
5.27198876605336     0.356535001208802    61.8078019706137     0.88895500936053     -20.7010496009417    0.88895500936053     -20.7010496009417    0.356535001208802    61.8078019706137     
5.31310243021958     0.358903326719459    61.7067875421576     0.888021847074785    -20.8471932581013    0.888021847074785    -20.8471932581013    0.358903326719459    61.7067875421576     
5.35453671976194     0.361283052290382    61.6046428520249     0.887077797017577    -20.9941743179463    0.887077797017577    -20.9941743179463    0.361283052290382    61.6046428520249     
5.39629413508108     0.363674135824267    61.5013689314636     0.886122762224883    -21.1419936657047    0.886122762224883    -21.1419936657047    0.363674135824267    61.5013689314636     
5.43837719607705     0.366076533052788    61.396966884489      0.885156645815642    -21.2906521028334    0.885156645815642    -21.2906521028334    0.366076533052788    61.396966884489      
5.48078844230132     0.368490197509334    61.2914378894913     0.884179351021989    -21.4401503454328    0.884179351021989    -21.4401503454328    0.368490197509334    61.2914378894913     
5.52353043311014     0.370915080502121    61.1847832008422     0.883190781220248    -21.5904890226605    0.883190781220248    -21.5904890226605    0.370915080502121    61.1847832008422     
5.56660574781889     0.373351131087587    61.077004150511      0.882190839962576    -21.7416686751399    0.882190839962576    -21.7416686751399    0.373351131087587    61.077004150511      
5.61001698585779     0.375798296044199    60.968102149679      0.881179431009373    -21.8936897533688    0.881179431009373    -21.8936897533688    0.375798296044199    60.968102149679      
5.65376676692873     0.378256519846609    60.8580786903601     0.880156458362352    -22.0465526161238    0.880156458362352    -22.0465526161238    0.378256519846609    60.8580786903601     
5.6978577311634      0.380725744640275    60.7469353470197     0.879121826298374    -22.2002575288677    0.879121826298374    -22.2002575288677    0.380725744640275    60.7469353470197     
5.74229253928255     0.383205910216488    60.6346737781958     0.878075439403939    -22.3548046621541    0.878075439403939    -22.3548046621541    0.383205910216488    60.6346737781958     
5.78707387275663     0.385696953987894    60.5212957281196     0.877017202610413    -22.5101940900354    0.877017202610413    -22.5101940900354    0.385696953987894    60.5212957281196     
5.83220443396754     0.388198810964511    60.4068030283339     0.875947021229978    -22.6664257884714    0.875947021229978    -22.6664257884714    0.388198810964511    60.4068030283339     
5.87768694637174     0.390711413730288    60.2911975993101     0.874864800992218    -22.8234996337427    0.874864800992218    -22.8234996337427    0.390711413730288    60.2911975993101     
5.92352415466461     0.393234692420204    60.1744814520618     0.873770448081443    -22.9814154008658    0.873770448081443    -22.9814154008658    0.393234692420204    60.1744814520618     
5.96971882494606     0.395768574697964    60.0566566897544     0.872663869174697    -23.1401727620144    0.872663869174697    -23.1401727620144    0.395768574697964    60.0566566897544     
6.01627374488746     0.398312985734325    59.9377255093081     0.871544971480452    -23.2997712849482    0.871544971480452    -23.2997712849482    0.398312985734325    59.9377255093081     
6.06319172389986     0.40086784818605     59.817690202997      0.870413662777933    -23.4602104314445    0.870413662777933    -23.4602104314445    0.40086784818605     59.817690202997      
6.11047559330355     0.403433082175561    59.6965531600384     0.869269851457177    -23.6214895557429    0.869269851457177    -23.6214895557429    0.403433082175561    59.6965531600384     
6.15812820649889     0.406008605271289    59.5743168681756     0.868113446559692    -23.7836079029949    0.868113446559692    -23.7836079029949    0.406008605271289    59.5743168681756     
6.20615243913853     0.408594332468763    59.45098391525       0.866944357819788    -23.9465646077258    0.866944357819788    -23.9465646077258    0.408594332468763    59.45098391525       
6.2545511893009      0.411190176172491    59.3265569907626     0.86576249570655     -24.1103586923079    0.86576249570655     -24.1103586923079    0.411190176172491    59.3265569907626     
6.30332737766517     0.413796046178617    59.2010388874241     0.864567771466408    -24.2749890654451    0.864567771466408    -24.2749890654451    0.413796046178617    59.2010388874241     
6.35248394768742     0.416411849658424    59.0744325026921     0.863360097166349    -24.4404545206712    0.863360097166349    -24.4404545206712    0.416411849658424    59.0744325026921     
6.40202386577833     0.419037491142731    58.9467408402927     0.862139385737724    -24.6067537348655    0.862139385737724    -24.6067537348655    0.419037491142731    58.9467408402927     
6.45195012148216     0.421672872507126    58.8179670117294     0.860905551020599    -24.7738852667788    0.860905551020599    -24.7738852667788    0.421672872507126    58.8179670117294     
6.50226572765716     0.424317892958205    58.688114237772      0.859658507808725    -24.9418475555834    0.859658507808725    -24.9418475555834    0.424317892958205    58.688114237772      
6.5529737206574      0.426972449020719    58.5571858499296     0.858398171895043    -25.1106389194364    0.858398171895043    -25.1106389194364    0.426972449020719    58.5571858499296     
6.60407716051599     0.42963643452574     58.4251852919043     0.85712446011771     -25.2802575540648    0.85712446011771     -25.2802575540648    0.42963643452574     58.4251852919043     
6.65557913112972     0.432309740599849    58.2921161210238     0.855837290406632    -25.4507015313713    0.855837290406632    -25.4507015313713    0.432309740599849    58.2921161210238     
6.70748274044522     0.434992255655391    58.157982009652      0.854536581830529    -25.6219687980624    0.854536581830529    -25.6219687980624    0.434992255655391    58.157982009652      
6.75979112064645     0.43768386538181     58.0227867465769     0.85322225464445     -25.7940571743003    0.85322225464445     -25.7940571743003    0.43768386538181     58.0227867465769     
6.81250742834376     0.440384452738108    57.8865342383749     0.851894230337727    -25.9669643523782    0.851894230337727    -25.9669643523782    0.440384452738108    57.8865342383749     
6.86563484476434     0.443093897946476    57.7492285107465     0.850552431682381    -26.1406878954243    0.850552431682381    -26.1406878954243    0.443093897946476    57.7492285107465     
6.91917657594425     0.445812078487087    57.6108737098278     0.849196782781932    -26.3152252361314    0.849196782781932    -26.3152252361314    0.445812078487087    57.6108737098278     
6.97313585292182     0.448538869094134    57.4714741034709     0.847827209120582    -26.490573675517     0.847827209120582    -26.490573675517     0.448538869094134    57.4714741034709     
7.02751593193269     0.45127414175309     57.3310340824964     0.846443637612739    -26.6667303817119    0.846443637612739    -26.6667303817119    0.45127414175309     57.3310340824964     
7.08232009460629     0.454017765699259    57.189558161913      0.845045996652893    -26.8436923887827    0.845045996652893    -26.8436923887827    0.454017765699259    57.189558161913      
7.13755164816388     0.456769607417639    57.0470509821053     0.843634216165772    -27.0214565955849    0.843634216165772    -27.0214565955849    0.456769607417639    57.0470509821053     
7.1932139256181      0.459529530644118    56.9035173099853     0.842208227656765    -27.2000197646537    0.842208227656765    -27.2000197646537    0.459529530644118    56.9035173099853     
7.24931028597416     0.462297396368039    56.7589620401116     0.840767964262608    -27.3793785211275    0.840767964262608    -27.3793785211275    0.462297396368039    56.7589620401116     
7.30584411443247     0.465073062836163    56.6133901957681     0.839313360802241    -27.5595293517115    0.839313360802241    -27.5595293517115    0.465073062836163    56.6133901957681     
7.362818822593       0.467856385558047    56.4668069300065     0.837844353827852    -27.7404686036779    0.837844353827852    -27.7404686036779    0.467856385558047    56.4668069300065     
7.42023784866111     0.470647217312888    56.3192175266473     0.836360881676074    -27.9221924839082    0.836360881676074    -27.9221924839082    0.470647217312888    56.3192175266473     
7.47810465765502     0.473445408157826    56.1706274012408     0.834862884519264    -28.1046970579755    0.834862884519264    -28.1046970579755    0.473445408157826    56.1706274012408     
7.53642274161498     0.47625080543776     56.0210421019836     0.833350304416868    -28.2879782492709    0.833350304416868    -28.2879782492709    0.47625080543776     56.0210421019836     
7.5951956198139      0.479063253796694    55.8704673105926     0.831823085366803    -28.4720318381741    0.831823085366803    -28.4720318381741    0.479063253796694    55.8704673105926     
7.65442683896984     0.48188259519062     55.7189088431318     0.830281173356836    -28.6568534612693    0.830281173356836    -28.6568534612693    0.48188259519062     55.7189088431318     
7.71411997345993     0.484708668901999    55.5663726507924     0.82872451641595     -28.8424386106101    0.82872451641595     -28.8424386106101    0.484708668901999    55.5663726507924     
7.77427862553614     0.487541311555801    55.412864820626      0.82715306466554     -29.02878263303      0.82715306466554     -29.02878263303      0.487541311555801    55.412864820626      
7.83490642554266     0.490380357137211    55.2583915762241     0.825566770370606    -29.2158807295073    0.825566770370606    -29.2158807295073    0.490380357137211    55.2583915762241     
7.89600703213492     0.493225637010904    55.1029592783511     0.823965587990629    -29.4037279545761    0.823965587990629    -29.4037279545761    0.493225637010904    55.1029592783511     
7.95758413250046     0.496076979942051    54.9465744255204     0.822349474230407    -29.5923192157954    0.822349474230407    -29.5923192157954    0.496076979942051    54.9465744255204     
8.01964144258137     0.498934212118925    54.7892436545194     0.820718388090469    -29.7816492732686    0.820718388090469    -29.7816492732686    0.498934212118925    54.7892436545194     
8.08218270729854     0.501797157177254    54.6309737408775     0.819072290917314    -29.9717127392202    0.819072290917314    -29.9717127392202    0.501797157177254    54.6309737408775     
8.14521170077772     0.50466563622621     54.4717715992786     0.817411146453231    -30.1625040776277    0.817411146453231    -30.1625040776277    0.50466563622621     54.4717715992786     
8.20873222657717     0.507539467876196    54.3116442839132     0.815734920885787    -30.354017603915     0.815734920885787    -30.354017603915     0.507539467876196    54.3116442839132     
8.27274811791726     0.510418468268268    54.150598988776      0.814043582896831    -30.5462474847003    0.814043582896831    -30.5462474847003    0.510418468268268    54.150598988776      
8.33726323791179     0.513302451105367    53.9886430478972     0.812337103711035    -30.7391877376082    0.812337103711035    -30.7391877376082    0.513302451105367    53.9886430478972     
8.40228147980107     0.516191227685239    53.8257839355174     0.810615457143919    -30.9328322311416    0.810615457143919    -30.9328322311416    0.516191227685239    53.8257839355174     
8.4678067671869      0.519084606935147    53.6620292661961     0.80887861964926     -31.1271746846177    0.80887861964926     -31.1271746846177    0.519084606935147    53.6620292661961     
8.53384305426935     0.521982395448329    53.4973867948569     0.807126570365931    -31.3222086681681    0.807126570365931    -31.3222086681681    0.521982395448329    53.4973867948569     
8.60039432608533     0.524884397522175    53.3318644167702     0.805359291163979    -31.517927602801     0.805359291163979    -31.517927602801     0.524884397522175    53.3318644167702     
8.66746459874913     0.527790415198241    53.1654701674651     0.803576766690076    -31.714324760535     0.803576766690076    -31.714324760535     0.527790415198241    53.1654701674651     
8.73505791969474     0.530700248303938    52.998212222579      0.8017789844121      -31.9113932645947    0.8017789844121      -31.9113932645947    0.530700248303938    52.998212222579      
8.80317836792013     0.533613694496066    52.8300988976344     0.799965934662982    -32.109126089679     0.799965934662982    -32.109126089679     0.533613694496066    52.8300988976344     
8.87183005423335     0.536530549306008    52.6611386477511     0.798137610683569    -32.3075160622943    0.798137610683569    -32.3075160622943    0.536530549306008    52.6611386477511     
8.94101712150067     0.539450606186768    52.4913400672838     0.796294008664679    -32.5065558611623    0.796294008664679    -32.5065558611623    0.539450606186768    52.4913400672838     
9.01074374489652     0.542373656561657    52.3207118893935     0.794435127788077    -32.7062380176934    0.794435127788077    -32.7062380176934    0.542373656561657    52.3207118893935     
9.08101413215548     0.545299489874802    52.1492629855417     0.792560970266494    -32.9065549165376    0.792560970266494    -32.9065549165376    0.545299489874802    52.1492629855417     
9.15183252382622     0.548227893643287    51.9770023649182     0.790671541382523    -33.1074987962032    0.790671541382523    -33.1074987962032    0.548227893643287    51.9770023649182     
9.22320319352734     0.551158653511058    51.803939173791      0.788766849526411    -33.3090617497507    0.788766849526411    -33.3090617497507    0.551158653511058    51.803939173791      
9.29513044820534     0.554091553304476    51.6300826947851     0.786846906232654    -33.5112357255589    0.786846906232654    -33.5112357255589    0.554091553304476    51.6300826947851     
9.36761862839445     0.557026375089593    51.4554423460847     0.78491172621541     -33.7140125281692    0.78491172621541     -33.7140125281692    0.557026375089593    51.4554423460847     
9.44067210847864     0.559962899230996    51.2800276805635     0.782961327402567    -33.917383819199     0.782961327402567    -33.917383819199     0.559962899230996    51.2800276805635     
9.51429529695556     0.562900904452364    51.1038483848366     0.780995730968527    -34.1213411183352    0.780995730968527    -34.1213411183352    0.562900904452364    51.1038483848366     
9.58849263670256     0.56584016789857     50.9269142782386     0.779014961365641    -34.325875804401     0.779014961365641    -34.325875804401     0.56584016789857     50.9269142782386     
9.66326860524483     0.568780465199371    50.7492353117249     0.777019046354135    -34.5309791164989    0.777019046354135    -34.5309791164989    0.568780465199371    50.7492353117249     
9.73862771502559     0.571721570534664    50.5708215666969     0.775008017030691    -34.7366421552313    0.775008017030691    -34.7366421552313    0.571721570534664    50.5708215666969     
9.8145745136784      0.574663256701228    50.3916832537503     0.772981907855392    -34.9428558839953    0.772981907855392    -34.9428558839953    0.574663256701228    50.3916832537503     
9.8911135843016      0.577605295180965    50.2118307113472     0.77094075667719     -35.1496111303563    0.77094075667719     -35.1496111303563    0.577605295180965    50.2118307113472     
9.96824954573486     0.580547456210592    50.0312744044108     0.76888460475775     -35.3568985874971    0.76888460475775     -35.3568985874971    0.580547456210592    50.0312744044108     
10.0459870528379     0.583489508852721    49.8500249228448     0.766813496793613    -35.5647088157434    0.766813496793613    -35.5647088157434    0.583489508852721    49.8500249228448     
10.1243307967715     0.58643122106833     49.6680929799739     0.764727480936739    -35.7730322441664    0.764727480936739    -35.7730322441664    0.58643122106833     49.6680929799739     
10.2032855052805     0.589372359790546    49.4854894109103     0.762626608813237    -35.9818591722617    0.762626608813237    -35.9818591722617    0.589372359790546    49.4854894109103     
10.2828559429789     0.592312690999726    49.3022251708415     0.760510935540407    -36.1911797717046    0.760510935540407    -36.1911797717046    0.592312690999726    49.3022251708415     
10.3630469116379     0.595251979799754    49.1183113332455     0.758380519741921    -36.4009840881791    0.758380519741921    -36.4009840881791    0.595251979799754    49.1183113332455     
10.4438632504752     0.598189990495544    48.9337590880267     0.756235423561168    -36.6112620432855    0.756235423561168    -36.6112620432855    0.598189990495544    48.9337590880267     
10.5253098364472     0.601126486671682    48.7485797395799     0.754075712672741    -36.8220034365203    0.754075712672741    -36.8220034365203    0.601126486671682    48.7485797395799     
10.6073915845434     0.604061231272154    48.5627847047773     0.751901456291996    -37.0331979473321    0.751901456291996    -37.0331979473321    0.604061231272154    48.5627847047773     
10.6901134480827     0.606993986681102    48.3763855108844     0.749712727182684    -37.2448351372499    0.749712727182684    -37.2448351372499    0.606993986681102    48.3763855108844     
10.7734804190128     0.609924514804556    48.1893937934001     0.74750960166255     -37.4569044520852    0.74750960166255     -37.4569044520852    0.609924514804556    48.1893937934001     
10.8574975282109     0.612852577153124    48.0018212938254     0.745292159607032    -37.6693952242068    0.745292159607032    -37.6693952242068    0.612852577153124    48.0018212938254     
10.9421698457876     0.615777934925474    47.8136798573626     0.743060484450824    -37.8822966748848    0.743060484450824    -37.8822966748848    0.615777934925474    47.8136798573626     
11.027502481393      0.618700349092682    47.6249814305408     0.740814663187456    -38.095597916707     0.740814663187456    -38.095597916707     0.618700349092682    47.6249814305408     
11.1135005845247     0.621619580483308    47.4357380587727     0.738554786366772    -38.3092879560652    0.738554786366772    -38.3092879560652    0.621619580483308    47.4357380587727     
11.2001693448387     0.62453538986911     47.2459618838454     0.736280948090314    -38.5233556957067    0.736280948090314    -38.5233556957067    0.62453538986911     47.2459618838454     
11.2875139924627     0.627447538051414    47.0556651413411     0.733993246004578    -38.7377899373557    0.733993246004578    -38.7377899373557    0.627447538051414    47.0556651413411     
11.3755397983115     0.630355785948012    46.8648601579928     0.731691781292176    -38.9525793844002    0.731691781292176    -38.9525793844002    0.630355785948012    46.8648601579928     
11.4642520744052     0.633259894680509    46.6735593489771     0.729376658660812    -39.16771264464      0.729376658660812    -39.16771264464      0.633259894680509    46.6735593489771     
11.5536561741899     0.636159625662144    46.4817752151394     0.727047986330129    -39.3831782331039    0.727047986330129    -39.3831782331039    0.636159625662144    46.4817752151394     
11.6437574928604     0.639054740685873    46.2895203401638     0.724705876016371    -39.5989645749218    0.724705876016371    -39.5989645749218    0.639054740685873    46.2895203401638     
11.7345614676861     0.641945002012776    46.0968073876763     0.722350442914908    -39.8150600082615    0.722350442914908    -39.8150600082615    0.641945002012776    46.0968073876763     
11.8260735783391     0.64483017246063     45.903649098294      0.719981805680518    -40.0314527873218    0.719981805680518    -40.0314527873218    0.64483017246063     45.903649098294      
11.9182993472245     0.647710015492602    45.7100582866166     0.717600086405593    -40.2481310853817    0.717600086405593    -40.2481310853817    0.647710015492602    45.7100582866166     
12.0112443398143     0.650584295306027    45.5160478381603     0.71520541059606     -40.4650829979069    0.71520541059606     -40.4650829979069    0.650584295306027    45.5160478381603     
12.1049141649826     0.653452776921096    45.3216307062431     0.71279790714519     -40.6822965457053    0.71279790714519     -40.6822965457053    0.653452776921096    45.3216307062431     
12.1993144753445     0.656315226269526    45.1268199088142     0.710377708305246    -40.8997596781382    0.710377708305246    -40.8997596781382    0.656315226269526    45.1268199088142     
12.2944509675971     0.659171410282974    44.9316285252373     0.707944949656922    -41.1174602763767    0.707944949656922    -41.1174602763767    0.659171410282974    44.9316285252373     
12.3903293828632     0.662021096981259    44.7360696930259     0.705499770076674    -41.3353861567071    0.705499770076674    -41.3353861567071    0.662021096981259    44.7360696930259     
12.4869555070378     0.664864055560241    44.5401566045318     0.703042311701919    -41.5535250738809    0.703042311701919    -41.5535250738809    0.664864055560241    44.5401566045318     
12.5843351711373     0.66770005647929     44.3439025035931     0.700572719894058    -41.7718647245079    0.700572719894058    -41.7718647245079    0.66770005647929     44.3439025035931     
12.6824742516515     0.670528871548293    44.1473206821401     0.698091143199477    -41.9903927504886    0.698091143199477    -41.9903927504886    0.670528871548293    44.1473206821401     
12.7813786708977     0.673350274014103    43.9504244767624     0.695597733308392    -42.2090967424865    0.695597733308392    -42.2090967424865    0.673350274014103    43.9504244767624     
12.8810543973787     0.676164038646376    43.7532272652399     0.693092645011701    -42.4279642434361    0.693092645011701    -42.4279642434361    0.676164038646376    43.7532272652399     
12.9815074461429     0.678969941822662    43.5557424630424     0.690576036155768    -42.6469827520817    0.690576036155768    -42.6469827520817    0.678969941822662    43.5557424630424     
13.0827438791468     0.68176776161281     43.3579835197922     0.688048067595195    -42.8661397265541    0.688048067595195    -42.8661397265541    0.68176776161281     43.3579835197922     
13.1847698056214     0.684557277862427    43.1599639157037     0.685508903143658    -43.0854225879681    0.685508903143658    -43.0854225879681    0.684557277862427    43.1599639157037     
13.2875913824403     0.687338272275484    42.9616971579932     0.682958709522798    -43.3048187240517    0.682958709522798    -43.3048187240517    0.687338272275484    42.9616971579932     
13.3912148144918     0.690110528495909    42.7631967772645     0.680397656309161    -43.5243154927973    0.680397656309161    -43.5243154927973    0.690110528495909    42.7631967772645     
13.495646355053      0.692873832188126    42.5644763238741     0.677825915879344    -43.7439002261355    0.677825915879344    -43.7439002261355    0.692873832188126    42.5644763238741     
13.6008923061674     0.695627971116428    42.3655493642784     0.675243663353283    -43.9635602336238    0.675243663353283    -43.9635602336238    0.695627971116428    42.3655493642784     
13.7069590190249     0.698372735223205    42.1664294773619     0.672651076535743    -44.1832828061562    0.672651076535743    -44.1832828061562    0.698372735223205    42.1664294773619     
13.8138528943451     0.701107916705867    41.9671302507538     0.670048335856119    -44.4030552196838    0.670048335856119    -44.4030552196838    0.701107916705867    41.9671302507538     
13.921580382764      0.703833310092445    41.7676652771326     0.667435624306485    -44.622864738946     0.667435624306485    -44.622864738946     0.703833310092445    41.7676652771326     
14.0301479852228     0.706548712315788    41.5680481505232     0.664813127378082    -44.8426986212102    0.664813127378082    -44.8426986212102    0.706548712315788    41.5680481505232     
14.1395622533603     0.70925392278632     41.3682924625867     0.662181032996137    -45.0625441200184    0.662181032996137    -45.0625441200184    0.70925392278632     41.3682924625867     
14.2498297899084     0.711948743463238    41.1684117989095     0.6595395314532      -45.2823884889337    0.6595395314532      -45.2823884889337    0.711948743463238    41.1684117989095     
14.3609572490904     0.714632978924176    40.9684197352891     0.656888815340985    -45.5022189852902    0.656888815340985    -45.5022189852902    0.714632978924176    40.9684197352891     
14.4729513370229     0.717306436433202    40.7683298340242     0.654229079480774    -45.7220228739384    0.654229079480774    -45.7220228739384    0.717306436433202    40.7683298340242     
14.5858188121199     0.71996892600712     40.5681556402092     0.651560520852471    -45.9417874309856    0.651560520852471    -45.9417874309856    0.71996892600712     40.5681556402092     
14.6995664855012     0.722620260480043    40.367910678037      0.648883338522342    -46.1614999475289    0.648883338522342    -46.1614999475289    0.722620260480043    40.367910678037      
14.814201221403      0.72526025556616     40.1676084471094     0.646197733569518    -46.3811477333777    0.646197733569518    -46.3811477333777    0.72526025556616     40.1676084471094     
14.9297299375925     0.727888729920652    39.9672624187644     0.643503909011305    -46.6007181207628    0.643503909011305    -46.6007181207628    0.727888729920652    39.9672624187644     
15.046159605785      0.730505505198729    39.7668860324148     0.640802069727366    -46.8201984680307    0.640802069727366    -46.8201984680307    0.730505505198729    39.7668860324148     
15.1634972520651     0.733110406112704    39.5664926919092     0.638092422382889    -47.0395761633169    0.638092422382889    -47.0395761633169    0.733110406112704    39.5664926919092     
15.28174995731       0.735703260487103    39.3660957619104     0.635375175350721    -47.2588386282009    0.635375175350721    -47.2588386282009    0.735703260487103    39.3660957619104     
15.4009248576176     0.738283899311772    39.1657085642974     0.632650538632617    -47.4779733213377    0.632650538632617    -47.4779733213377    0.738283899311772    39.1657085642974     
15.5210291447364     0.740852156792897    38.9653443745951     0.629918723779616    -47.6969677420616    0.629918723779616    -47.6969677420616    0.740852156792897    38.9653443745951     
15.6420700665        0.743407870401937    38.7650164184309     0.627179943811646    -47.9158094339617    0.627179943811646    -47.9158094339617    0.743407870401937    38.7650164184309     
15.7640549272644     0.745950880922459    38.5647378680207     0.62443441313642     -48.1344859884287    0.62443441313642     -48.1344859884287    0.745950880922459    38.5647378680207     
15.8869910883485     0.748481032494788    38.3645218386913     0.621682347467668    -48.3529850481652    0.621682347467668    -48.3529850481652    0.748481032494788    38.3645218386913     
16.0108859684788     0.75099817265849     38.1643813854357     0.618923963742827    -48.5712943106622    0.618923963742827    -48.5712943106622    0.75099817265849     38.1643813854357     
16.1357470442364     0.753502152392669    37.9643294995057     0.6161594800402      -48.7894015316376    0.6161594800402      -48.7894015316376    0.753502152392669    37.9643294995057     
16.261581850509      0.755992826154004    37.7643791050469     0.61338911549572     -49.0072945284338    0.61338911549572     -49.0072945284338    0.755992826154004    37.7643791050469     
16.3883979809451     0.758470051912553    37.5645430557751     0.610613090219322    -49.2249611833718    0.610613090219322    -49.2249611833718    0.758470051912553    37.5645430557751     
16.5162030884122     0.760933691185325    37.3648341316952     0.607831625211045    -49.4423894470632    0.607831625211045    -49.4423894470632    0.760933691185325    37.3648341316952     
16.6450048854589     0.763383609067533    37.1652650358691     0.60504494227693     -49.6595673416731    0.60504494227693     -49.6595673416731    0.763383609067533    37.1652650358691     
16.7748111447803     0.765819674261597    36.9658483912311     0.602253263944748    -49.8764829641351    0.602253263944748    -49.8764829641351    0.765819674261597    36.9658483912311     
16.9056296996868     0.768241759103835    36.7665967374537     0.599456813379678    -50.0931244893155    0.599456813379678    -50.0931244893155    0.768241759103835    36.7665967374537     
17.0374684445769     0.770649739588849    36.5675225278675     0.596655814299968    -50.3094801731232    0.596655814299968    -50.3094801731232    0.770649739588849    36.5675225278675     
17.1703353354138     0.773043495391648    36.3686381264318     0.593850490892688    -50.5255383555682    0.593850490892688    -50.5255383555682    0.773043495391648    36.3686381264318     
17.3042383902054     0.77542290988743     36.1699558047649     0.591041067729576    -50.7412874637612    0.591041067729576    -50.7412874637612    0.77542290988743     36.1699558047649     
17.439185689488      0.777787870169063    35.9714877392323     0.58822776968314     -50.9567160148538    0.58822776968314     -50.9567160148538    0.777787870169063    35.9714877392323     
17.5751853768141     0.780138267062321    35.7732460080903     0.585410821843009    -51.1718126189235    0.585410821843009    -51.1718126189235    0.780138267062321    35.7732460080903     
17.7122456592437     0.782473995138786    35.5752425886952     0.582590449432617    -51.386565981793     0.582590449432617    -51.386565981793     0.782473995138786    35.5752425886952     
17.8503748078399     0.784794952726484    35.3774893547732     0.579766877726322    -51.6009649077884    0.579766877726322    -51.6009649077884    0.784794952726484    35.3774893547732     
17.9895811581676     0.787101041918288    35.1799980737537     0.576940331966976    -51.814998302433     0.576940331966976    -51.814998302433     0.787101041918288    35.1799980737537     
18.1298731107965     0.789392168578027    34.9827804041693     0.574111037284037    -52.0286551750755    0.574111037284037    -52.0286551750755    0.789392168578027    34.9827804041693     
18.2712591318088     0.791668242344397    34.7858478931224     0.571279218612296    -52.2419246414498    0.571279218612296    -52.2419246414498    0.791668242344397    34.7858478931224     
18.4137477533089     0.793929176632669    34.5892119738169     0.568445100611234    -52.4547959261705    0.568445100611234    -52.4547959261705    0.793929176632669    34.5892119738169     
18.5573475739393     0.796174888634169    34.3928839631633     0.565608907585133    -52.6672583651541    0.565608907585133    -52.6672583651541    0.796174888634169    34.3928839631633     
18.7020672593991     0.798405299313644    34.1968750594497     0.562770863403949    -52.8793014079742    0.562770863403949    -52.8793014079742    0.798405299313644    34.1968750594497     
18.8479155429667     0.800620333404434    34.0011963400878     0.559931191425036    -53.0909146201413    0.559931191425036    -53.0909146201413    0.800620333404434    34.0011963400878     
18.9949012260274     0.802819919401608    33.8058587594251     0.557090114415738    -53.3020876853159    0.557090114415738    -53.3020876853159    0.802819919401608    33.8058587594251     
19.143033178604      0.805003989552934    33.6108731466366     0.554247854476961    -53.5128104074421    0.554247854476961    -53.5128104074421    0.805003989552934    33.6108731466366     
19.2923203398923     0.807172479847886    33.4162502036842     0.551404632967716    -53.7230727128138    0.551404632967716    -53.7230727128138    0.807172479847886    33.4162502036842     
19.4427717188005     0.809325330004583    33.2220005033528     0.548560670430735    -53.9328646520616    0.548560670430735    -53.9328646520616    0.809325330004583    33.2220005033528     
19.594396394493      0.811462483454768    33.0281344873611     0.545716186519168    -54.1421764020677    0.545716186519168    -54.1421764020677    0.811462483454768    33.0281344873611     
19.747203516938      0.813583887326864    32.8346624645459     0.542871399924428    -54.3509982678045    0.542871399924428    -54.3509982678045    0.813583887326864    32.8346624645459     
19.9012023074599     0.815689492427101    32.6415946091237     0.540026528305247    -54.5593206840968    0.540026528305247    -54.5593206840968    0.815689492427101    32.6415946091237     
20.0564020592957     0.817779253218826    32.4489409590259     0.537181788217928    -54.7671342173102    0.537181788217928    -54.7671342173102    0.817779253218826    32.4489409590259     
20.2128121381559     0.819853127799934    32.2567114143141     0.534337395047919    -54.9744295669577    0.534337395047919    -54.9744295669577    0.819853127799934    32.2567114143141     
20.3704419827895     0.821911077878601    32.0649157356657     0.531493562942651    -55.181197567238     0.531493562942651    -55.181197567238     0.821911077878601    32.0649157356657     
20.5293011055536     0.823953068747229    31.873563542941      0.528650504745769    -55.3874291884884    0.528650504745769    -55.3874291884884    0.823953068747229    31.873563542941      
20.6893990929878     0.825979069254746    31.6826643138247     0.525808431932733    -55.5931155385679    0.525808431932733    -55.5931155385679    0.825979069254746    31.6826643138247     
20.8507456063922     0.827989051777244    31.4922273825431     0.522967554547829    -55.7982478641587    0.522967554547829    -55.7982478641587    0.827989051777244    31.4922273825431     
21.0133503824108     0.829982992187051    31.3022619386589     0.520128081142648    -56.0028175519945    0.520128081142648    -56.0028175519945    0.829982992187051    31.3022619386589     
21.1772232336187     0.831960869820253    31.1127770259416     0.517290218716038    -56.2068161300096    0.517290218716038    -56.2068161300096    0.831960869820253    31.1127770259416     
21.3423740491148     0.833922667442735    30.9237815413126     0.514454172655557    -56.4102352684149    0.514454172655557    -56.4102352684149    0.833922667442735    30.9237815413126     
21.508812795118      0.835868371214777    30.7352842338676     0.511620146680475    -56.6130667806945    0.511620146680475    -56.6130667806945    0.835868371214777    30.7352842338676     
21.676549515569      0.837797970654274    30.5472937039725     0.508788342786308    -56.8153026245304    0.508788342786308    -56.8153026245304    0.837797970654274    30.5472937039725     
21.8455943327363     0.839711458598606    30.359818402435      0.505958961190945    -57.0169349026497    0.505958961190945    -57.0169349026497    0.839711458598606    30.359818402435      
22.0159574478269     0.841608831165231    30.1728666297513     0.503132200282364    -57.2179558635968    0.503132200282364    -57.2179558635968    0.841608831165231    30.1728666297513     
22.1876491416021     0.843490087711074    29.9864465354219     0.500308256567962    -57.4183579024359    0.500308256567962    -57.4183579024359    0.843490087711074    29.9864465354219     
22.3606797749979     0.845355230790681    29.8005661173469     0.497487324625502    -57.6181335613734    0.497487324625502    -57.6181335613734    0.845355230790681    29.8005661173469     
22.5350597897501     0.847204266113312    29.6152332212885     0.494669597055714    -57.817275530314     0.494669597055714    -57.817275530314     0.847204266113312    29.6152332212885     
22.7107997090244     0.849037202498926    29.4304555404066     0.491855264436532    -58.0157766473416    0.491855264436532    -58.0157766473416    0.849037202498926    29.4304555404066     
22.8879101380517     0.850854051833154    29.2462406148661     0.489044515278996    -58.2136298991288    0.489044515278996    -58.2136298991288    0.850854051833154    29.2462406148661     
23.0664017647679     0.85265482902131     29.0625958315137     0.486237535984828    -58.410828421277     0.486237535984828    -58.410828421277     0.85265482902131     29.0625958315137     
23.2462853604588     0.854439551941506    28.8795284236219     0.48343451080566     -58.607365498588     0.48343451080566     -58.607365498588     0.854439551941506    28.8795284236219     
23.4275717804102     0.856208241396893    28.6970454707032     0.480635621803948    -58.8032345652654    0.480635621803948    -58.8032345652654    0.856208241396893    28.6970454707032     
23.610271964563      0.857960921067092    28.5151538983917     0.477841048815571    -58.9984292050487    0.477841048815571    -58.9984292050487    0.857960921067092    28.5151538983917     
23.7943969381734     0.859697617458898    28.3338604783882     0.47505096941409     -59.1929431512816    0.47505096941409     -59.1929431512816    0.859697617458898    28.3338604783882     
23.9799578124782     0.861418359856257    28.1531718284736     0.472265558876679    -59.3867702869145    0.472265558876679    -59.3867702869145    0.861418359856257    28.1531718284736     
24.1669657853651     0.863123180269624    27.9730944125832     0.469484990151746    -59.5799046444431    0.469484990151746    -59.5799046444431    0.863123180269624    27.9730944125832     
24.3554321420489     0.864812113384693    27.7936345409466     0.4667094338282      -59.7723404057817    0.4667094338282      -59.7723404057817    0.864812113384693    27.7936345409466     
24.5453682557521     0.866485196510613    27.6147983702866     0.46393905810638     -59.9640719020775    0.46393905810638     -59.9640719020775    0.866485196510613    27.6147983702866     
24.7367855883915     0.868142469527689    27.4365919040809     0.461174028770644    -60.1550936134617    0.461174028770644    -60.1550936134617    0.868142469527689    27.4365919040809     
24.9296956912699     0.869783974834647    27.2590209928813     0.458414509163578    -60.345400168742     0.458414509163578    -60.345400168742     0.869783974834647    27.2590209928813     
25.1241102057727     0.871409757295501    27.0820913346919     0.455660660161853    -60.5349863450355    0.455660660161853    -60.5349863450355    0.871409757295501    27.0820913346919     
25.3200408640712     0.873019864186071    26.9058084754031     0.452912640153675    -60.7238470673461    0.452912640153675    -60.7238470673461    0.873019864186071    26.9058084754031     
25.5174994898299     0.874614345140202    26.7301778092824     0.450170605017879    -60.9119774080839    0.450170605017879    -60.9119774080839    0.874614345140202    26.7301778092824     
25.7164979989204     0.876193252095736    26.5552045795173     0.447434708104542    -61.0993725865332    0.447434708104542    -61.0993725865332    0.876193252095736    26.5552045795173     
25.9170484001403     0.877756639240262    26.3808938788133     0.44470510021723     -61.2860279682625    0.44470510021723     -61.2860279682625    0.877756639240262    26.3808938788133     
26.119162795938      0.879304562956719    26.207250650041      0.44198192959675     -61.471939064488     0.44198192959675     -61.471939064488     0.879304562956719    26.207250650041      
26.3228533831428     0.880837081768872    26.0342796869347     0.439265341906477    -61.6571015313823    0.439265341906477    -61.6571015313823    0.880837081768872    26.0342796869347     
26.5281324537015     0.882354256286716    25.8619856348385     0.436555480219144    -61.8415111693363    0.436555480219144    -61.8415111693363    0.882354256286716    25.8619856348385     
26.7350123954193     0.883856149151838    25.6903729915018     0.433852485005168    -62.0251639221717    0.433852485005168    -62.0251639221717    0.883856149151838    25.6903729915018     
26.9435056927083     0.885342824982805    25.5194461079171     0.431156494122411    -62.2080558763097    0.431156494122411    -62.2080558763097    0.885342824982805    25.5194461079171     
27.1536249273401     0.886814350320579    25.3492091892062     0.428467642807415    -62.3901832598909    0.428467642807415    -62.3901832598909    0.886814350320579    25.3492091892062     
27.3653827792055     0.888270793574034    25.1796662955457     0.425786063668043    -62.5715424418555    0.425786063668043    -62.5715424418555    0.888270793574034    25.1796662955457     
27.5787920270796     0.88971222496558     25.0108213431379     0.423111886677517    -62.7521299309778    0.423111886677517    -62.7521299309778    0.88971222496558     25.0108213431379     
27.7938655493929     0.891138716476978    24.842678105217      0.420445239169837    -62.9319423748644    0.420445239169837    -62.9319423748644    0.891138716476978    24.842678105217      
28.0106163250084     0.892550341795315    24.6752402130998     0.417786245836548    -63.1109765589069    0.417786245836548    -63.1109765589069    0.892550341795315    24.6752402130998     
28.2290574340052     0.893947176259237    24.5085111572689     0.41513502872481     -63.2892294052027    0.41513502872481     -63.2892294052027    0.893947176259237    24.5085111572689     
28.4492020584671     0.895329296805431    24.3424942884946     0.412491707236781    -63.4666979714356    0.412491707236781    -63.4666979714356    0.895329296805431    24.3424942884946     
28.671063483279      0.896696781915419    24.1771928189897     0.409856398130254    -63.6433794497229    0.409856398130254    -63.6433794497229    0.896696781915419    24.1771928189897     
28.8946550969277     0.898049711562659    24.0126098235993     0.407229215520531    -63.8192711654266    0.407229215520531    -63.8192711654266    0.898049711562659    24.0126098235993     
29.1199903923105     0.899388167160026    23.8487482410193     0.404610270883502    -63.9943705759364    0.404610270883502    -63.9943705759364    0.899388167160026    23.8487482410193     
29.3470829675493     0.900712231507656    23.6856108750489     0.401999673059912    -64.1686752694166    0.401999673059912    -64.1686752694166    0.900712231507656    23.6856108750489     
29.5759465268108     0.902021988741225    23.5232003958691     0.399397528260766    -64.3421829635274    0.399397528260766    -64.3421829635274    0.902021988741225    23.5232003958691     
29.8065948811341     0.903317524280652    23.3615193413504     0.39680394007386     -64.514891504116     0.39680394007386     -64.514891504116     0.903317524280652    23.3615193413504     
30.0390419492637     0.90459892477928     23.2005701183849     0.3942190094714      -64.6867988638813    0.3942190094714      -64.6867988638813    0.90459892477928     23.2005701183849     
30.2733017584897     0.90586627807353     23.0403550042465     0.391642834818675    -64.8579031410121    0.391642834818675    -64.8579031410121    0.90586627807353     23.0403550042465     
30.5093884454939     0.907119673133088    22.8808761479703     0.38907551188376     -65.0282025578042    0.38907551188376     -65.0282025578042    0.907119673133088    22.8808761479703     
30.7473162572035     0.9083592000116      22.7221355717592     0.386517133848227    -65.1976954592487    0.386517133848227    -65.1976954592487    0.9083592000116      22.7221355717592     
30.9870995516503     0.909584949797955    22.5641351724056     0.383967791318805    -65.3663803116055    0.383967791318805    -65.3663803116055    0.909584949797955    22.5641351724056     
31.2287527988376     0.910797014568108    22.4068767227387     0.381427572339987    -65.5342557009509    0.381427572339987    -65.5342557009509    0.910797014568108    22.4068767227387     
31.4722905816129     0.911995487337514    22.2503618730857     0.37889656240755     -65.7013203317084    0.37889656240755     -65.7013203317084    0.911995487337514    22.2503618730857     
31.7177275965485     0.913180462014174    22.0945921527526     0.376374844482928    -65.8675730251616    0.376374844482928    -65.8675730251616    0.913180462014174    22.0945921527526     
31.9650786548278     0.914352033352294    21.9395689715193     0.373862499008452    -66.0330127179504    0.373862499008452    -66.0330127179504    0.914352033352294    21.9395689715193     
32.2143586831396     0.915510296906598    21.7852936211511     0.371359603923393    -66.1976384605498    0.371359603923393    -66.1976384605498    0.915510296906598    21.7852936211511     
32.4655827245785     0.916655348987293    21.6317672769221     0.368866234680785    -66.3614494157371    0.368866234680785    -66.3614494157371    0.916655348987293    21.6317672769221     
32.718765939553      0.917787286615686    21.4789909991524     0.366382464265011    -66.5244448570436    0.366382464265011    -66.5244448570436    0.917787286615686    21.4789909991524     
32.9739236067001     0.91890620748052     21.3269657347549     0.363908363210106    -66.6866241671957    0.363908363210106    -66.6866241671957    0.91890620748052     21.3269657347549     
33.2310711238074     0.920012209894954    21.175692318794      0.361443999618752    -66.8479868365433    0.361443999618752    -66.8479868365433    0.920012209894954    21.175692318794      
33.4902240087424     0.921105392754288    21.0251714760516     0.358989439181948    -67.0085324614801    0.358989439181948    -67.0085324614801    0.921105392754288    21.0251714760516     
33.7513979003889     0.92218585549437     20.8754038226027     0.356544745199291    -67.1682607428536    0.356544745199291    -67.1682607428536    0.92218585549437     20.8754038226027     
34.0146085595906     0.923253698050733    20.7263898673962     0.354109978599889    -67.3271714843682    0.354109978599889    -67.3271714843682    0.923253698050733    20.7263898673962     
34.2798718701024     0.924309020818463    20.5781300138432     0.351685197963846    -67.4852645909799    0.351685197963846    -67.4852645909799    0.924309020818463    20.5781300138432     
34.5472038395488     0.925351924612796    20.4306245614085     0.34927045954427     -67.642540067287     0.34927045954427     -67.642540067287     0.925351924612796    20.4306245614085     
34.8166206003899     0.926382510630449    20.2838737072078     0.346865817289836    -67.7989980159145    0.346865817289836    -67.7989980159145    0.926382510630449    20.2838737072078     
35.0881384108951     0.927400880411706    20.1378775476063     0.344471322867824    -67.9546386358945    0.344471322867824    -67.9546386358945    0.927400880411706    20.1378775476063     
35.361773656124      0.928407135803243    19.9926360798204     0.342087025687624    -68.1094622210442    0.342087025687624    -68.1094622210442    0.928407135803243    19.9926360798204     
35.6375428489154     0.929401378921712    19.8481492035189     0.339712972924677    -68.2634691583417    0.339712972924677    -68.2634691583417    0.929401378921712    19.8481492035189     
35.9154626308834     0.930383712118069    19.7044167224276     0.337349209544854    -68.4166599262983    0.337349209544854    -68.4166599262983    0.930383712118069    19.7044167224276     
36.1955497734221     0.931354237942668    19.5614383459292     0.334995778329174    -68.5690350933337    0.334995778329174    -68.5690350933337    0.931354237942668    19.5614383459292     
36.4778211787176     0.932313059111104    19.4192136906654     0.332652719898936    -68.7205953161478    0.332652719898936    -68.7205953161478    0.932313059111104    19.4192136906654     
36.7622938807678     0.933260278470814    19.2777422821348     0.330320072741152    -68.8713413380957    0.330320072741152    -68.8713413380957    0.933260278470814    19.2777422821348     
37.0489850464102     0.934195998968443    19.1370235562871     0.327997873234303    -69.0212739875645    0.327997873234303    -69.0212739875645    0.934195998968443    19.1370235562871     
37.3379119763584     0.935120323617955    18.9970568611166     0.325686155674391    -69.1703941763503    0.325686155674391    -69.1703941763503    0.935120323617955    18.9970568611166     
37.6290921062456     0.936033355469499    18.857841458248      0.323384952301244    -69.3187028980411    0.323384952301244    -69.3187028980411    0.936033355469499    18.857841458248      
37.9225430076772     0.936935197579039    18.7193765245185     0.321094293325068    -69.4662012264015    0.321094293325068    -69.4662012264015    0.936935197579039    18.7193765245185     
38.2182823892909     0.937825952978721    18.5816611535536     0.318814206953215    -69.6128903137635    0.318814206953215    -69.6128903137635    0.937825952978721    18.5816611535536     
38.5163280978251     0.938705724647986    18.4446943573377     0.316544719417165    -69.7587713894191    0.316544719417165    -69.7587713894191    0.938705724647986    18.4446943573377     
38.8166981191966     0.93957461548544     18.3084750677745     0.314285854999657    -69.9038457580234    0.314285854999657    -69.9038457580234    0.93957461548544     18.3084750677745     
39.1194105795853     0.940432728281436    18.173002138244      0.312037636061998    -70.0481147979991    0.312037636061998    -70.0481147979991    0.940432728281436    18.173002138244      
39.4244837465286     0.941280165691424    18.0382743451469     0.309800083071486    -70.1915799599509    0.309800083071486    -70.1915799599509    0.941280165691424    18.0382743451469     
39.7319360300232     0.942117030209996    17.9042903894425     0.307573214628981    -70.3342427650865    0.307573214628981    -70.3342427650865    0.942117030209996    17.9042903894425     
40.0417859836366     0.942943424145676    17.7710488981775     0.305357047496534    -70.476104803643     0.305357047496534    -70.476104803643     0.942943424145676    17.7710488981775     
40.3540523056264     0.943759449596412    17.6385484260028     0.303151596625116    -70.6171677333255    0.303151596625116    -70.6171677333255    0.943759449596412    17.6385484260028     
40.6687538400686     0.944565208425795    17.5067874566816     0.300956875182408    -70.7574332777509    0.300956875182408    -70.7574332777509    0.944565208425795    17.5067874566816     
40.9859095779953     0.945360802239959    17.3757644045866     0.298772894580612    -70.8969032249026    0.298772894580612    -70.8969032249026    0.945360802239959    17.3757644045866     
41.3055386585402     0.946146332365201    17.2454776161845     0.29659966450431     -71.0355794255936    0.29659966450431     -71.0355794255936    0.946146332365201    17.2454776161845     
41.6276603700937     0.94692189982627     17.1159253715105     0.294437192938322    -71.1734637919406    0.294437192938322    -71.1734637919406    0.94692189982627     17.1159253715105     
41.9522941514669     0.947687605325354    16.9871058856288     0.292285486195541    -71.3105582958471    0.292285486195541    -71.3105582958471    0.947687605325354    16.9871058856288     
42.2794595930649     0.948443549221725    16.859017310082      0.290144548944773    -71.4468649674977    0.290144548944773    -71.4468649674977    0.948443549221725    16.859017310082      
42.6091764380687     0.949189831512062    16.7316577343273     0.28801438423851     -71.5823858938627    0.28801438423851     -71.5823858938627    0.949189831512062    16.7316577343273     
42.9414645836265     0.949926551811421    16.6050251871584     0.285894993540674    -71.7171232172148    0.285894993540674    -71.7171232172148    0.949926551811421    16.6050251871584     
43.276344082055      0.950653809334855    16.4791176381154     0.283786376754269    -71.8510791336551    0.283786376754269    -71.8510791336551    0.950653809334855    16.4791176381154     
43.6138351420489     0.95137170287968     16.3539329988796     0.281688532248981    -71.9842558916536    0.281688532248981    -71.9842558916536    0.95137170287968     16.3539329988796     
43.9539581299006     0.952080330808362    16.2294691246545     0.279601456888649    -72.1166557905984    0.279601456888649    -72.1166557905984    0.952080330808362    16.2294691246545     
44.2967335707295     0.95277979103202     16.1057238155327     0.27752514605867     -72.2482811793594    0.27752514605867     -72.2482811793594    0.95277979103202     16.1057238155327     
44.64218214972       0.953470180994562    15.9826948178474     0.275459593693251    -72.379134454863     0.275459593693251    -72.379134454863     0.953470180994562    15.9826948178474     
44.9903247133705     0.954151597657391    15.8603798255098     0.273404792302554    -72.5092180606789    0.273404792302554    -72.5092180606789    0.954151597657391    15.8603798255098     
45.3411822707509     0.954824137484731    15.7387764813304     0.271360732999684    -72.6385344856204    0.271360732999684    -72.6385344856204    0.954824137484731    15.7387764813304     
45.6947759947706     0.955487896429513    15.6178823783257     0.269327405527547    -72.7670862623561    0.269327405527547    -72.7670862623561    0.955487896429513    15.6178823783257     
46.0511272234561     0.956142969919852    15.4976950610091     0.267304798285519    -72.8948759660359    0.267304798285519    -72.8948759660359    0.956142969919852    15.4976950610091     
46.4102574612389     0.956789452846062    15.3782120266667     0.26529289835597     -73.0219062129271    0.26529289835597     -73.0219062129271    0.956789452846062    15.3782120266667     
46.7721883802529     0.95742743954825     15.2594307266156     0.263291691530595    -73.148179659067     0.263291691530595    -73.148179659067     0.95742743954825     15.2594307266156     
47.1369418216423     0.958057023804428    15.1413485674478     0.261301162336554    -73.2736989989253    0.261301162336554    -73.2736989989253    0.958057023804428    15.1413485674478     
47.5045397968801     0.958678298819169    15.0239629122578     0.259321294062422    -73.3984669640806    0.259321294062422    -73.3984669640806    0.958678298819169    15.0239629122578     
47.8750044890955     0.959291357212777    14.9072710818533     0.257352068783937    -73.5224863219101    0.257352068783937    -73.5224863219101    0.959291357212777    14.9072710818533     
48.2483582544136     0.959896291010978    14.7912703559498     0.255393467389514    -73.6457598742921    0.255393467389514    -73.6457598742921    0.959896291010978    14.7912703559498     
48.6246236233037     0.960493191635097    14.675957974349      0.25344546960557     -73.7682904563207    0.25344546960557     -73.7682904563207    0.960493191635097    14.675957974349      
49.0038233019391     0.961082149892732    14.5613311381011     0.251508054021607    -73.8900809350343    0.251508054021607    -73.8900809350343    0.961082149892732    14.5613311381011     
49.3859801735678     0.961663255968916    14.4473870106491     0.24958119811505     -74.0111342081569    0.24958119811505     -74.0111342081569    0.961663255968916    14.4473870106491     
49.7711172998927     0.962236599417726    14.3341227189583     0.247664878275873    -74.1314532028507    0.247664878275873    -74.1314532028507    0.962236599417726    14.3341227189583     
50.1592579224641     0.962802269154382    14.2215353546286     0.245759069830964    -74.2510408744835    0.245759069830964    -74.2510408744835    0.962802269154382    14.2215353546286     
50.5504254640813     0.96336035344776     14.1096219749891     0.243863747068238    -74.3699002054069    0.243863747068238    -74.3699002054069    0.96336035344776     14.1096219749891     
50.9446435302069     0.963910939913379    13.9983796041773     0.241978883260512    -74.4880342037483    0.241978883260512    -74.4880342037483    0.963910939913379    13.9983796041773     
51.3419359103908     0.964454115506787    13.8878052342017     0.2401044506891      -74.6054459022136    0.2401044506891      -74.6054459022136    0.964454115506787    13.8878052342017     
51.7423265797062     0.964989966517379    13.7778958259865     0.238240420667171    -74.7221383569039    0.238240420667171    -74.7221383569039    0.964989966517379    13.7778958259865     
52.1458397001959     0.965518578562634    13.6686483104007     0.236386763562801    -74.8381146461427    0.236386763562801    -74.8381146461427    0.965518578562634    13.6686483104007     
52.5524996223307     0.96604003658272     13.5600595892707     0.23454344882181     -74.9533778693158    0.23454344882181     -74.9533778693158    0.96604003658272     13.5600595892707     
52.9623308864791     0.966554424835522    13.4521265363758     0.232710444990267    -75.0679311457221    0.232710444990267    -75.0679311457221    0.966554424835522    13.4521265363758     
53.3753582243876     0.967061826892025    13.3448459984267     0.230887719736763    -75.1817776134364    0.230887719736763    -75.1817776134364    0.967061826892025    13.3448459984267     
53.7916065606737     0.967562325632079    13.2382147960291     0.229075239874379    -75.2949204281834    0.229075239874379    -75.2949204281834    0.967562325632079    13.2382147960291     
54.2111010143298     0.968056003240518    13.1322297246291     0.227272971382377    -75.4073627622224    0.227272971382377    -75.4073627622224    0.968056003240518    13.1322297246291     
54.633866900239      0.968542941203622    13.0268875554439     0.225480879427631    -75.5191078032421    0.225480879427631    -75.5191078032421    0.968542941203622    13.0268875554439     
55.0599297307028     0.969023220305944    12.9221850363741     0.223698928385716    -75.6301587532677    0.223698928385716    -75.6301587532677    0.969023220305944    12.9221850363741     
55.4893152169807     0.969496920627437    12.8181188929025     0.221927081861782    -75.7405188275754    0.221927081861782    -75.7405188275754    0.969496920627437    12.8181188929025     
55.9220492708417     0.969964121540925    12.7146858289743     0.220165302711079    -75.8501912536199    0.220165302711079    -75.8501912536199    0.969964121540925    12.7146858289743     
56.3581580061282     0.970424901709881    12.6118825278628     0.218413553059223    -75.9591792699682    0.218413553059223    -75.9591792699682    0.970424901709881    12.6118825278628     
56.7976677403314     0.970879339086504    12.5097056530183     0.216671794322161    -76.0674861252459    0.216671794322161    -76.0674861252459    0.970879339086504    12.5097056530183     
57.24060499618       0.9713275109101      12.4081518489021     0.214939987225854    -76.1751150770894    0.214939987225854    -76.1751150770894    0.9713275109101      12.4081518489021     
57.6869965032403     0.971769493705745    12.3072177418034     0.21321809182565     -76.282069391109     0.21321809182565     -76.282069391109     0.971769493705745    12.3072177418034     
58.1368691995297     0.972205363283218    12.2068999406422     0.211506067525379    -76.3883523398585    0.211506067525379    -76.3883523398585    0.972205363283218    12.2068999406422     
58.5902502331418     0.972635194736224    12.1071950377557     0.209803873096154    -76.4939672018135    0.209803873096154    -76.4939672018135    0.972635194736224    12.1071950377557     
59.047166963885      0.973059062441856    12.0080996096695     0.208111466694877    -76.5989172603569    0.208111466694877    -76.5989172603569    0.973059062441856    12.0080996096695     
59.5076469649334     0.973477040060327    11.9096102178535     0.206428805882441    -76.7032058027715    0.206428805882441    -76.7032058027715    0.973477040060327    11.9096102178535     
59.9717180244909     0.97388920053493     11.8117234094627     0.204755847641669    -76.8068361192386    0.204755847641669    -76.8068361192386    0.97388920053493     11.8117234094627     
60.4394081474681     0.974295616092251    11.714435718064      0.203092548394928    -76.9098115018433    0.203092548394928    -76.9098115018433    0.974295616092251    11.714435718064      
60.9107455571721     0.974696358242607    11.6177436643463     0.201438864021479    -77.0121352435853    0.201438864021479    -77.0121352435853    0.974696358242607    11.6177436643463     
61.3857586970096     0.975091497780692    11.5216437568178     0.199794749874521    -77.1138106373947    0.199794749874521    -77.1138106373947    0.975091497780692    11.5216437568178     
61.8644762322039     0.975481104786458    11.426132492487      0.19816016079795     -77.2148409751526    0.19816016079795     -77.2148409751526    0.975481104786458    11.426132492487      
62.3469270515241     0.975865248626188    11.3312063575309     0.196535051142838    -77.3152295467161    0.196535051142838    -77.3152295467161    0.975865248626188    11.3312063575309     
62.8331402690289     0.976243997953768    11.2368618279482     0.194919374783614    -77.4149796389458    0.194919374783614    -77.4149796389458    0.976243997953768    11.2368618279482     
63.3231452258231     0.976617420712164    11.1430953701979     0.193313085133973    -77.5140945347386    0.193313085133973    -77.5140945347386    0.976617420712164    11.1430953701979     
63.8169714918286     0.976985584135066    11.0499034418252     0.191716135162482    -77.6125775120605    0.191716135162482    -77.6125775120605    0.976985584135066    11.0499034418252     
64.3146488675685     0.977348554748726    10.9572824920721     0.19012847740793     -77.7104318429831    0.19012847740793     -77.7104318429831    0.977348554748726    10.9572824920721     
64.8162073859659     0.977706398373956    10.8652289624765     0.188550063994375    -77.8076607927204    0.188550063994375    -77.8076607927204    0.977706398373956    10.8652289624765     
65.3216773141556     0.9780591801283      10.7737392874548     0.186980846645933    -77.9042676186671    0.186980846645933    -77.9042676186671    0.9780591801283      10.7737392874548     
65.8310891553115     0.978406964428359    10.6828098948743     0.185420776701265    -78.0002555694363    0.185420776701265    -78.0002555694363    0.978406964428359    10.6828098948743     
66.3444736504863     0.978749814992264    10.5924372066109     0.183869805127822    -78.0956278838963    0.183869805127822    -78.0956278838963    0.978749814992264    10.5924372066109     
66.8618617804675     0.979087794842309    10.5026176390931     0.18232788253579     -78.1903877902075    0.18232788253579     -78.1903877902075    0.979087794842309    10.5026176390931     
67.3832847676465     0.979420966307709    10.413347603835      0.18079495919178     -78.2845385048554    0.18079495919178     -78.2845385048554    0.979420966307709    10.413347603835      
67.908774077903      0.9797493910275      10.3246235079553     0.17927098503225     -78.3780832316821    0.17927098503225     -78.3780832316821    0.9797493910275      10.3246235079553     
68.4383614225036     0.980073129953565    10.2364417546847     0.17775590967665     -78.4710251609131    0.17775590967665     -78.4710251609131    0.980073129953565    10.2364417546847     
68.9720787600155     0.980392243353784    10.1487987438598     0.176249682440322    -78.5633674681811    0.176249682440322    -78.5633674681811    0.980392243353784    10.1487987438598     
69.5099582982353     0.980706790815299    10.0616908724063     0.17475225234713     -78.6551133135432    0.17475225234713     -78.6551133135432    0.980706790815299    10.0616908724063     
70.0520324961325     0.981016831247892    9.9751145348091      0.173263568141828    -78.7462658404929    0.173263568141828    -78.7462658404929    0.981016831247892    9.9751145348091      
70.598334065808      0.981322422887472    9.88906612357109     0.171783578302179    -78.8368281749643    0.171783578302179    -78.8368281749643    0.981322422887472    9.88906612357109     
71.1488959744687     0.981623623299655    9.80354202965999     0.170312231050823    -78.9268034243293    0.170312231050823    -78.9268034243293    0.981623623299655    9.80354202965999     
71.7037514464163     0.981920489383449    9.71853864294459     0.168849474366894    -79.016194676385     0.168849474366894    -79.016194676385     0.981920489383449    9.71853864294459     
72.2629339650529     0.982213077375028    9.63405235261835     0.167395255997382    -79.1050049983316    0.167395255997382    -79.1050049983316    0.982213077375028    9.63405235261835     
72.8264772749012     0.982501442851594    9.55007954761235     0.165949523468259    -79.1932374357398    0.165949523468259    -79.1932374357398    0.982501442851594    9.55007954761235     
73.3944153836407     0.982785640735313    9.46661661699835     0.164512224095371    -79.2808950115048    0.164512224095371    -79.2808950115048    0.982785640735313    9.46661661699835     
73.9667825641607     0.983065725297338    9.38365995037934     0.163083304995067    -79.3679807247883    0.163083304995067    -79.3679807247883    0.983065725297338    9.38365995037934     
74.5436133566274     0.983341750161904    9.30120593827002     0.161662713094616    -79.4544975499466    0.161662713094616    -79.4544975499466    0.983341750161904    9.30120593827002     
75.1249425705693     0.983613768310488    9.21925097246797     0.160250395142384    -79.5404484354408    0.160250395142384    -79.5404484354408    0.983613768310488    9.21925097246797     
75.7108052869773     0.983881832086032    9.1377914464127      0.158846297717768    -79.6258363027324    0.158846297717768    -79.6258363027324    0.983881832086032    9.1377914464127      
76.3012368604218     0.984145993197234    9.05682375553573     0.157450367240931    -79.7106640451603    0.157450367240931    -79.7106640451603    0.984145993197234    9.05682375553573     
76.8962729211862     0.984406302722892    8.97634429760031     0.156062549982279    -79.7949345267971    0.156062549982279    -79.7949345267971    0.984406302722892    8.97634429760031     
77.4959493774169     0.984662811116296    8.89634947303109     0.154682792071741    -79.8786505812855    0.154682792071741    -79.8786505812855    0.984662811116296    8.89634947303109     
78.1003024172907     0.984915568209681    8.81683568523482     0.153311039507827    -79.9618150106515    0.153311039507827    -79.9618150106515    0.984915568209681    8.81683568523482     
78.7093685111982     0.985164623218708    8.73779934091063     0.151947238166462    -80.0444305840942    0.151947238166462    -80.0444305840942    0.985164623218708    8.73779934091063     
79.3231844139446     0.985410024747007    8.65923685035194     0.150591333809612    -80.1265000367485    0.150591333809612    -80.1265000367485    0.985410024747007    8.65923685035194     
79.9417871669682     0.985651820790741    8.58114462773807     0.149243272093703    -80.2080260684219    0.149243272093703    -80.2080260684219    0.985651820790741    8.58114462773807     
80.5652141005749     0.98589005874322     8.50351909141813     0.147902998577837    -80.289011342301     0.147902998577837    -80.289011342301     0.98589005874322     8.50351909141813     
81.1935028361917     0.986124785399534    8.42635666418462     0.146570458731795    -80.3694584836271    0.146570458731795    -80.3694584836271    0.986124785399534    8.42635666418462     
81.8266912886369     0.986356046961223    8.34965377353947     0.14524559794384     -80.4493700783382    0.14524559794384     -80.4493700783382    0.986356046961223    8.34965377353947     
82.4648176684076     0.986583889040968    8.27340685195115     0.143928361528344    -80.5287486716766    0.143928361528344    -80.5287486716766    0.986583889040968    8.27340685195115     
83.1079204839861     0.986808356667317    8.19761233710277     0.142618694733179    -80.6075967667586    0.142618694733179    -80.6075967667586    0.986808356667317    8.19761233710277     
83.7560385441634     0.987029494289407    8.12226667213266     0.141316542746972    -80.6859168231045    0.141316542746972    -80.6859168231045    0.987029494289407    8.12226667213266     
84.4092109603814     0.98724734578173     8.04736630586705     0.140021850706112    -80.7637112551265    0.140021850706112    -80.7637112551265    0.98724734578173     8.04736630586705     
85.067477149093      0.987461954448898    7.97290769304334     0.138734563701626    -80.8409824305724    0.138734563701626    -80.8409824305724    0.987461954448898    7.97290769304334     
85.7308768341407     0.987673363030418    7.89888729452734     0.13745462678583     -80.9177326689217    0.13745462678583     -80.9177326689217    0.987673363030418    7.89888729452734     
86.399450049154      0.987881613705492    7.8253015775217      0.136181984978825    -80.9939642397319    0.136181984978825    -80.9939642397319    0.987881613705492    7.8253015775217      
87.0732371399648     0.988086748097808    7.75214701576701     0.134916583274814    -81.0696793609322    0.134916583274814    -81.0696793609322    0.988086748097808    7.75214701576701     
87.7522787670427     0.988288807280342    7.67942008973555     0.133658366648231    -81.144880197061     0.133658366648231    -81.144880197061     0.988288807280342    7.67942008973555     
88.4366159079485     0.988487831780165    7.60711728681826     0.132407280059724    -81.2195688574438    0.132407280059724    -81.2195688574438    0.988487831780165    7.60711728681826     
89.1262898598066     0.988683861583249    7.5352351015034      0.131163268461938    -81.2937473943098    0.131163268461938    -81.2937473943098    0.988683861583249    7.5352351015034      
89.821342241798      0.988876936139262    7.46377003554972     0.129926276805164    -81.3674178008412    0.129926276805164    -81.3674178008412    0.988876936139262    7.46377003554972     
90.5218149976707     0.989067094366382    7.39271859815134     0.128696250042807    -81.4405820091535    0.128696250042807    -81.4405820091535    0.989067094366382    7.39271859815134     
91.2277503982722     0.989254374656074    7.32207730609715     0.127473133136703    -81.5132418882014    0.127473133136703    -81.5132418882014    0.989254374656074    7.32207730609715     
91.9391910440992     0.989438814877888    7.25184268392277     0.126256871062275    -81.5853992416074    0.126256871062275    -81.5853992416074    0.989438814877888    7.25184268392277     
92.656179867869      0.989620452384232    7.18201126405627     0.125047408813535    -81.6570558054069    0.125047408813535    -81.6570558054069    0.989620452384232    7.18201126405627     
93.3787601371104     0.989799324015133    7.11257958695762     0.123844691407941    -81.7282132457073    0.123844691407941    -81.7282132457073    0.989799324015133    7.11257958695762     
94.106975456774      0.989975466102992    7.04354420125247     0.122648663891102    -81.7988731562544    0.122648663891102    -81.7988731562544    0.989975466102992    7.04354420125247     
94.8408697718646     0.990148914477324    6.97490166385835     0.121459271341335    -81.8690370559026    0.121459271341335    -81.8690370559026    0.990148914477324    6.97490166385835     
95.5804873700923     0.990319704469476    6.90664854010682     0.120276458874085    -81.9387063859803    0.120276458874085    -81.9387063859803    0.990319704469476    6.90664854010682     
96.3258728845457     0.990487870917328    6.83878140385818     0.119100171646201    -82.0078825075492    0.119100171646201    -82.0078825075492    0.990487870917328    6.83878140385818     
97.0770712963848     0.990653448169979    6.77129683761155     0.117930354860077    -82.0765666985469    0.117930354860077    -82.0765666985469    0.990653448169979    6.77129683761155     
97.8341279375557     0.990816470092419    6.70419143260844     0.116766953767652    -82.1447601508096    0.116766953767652    -82.1447601508096    0.990816470092419    6.70419143260844     
98.5970884935263     0.990976970070152    6.63746178893184     0.115609913674291    -82.2124639669653    0.115609913674291    -82.2124639669653    0.990976970070152    6.63746178893184     
99.3659990060432     0.991134981013835    6.57110451559891     0.114459179942525    -82.2796791571923    0.114459179942525    -82.2796791571923    0.991134981013835    6.57110451559891     
100.14090587591      0.991290535363855    6.50511623064943     0.113314697995668    -82.3464066358339    0.113314697995668    -82.3464066358339    0.991290535363855    6.50511623064943     
100.921855865787     0.991443665094906    6.43949356122796     0.112176413321308    -82.4126472178615    0.112176413321308    -82.4126472178615    0.991443665094906    6.43949356122796     
101.708896103015     0.991594401720529    6.37423314366199     0.11104427147468     -82.4784016151769    0.11104427147468     -82.4784016151769    0.991594401720529    6.37423314366199     
102.502074082456     0.991742776297624    6.30933162353477     0.109918218081919    -82.543670432745     0.109918218081919    -82.543670432745     0.991742776297624    6.30933162353477     
103.301437669364     0.991888819430931    6.24478565575284     0.108798198843192    -82.6084541645463    0.108798198843192    -82.6084541645463    0.991888819430931    6.24478565575284     
104.107035102266     0.992032561277494    6.1805919046101      0.107684159535726    -82.6727531893388    0.107684159535726    -82.6727531893388    0.992032561277494    6.1805919046101      
104.918914995884     0.992174031551073    6.11674704384525     0.106576046016704    -82.7365677662192    0.106576046016704    -82.7365677662192    0.992174031551073    6.11674704384525     
105.737126344056     0.99231325952654     6.05324775669726     0.105473804226078    -82.7998980299684    0.105473804226078    -82.7998980299684    0.99231325952654     6.05324775669726     
106.561718522705     0.992450274044242    5.99009073595383     0.104377380189258    -82.8627439861722    0.104377380189258    -82.8627439861722    0.992450274044242    5.99009073595383     
107.392741292808     0.992585103514316    5.92727268399758     0.103286720019694    -82.9251055061004    0.103286720019694    -82.9251055061004    0.992585103514316    5.92727268399758     
108.230244803406     0.992717775920986    5.86479031284694     0.102201769921376    -82.9869823213314    0.102201769921376    -82.9869823213314    0.992717775920986    5.86479031284694     
109.074279594626     0.992848318826823    5.80264034419297     0.101122476191205    -83.0483740181067    0.101122476191205    -83.0483740181067    0.992848318826823    5.80264034419297     
109.924896600736     0.992976759376952    5.7408195094328      0.100048785221301    -83.1092800313975    0.100048785221301    -83.1092800313975    0.992976759376952    5.7408195094328      
110.782147153213     0.993103124303245    5.67932454969793     0.098980643501179    -83.1696996386674    0.098980643501179    -83.1696996386674    0.993103124303245    5.67932454969793     
111.646082983842     0.993227439928462    5.61815221588017     0.097917997619864    -83.2296319533098    0.097917997619864    -83.2296319533098    0.993227439928462    5.61815221588017     
112.516756227842     0.993349732170359    5.55729926865272     0.096860794267901    -83.2890759177418    0.096860794267901    -83.2890759177418    0.993349732170359    5.55729926865272     
113.394219427007     0.99347002654576     5.49676247848751     0.095808980239274    -83.3480302961326    0.095808980239274    -83.3480302961326    0.99347002654576     5.49676247848751     
114.278525532879     0.993588348174583    5.4365386256701      0.094762502433252    -83.4064936667401    0.094762502433252    -83.4064936667401    0.993588348174583    5.4365386256701      
115.169727909945     0.993704721783832    5.37662450030957     0.093721307856137    -83.4644644138357    0.093721307856137    -83.4644644138357    0.993704721783832    5.37662450030957     
116.067880338852     0.993819171711551    5.31701690234615     0.092685343622945    -83.5219407191857    0.092685343622945    -83.5219407191857    0.993819171711551    5.31701690234615     
116.97303701966      0.993931721910728    5.25771264155481     0.091654556958998    -83.5789205530628    0.091654556958998    -83.5789205530628    0.993931721910728    5.25771264155481     
117.885252575106     0.994042395953168    5.19870853754603     0.090628895201445    -83.6354016647562    0.090628895201445    -83.6354016647562    0.994042395953168    5.19870853754603     
118.804582053903     0.994151217033319    5.14000141976289     0.089608305800709    -83.6913815725476    0.089608305800709    -83.6913815725476    0.994151217033319    5.14000141976289     
119.731080934064     0.994258207972059    5.08158812747558     0.088592736321857    -83.7468575531149    0.088592736321857    -83.7468575531149    0.994258207972059    5.08158812747558     
120.664805126247     0.994363391220438    5.02346550977248     0.087582134445912    -83.8018266303285    0.087582134445912    -83.8018266303285    0.994363391220438    5.02346550977248     
121.60581097713      0.99446678886338     4.96563042554842     0.086576447971086    -83.8562855633956    0.086576447971086    -83.8562855633956    0.99446678886338     4.96563042554842     
122.554155272809     0.99456842262334     4.90807974349028     0.085575624813958    -83.9102308343083    0.085575624813958    -83.9102308343083    0.99456842262334     4.90807974349028     
123.509895242231     0.994668313863921    4.85081034205895     0.08457961301058     -83.9636586345493    0.08457961301058     -83.9636586345493    0.994668313863921    4.85081034205895     
124.473088560641     0.994766483593442    4.79381910946994     0.083588360717541    -84.0165648509983    0.083588360717541    -84.0165648509983    0.994766483593442    4.79381910946994     
125.443793353065     0.99486295246847     4.73710294366968     0.082601816212948    -84.0689450509884    0.082601816212948    -84.0689450509884    0.99486295246847     4.73710294366968     
126.422068197819     0.994957740797302    4.68065875231061     0.081619927897384    -84.1207944664463    0.081619927897384    -84.1207944664463    0.994957740797302    4.68065875231061     
127.407972130041     0.995050868543401    4.62448345272285     0.080642644294781    -84.1721079770532    0.080642644294781    -84.1721079770532    0.995050868543401    4.62448345272285     
128.401564645257     0.9951423553288      4.56857397188362     0.079669914053277    -84.2228800923538    0.079669914053277    -84.2228800923538    0.9951423553288      4.56857397188362     
129.402905702968     0.995232220437444    4.51292724638463     0.078701685945996    -84.2731049327358    0.078701685945996    -84.2731049327358    0.995232220437444    4.51292724638463     
130.412055730271     0.995320482818498    4.45754022239625     0.077737908871811    -84.3227762091965    0.077737908871811    -84.3227762091965    0.995320482818498    4.45754022239625     
131.429075625504     0.995407161089613    4.40240985563051     0.076778531856047    -84.3718872018027    0.076778531856047    -84.3718872018027    0.995407161089613    4.40240985563051     
132.454026761921     0.995492273540135    4.34753311130077     0.075823504051156    -84.4204307367487    0.075823504051156    -84.4204307367487    0.995492273540135    4.34753311130077     
133.486970991396     0.99557583813428     4.29290696408015     0.074872774737357    -84.4683991619       0.074872774737357    -84.4683991619       0.99557583813428     4.29290696408015     
134.527970648156     0.99565787251426     4.23852839805681     0.073926293323241    -84.5157843207083    0.073926293323241    -84.5157843207083    0.99565787251426     4.23852839805681     
135.577088552542     0.995738394003356    4.18439440668866     0.072984009346355    -84.5625775243669    0.072984009346355    -84.5625775243669    0.995738394003356    4.18439440668866     
136.634388014801     0.995817419608964    4.13050199275429     0.07204587247375     -84.6087695220703    0.07204587247375     -84.6087695220703    0.995817419608964    4.13050199275429     
137.699932838904     0.995894966025572    4.0768481683035      0.071111832502525    -84.6543504692211    0.071111832502525    -84.6543504692211    0.995894966025572    4.0768481683035      
138.773787326399     0.995971049637712    4.02342995460492     0.070181839360337    -84.6993098934216    0.070181839360337    -84.6993098934216    0.995971049637712    4.02342995460492     
139.85601628029      0.996045686522854    3.97024438209243     0.069255843105915    -84.7436366580639    0.069255843105915    -84.7436366580639    0.996045686522854    3.97024438209243     
140.946685008948     0.996118892454256    3.91728849030932     0.068333793929554    -84.7873189233226    0.068333793929554    -84.7873189233226    0.996118892454256    3.91728849030932     
142.045859330053     0.996190682903774    3.86455932785102     0.067415642153612    -84.8303441043277    0.067415642153612    -84.8303441043277    0.996190682903774    3.86455932785102     
143.153605574564     0.99626107304462     3.81205395230592     0.066501338233002    -84.8726988262799    0.066501338233002    -84.8726988262799    0.99626107304462     3.81205395230592     
144.269990590721     0.996330077754075    3.75976943019511     0.065590832755709    -84.914368876243     0.065590832755709    -84.914368876243     0.996330077754075    3.75976943019511     
145.395081748086     0.996397711616161    3.70770283690952     0.064684076443293    -84.9553391513246    0.064684076443293    -84.9553391513246    0.996397711616161    3.70770283690952     
146.528946941597     0.99646398892426     3.65585125664644     0.063781020151433    -84.9955936029243    0.063781020151433    -84.9955936029243    0.99646398892426     3.65585125664644     
147.671654595675     0.996528923683692    3.60421178234426     0.062881614870489    -85.0351151766981    0.062881614870489    -85.0351151766981    0.996528923683692    3.60421178234426     
148.823273668351     0.996592529614248    3.55278151561558     0.061985811726098    -85.0738857478503    0.061985811726098    -85.0738857478503    0.996592529614248    3.55278151561558     
149.983873655421     0.996654820152672    3.50155756667915     0.061093561979812    -85.1118860513231    0.061093561979812    -85.1118860513231    0.996654820152672    3.50155756667915     
151.153524594649     0.996715808455102    3.45053705429017     0.060204817029779    -85.1490956064102    0.060204817029779    -85.1490956064102    0.996715808455102    3.45053705429017     
152.332297069989     0.996775507399464    3.3997171056698      0.059319528411498    -85.1854926352659    0.059319528411498    -85.1854926352659    0.996775507399464    3.3997171056698      
153.520262215843     0.996833929587819    3.3490948564329      0.058437647798629    -85.2210539747287    0.058437647798629    -85.2210539747287    0.996833929587819    3.3490948564329      
154.717491721356     0.996891087348665    3.2986674505145      0.05755912700389     -85.2557549808095    0.05755912700389     -85.2557549808095    0.996891087348665    3.2986674505145      
155.924057834742     0.996946992739194    3.24843204009564     0.05668391798005     -85.2895694251238    0.05668391798005     -85.2895694251238    0.996946992739194    3.24843204009564     
157.140033367643     0.997001657547504    3.19838578552756     0.055811972821022    -85.3224693824648    0.055811972821022    -85.3224693824648    0.997001657547504    3.19838578552756     
158.365491699524     0.997055093294763    3.14852585525484     0.054943243763085    -85.3544251086213    0.054943243763085    -85.3544251086213    0.997055093294763    3.14852585525484     
159.600506782101     0.997107311237328    3.09884942573774     0.054077683186243    -85.3854049074403    0.054077683186243    -85.3854049074403    0.997107311237328    3.09884942573774     
160.845153143802     0.997158322368824    3.04935368137314     0.05321524361574     -85.4153749860129    0.05321524361574     -85.4153749860129    0.997158322368824    3.04935368137314     
162.099505894267     0.997208137422168    3.00003581441488     0.052355877723755    -85.4442992967304    0.052355877723755    -85.4442992967304    0.997208137422168    3.00003581441488     
163.363640728878     0.997256766871556    2.95089302489275     0.051499538331301    -85.4721393647994    0.051499538331301    -85.4721393647994    0.997256766871556    2.95089302489275     
164.637633933329     0.997304220934401    2.90192252053085     0.050646178410353    -85.4988540996335    0.050646178410353    -85.4988540996335    0.997304220934401    2.90192252053085     
165.92156238823      0.997350509573228    2.85312151666503     0.049795751086229    -85.524399588336     0.049795751086229    -85.524399588336     0.997350509573228    2.85312151666503     
167.215503573744     0.99739564249752     2.80448723615921     0.048948209640261    -85.5487288692606    0.048948209640261    -85.5487288692606    0.99739564249752     2.80448723615921     
168.519535574264     0.997439629165523    2.75601690932132     0.048103507512805    -85.5717916833719    0.048103507512805    -85.5717916833719    0.997439629165523    2.75601690932132     
169.833737083125     0.997482478786006    2.70770777381805     0.047261598306607    -85.5935342008291    0.047261598306607    -85.5935342008291    0.997482478786006    2.70770777381805     
171.158187407354     0.997524200319971    2.65955707458911     0.046422435790592    -85.6138987198646    0.046422435790592    -85.6138987198646    0.997524200319971    2.65955707458911     
172.492966472453     0.997564802482327    2.6115620637608      0.045585973904127    -85.6328233346301    0.045585973904127    -85.6328233346301    0.997564802482327    2.6115620637608      
173.838154827225     0.99760429374351     2.56372000055848     0.044752166761806    -85.6502415682168    0.044752166761806    -85.6502415682168    0.99760429374351     2.56372000055848     
175.193833648633     0.99764268233107     2.5160281512191      0.043920968658852    -85.6660819665187    0.043920968658852    -85.6660819665187    0.99764268233107     2.5160281512191      
176.5600847467       0.997679976231193    2.46848378890238     0.043092334077186    -85.6802676479803    0.043092334077186    -85.6802676479803    0.997679976231193    2.46848378890238     
177.936990569447     0.997716183190208    2.42108419360197     0.042266217692283    -85.6927158035402    0.042266217692283    -85.6927158035402    0.997716183190208    2.42108419360197     
179.324634207864     0.997751310716022    2.37382665205566     0.04144257438089     -85.7033371402298    0.04144257438089     -85.7033371402298    0.997751310716022    2.37382665205566     
180.723099400929     0.997785366079525    2.32670845765536     0.040621359229765    -85.7120352608836    0.040621359229765    -85.7120352608836    0.997785366079525    2.32670845765536     
182.132470540656     0.997818356315953    2.27972691035627     0.039802527545532    -85.7187059712463    0.039802527545532    -85.7187059712463    0.997818356315953    2.27972691035627     
183.552832677197     0.997850288226196    2.23287931658599     0.03898603486586     -85.723236504372     0.03898603486586     -85.723236504372     0.997850288226196    2.23287931658599     
184.984271523964     0.99788116837807     2.18616298915268     0.038171836972113    -85.7255046505779    0.038171836972113    -85.7255046505779    0.99788116837807     2.18616298915268     
186.426873462808     0.997911003107544    2.13957524715333     0.037359889903721    -85.7253777792678    0.037359889903721    -85.7253777792678    0.997911003107544    2.13957524715333     
187.880725549227     0.99793979851992     2.09311341588132     0.036550149974512    -85.7227117366345    0.036550149974512    -85.7227117366345    0.99793979851992     2.09311341588132     
189.345915517627     0.997967560490976    2.04677482673359     0.035742573791308    -85.717349600487     0.035742573791308    -85.717349600487     0.997967560490976    2.04677482673359     
190.822531786607     0.997994294668052    2.0005568171178      0.034937118275145    -85.7091202701439    0.034937118275145    -85.7091202701439    0.997994294668052    2.0005568171178      
192.310663464303     0.998020006471111    1.95445673035887     0.03413374068552     -85.6978368653586    0.03413374068552     -85.6978368653586    0.998020006471111    1.95445673035887     
193.81040035376      0.99804470109374     1.9084719156054      0.033332398648181    -85.6832949034425    0.033332398648181    -85.6832949034425    0.99804470109374     1.9084719156054      
195.321832958354     0.998068383504114    1.86259972773583     0.032533050187023    -85.6652702179317    0.032533050187023    -85.6652702179317    0.998068383504114    1.86259972773583     
196.845052487251     0.99809105844592     1.81683752726438     0.031735653760806    -85.6435165750659    0.031735653760806    -85.6435165750659    0.99809105844592     1.81683752726438     
198.380150860914     0.998112730439228    1.77118268024661     0.030940168305531    -85.6177629356889    0.030940168305531    -85.6177629356889    0.998112730439228    1.77118268024661     
199.92722071665      0.998133403781333    1.7256325581853      0.030146553283489    -85.5877102995504    0.030146553283489    -85.5877102995504    0.998133403781333    1.7256325581853      
201.486355414196     0.998153082547539    1.68018453793565     0.02935476874019     -85.5530280558752    0.02935476874019     -85.5530280558752    0.998153082547539    1.68018453793565     
203.057649041359     0.998171770591905    1.63483600161057     0.02856477537067     -85.513349747796     0.02856477537067     -85.513349747796     0.998171770591905    1.63483600161057     
204.641196419689     0.998189471547957    1.58958433648606     0.027776534596986    -85.4682681379774    0.027776534596986    -85.4682681379774    0.998189471547957    1.58958433648606     
206.237093110203     0.998206188829339    1.54442693490621     0.026990008659095    -85.4173294373403    0.026990008659095    -85.4173294373403    0.998206188829339    1.54442693490621     
207.845435419152     0.998221925630437    1.4993611941884      0.026205160721884    -85.360026526764     0.026205160721884    -85.360026526764     0.998221925630437    1.4993611941884      
209.466320403833     0.998236684926955    1.45438451652831     0.025421955001714    -85.2957909610103    0.025421955001714    -85.2957909610103    0.998236684926955    1.45438451652831     
211.099845878445     0.998250469476442    1.40949430890518     0.02464035691672     -85.2239834922515    0.02464035691672     -85.2239834922515    0.998250469476442    1.40949430890518     
212.746110419992     0.998263281818784    1.36468798298676     0.023860333266161    -85.1438827839416    0.023860333266161    -85.1438827839416    0.998263281818784    1.36468798298676     
214.405213374231     0.998275124276648    1.31996295503466     0.023081852445532    -85.0546718995176    0.023081852445532    -85.0546718995176    0.998275124276648    1.31996295503466     
216.07725486167      0.998285998955889    1.27531664580956     0.022304884705945    -84.9554220379566    0.022304884705945    -84.9554220379566    0.998285998955889    1.27531664580956     
217.762335783607     0.998295907745908    1.23074648047662     0.021529402468711    -84.8450728403969    0.021529402468711    -84.8450728403969    0.998295907745908    1.23074648047662     
219.460557828219     0.998304852319968    1.186249888511       0.020755380709209    -84.722408396103     0.020755380709209    -84.722408396103     0.998304852319968    1.186249888511       
221.1720234767       0.998312834135472    1.14182430360355     0.019982797428424    -84.5860278140244    0.019982797428424    -84.5860278140244    0.998312834135472    1.14182430360355     
222.896836009445     0.998319854434195    1.09746716356665     0.019211634236265    -84.434308872396     0.019211634236265    -84.434308872396     0.998319854434195    1.09746716356665     
224.635099512284     0.998325914242472    1.05317591024029     0.018441877078693    -84.2653627762431    0.018441877078693    -84.2653627762431    0.998325914242472    1.05317591024029     
226.386918882757     0.998331014371345    1.0089479893984      0.017673517151554    -84.0769773872157    0.017673517151554    -84.0769773872157    0.998331014371345    1.0089479893984      
228.152399836454     0.998335155416668    0.964780850655354    0.016906552059252    -83.8665453618827    0.016906552059252    -83.8665453618827    0.998335155416668    0.964780850655354    
229.931648913385     0.998338337759171    0.920671947372811    0.016140987297991    -83.6309723233841    0.016140987297991    -83.6309723233841    0.998338337759171    0.920671947372811    
231.724773484416     0.998340561564472    0.876618736566845    0.015376838174283    -83.3665583142379    0.015376838174283    -83.3665583142379    0.998340561564472    0.876618736566845    
233.531881757745     0.998341826783064    0.832618678815422    0.014614132314628    -83.0688430518473    0.014614132314628    -83.0688430518473    0.998341826783064    0.832618678815422    
235.353082785432     0.998342133150236    0.7886692381662      0.013852912989189    -82.7324014865744    0.013852912989189    -82.7324014865744    0.998342133150236    0.7886692381662      
237.188486469983     0.998341480185976    0.744767882044794    0.013093243573228    -82.3505701287547    0.013093243573228    -82.3505701287547    0.998341480185976    0.744767882044794    
239.038203570977     0.998339867194813    0.700912081163144    0.01233521362517     -81.9150753923748    0.01233521362517     -81.9150753923748    0.998339867194813    0.700912081163144    
240.902345711755     0.998337293265624    0.65709930942886     0.011578947303632    -81.4155208354323    0.011578947303632    -81.4155208354323    0.998337293265624    0.65709930942886     
242.781025386155     0.998333757271398    0.613327043854393    0.010824615236618    -80.8386672952123    0.010824615236618    -80.8386672952123    0.998333757271398    0.613327043854393    
244.674355965296     0.998329257868959    0.569592764467167    0.010072451599963    -80.1674026080819    0.010072451599963    -80.1674026080819    0.998329257868959    0.569592764467167    
246.582451704425     0.998323793498638    0.525893954219977    0.009322779252447    -79.3792351936254    0.009322779252447    -79.3792351936254    0.998323793498638    0.525893954219977    
248.505427749809     0.998317362383917    0.482228098901926    0.008576047679596    -78.4440384400183    0.008576047679596    -78.4440384400183    0.998317362383917    0.482228098901926    
250.443400145686     0.998309962531014    0.43859268705001     0.007832891941251    -77.3205825800114    0.007832891941251    -77.3205825800114    0.998309962531014    0.43859268705001     
252.396485841266     0.998301591728439    0.394985209861202    0.007094227283402    -75.951042652195     0.007094227283402    -75.951042652195     0.998301591728439    0.394985209861202    
254.364802697787     0.998292247546499    0.351403161105167    0.006361406737529    -74.252013058706     0.006361406737529    -74.252013058706     0.998292247546499    0.351403161105167    
256.34846949563      0.998281927336762    0.307844037037632    0.005636494995614    -72.0992759978415    0.005636494995614    -72.0992759978415    0.998281927336762    0.307844037037632    
258.347605941487     0.998270628231482    0.264305336314385    0.00492276773862     -69.3010119305342    0.00492276773862     -69.3010119305342    0.998270628231482    0.264305336314385    
260.362332675583     0.998258347142977    0.220784559905971    0.004225671700656    -65.5490606608       0.004225671700656    -65.5490606608       0.998258347142977    0.220784559905971    
262.392771278959     0.998245080762963    0.177279211013022    0.003554774914194    -60.3286915218528    0.003554774914194    -60.3286915218528    0.998245080762963    0.177279211013022    
264.439044280804     0.998230825561854    0.133786794982583    0.002927908525783    -52.7585953965109    0.002927908525783    -52.7585953965109    0.998230825561854    0.133786794982583    
266.501275165855     0.998215577788009    0.090304819224832    0.002379889145602    -41.3824907967891    0.002379889145602    -41.3824907967891    0.998215577788009    0.090304819224832    
268.579588381844     0.998199333466939    0.046830793130921    0.001977184991977    -24.371230627499     0.001977184991977    -24.371230627499     0.998199333466939    0.046830793130921    
270.674109347012     0.998182088400474    0.003362227991478    0.001818856754854    -1.8454978037721     0.001818856754854    -1.8454978037721     0.998182088400474    0.003362227991478    
272.784964457675     0.998163838165888    -0.040103363084056   0.001964815698443    20.8290362484213     0.001964815698443    20.8290362484213     0.998163838165888    -0.040103363084056   
274.912281095852     0.998144578114973    -0.083568465246996   0.002359236315736    38.1032310009516     0.002359236315736    38.1032310009516     0.998144578114973    -0.083568465246996   
277.056187636951     0.99812430337308     -0.127035561988462   0.002902574946541    49.679441923138      0.002902574946541    49.679441923138      0.99812430337308     -0.127035561988462   
279.216813457519     0.99810300883811     -0.170507135216988   0.003526728630737    57.3746870766833     0.003526728630737    57.3746870766833     0.99810300883811     -0.170507135216988   
281.394288943045     0.998080689179466    -0.213985665335623   0.004195873814384    62.6717833512968     0.004195873814384    62.6717833512968     0.998080689179466    -0.213985665335623   
283.588745495834     0.998057338836958    -0.2574736313177     0.004891683851699    66.4721012228175     0.004891683851699    66.4721012228175     0.998057338836958    -0.2574736313177     
285.800315542931     0.998032952019669    -0.300973510781732   0.005604348455411    69.3019507287452     0.005604348455411    69.3019507287452     0.998032952019669    -0.300973510781732   
288.029132544115     0.998007522704776    -0.344487780065178   0.006328296521312    71.4759580223683     0.006328296521312    71.4759580223683     0.998007522704776    -0.344487780065178   
290.275330999953     0.997981044636322    -0.388018914297142   0.007060184619939    73.1896361576599     0.007060184619939    73.1896361576599     0.997981044636322    -0.388018914297142   
292.539046459916     0.997953511323964    -0.431569387469955   0.007797908983194    74.5693918730729     0.007797908983194    74.5693918730729     0.997953511323964    -0.431569387469955   
294.82041553056      0.997924916041644    -0.475141672509474   0.008540092830043    75.6999787666256     0.008540092830043    75.6999787666256     0.997924916041644    -0.475141672509474   
297.119575883768     0.997895251826258    -0.518738241344315   0.009285805772786    76.6400823259402     0.009285805772786    76.6400823259402     0.997895251826258    -0.518738241344315   
299.436666265059     0.997864511476242    -0.562361564973853   0.010034402658354    77.4314997856971     0.010034402658354    77.4314997856971     0.997864511476242    -0.562361564973853   
301.771826501959     0.997832687550148    -0.606014113534792   0.010785426981082    78.1047429515554     0.010785426981082    78.1047429515554     0.997832687550148    -0.606014113534792   
304.125197512442     0.99779977236515     -0.649698356366606   0.011538550792373    78.6825716675933     0.011538550792373    78.6825716675933     0.99779977236515     -0.649698356366606   
306.496921313434     0.997765757995523    -0.693416762075614   0.012293536070911    79.1822892299682     0.012293536070911    79.1822892299682     0.997765757995523    -0.693416762075614   
308.887141029379     0.997730636271074    -0.737171798597456   0.013050209162062    79.6172737663843     0.013050209162062    79.6172737663843     0.997730636271074    -0.737171798597456   
311.296000900879     0.997694398775525    -0.780965933258559   0.013808443427665    79.9980245980795     0.013808443427665    79.9980245980795     0.997694398775525    -0.780965933258559   
313.723646293399     0.997657036844862    -0.824801632835681   0.014568147198645    80.3328927181688     0.014568147198645    80.3328927181688     0.997657036844862    -0.824801632835681   
316.170223706036     0.99761854156563     -0.868681363614418   0.015329255238353    80.6286007112975     0.015329255238353    80.6286007112975     0.99761854156563     -0.868681363614418   
318.635880780366     0.99757890377319     -0.912607591445856   0.016091722582415    80.8906193372451     0.016091722582415    80.8906193372451     0.99757890377319     -0.912607591445856   
321.120766309346     0.997538114049932    -0.956582781801625   0.016855520019864    81.1234446566964     0.016855520019864    81.1234446566964     0.997538114049932    -0.956582781801625   
323.625030246297     0.997496162723446    -1.00060939982766    0.017620630728525    81.3308049330397     0.017620630728525    81.3308049330397     0.997496162723446    -1.00060939982766    
326.148823713954     0.99745303986464     -1.04468991039607    0.018387047735648    81.5158171560806     0.018387047735648    81.5158171560806     0.99745303986464     -1.04468991039607    
328.692299013584     0.99740873528583     -1.08882677815522    0.019154771977504    81.6811068941492     0.019154771977504    81.6811068941492     0.99740873528583     -1.08882677815522    
331.255609634176     0.997363238538771    -1.13302246757837    0.019923810799761    81.8289010918233     0.019923810799761    81.8289010918233     0.997363238538771    -1.13302246757837    
333.838910261705     0.997316538912653    -1.17727944301021    0.020694176786321    81.9611006603064     0.020694176786321    81.9611006603064     0.997316538912653    -1.17727944301021    
336.442356788468     0.997268625432057    -1.22160016871178    0.021465886835854    82.0793378013566     0.021465886835854    82.0793378013566     0.997268625432057    -1.22160016871178    
339.066106322488     0.997219486854849    -1.26598710890348    0.022238961427102    82.1850216749145     0.022238961427102    82.1850216749145     0.997219486854849    -1.26598710890348    
341.710317196997     0.997169111670055    -1.31044272780599    0.023013424029517    82.279375078982      0.023013424029517    82.279375078982      0.997169111670055    -1.31044272780599    
344.375148979991     0.997117488095674    -1.35496948967948    0.02378930062683     82.3634641356723     0.02378930062683     82.3634641356723     0.997117488095674    -1.35496948967948    
347.060762483859     0.997064604076454    -1.39956985886058    0.024566619329137    82.4382224883242     0.024566619329137    82.4382224883242     0.997064604076454    -1.39956985886058    
349.767319775087     0.997010447281629    -1.44424629979747    0.025345410054924    82.5044711562172     0.025345410054924    82.5044711562172     0.997010447281629    -1.44424629979747    
352.494984184037     0.996955005102602    -1.48900127708261    0.026125704268788    82.5629349281162     0.026125704268788    82.5629349281162     0.996955005102602    -1.48900127708261    
355.243920314807     0.996898264650588    -1.53383725548357    0.026907534763798    82.6142559775867     0.026907534763798    82.6142559775867     0.996898264650588    -1.53383725548357    
358.014294055161     0.996840212754227    -1.57875669997145    0.027690935479911    82.6590052334681     0.027690935479911    82.6590052334681     0.996840212754227    -1.57875669997145    
360.806272586539     0.996780835957131    -1.62376207574703    0.028475941351652    82.6976919251552     0.028475941351652    82.6976919251552     0.996780835957131    -1.62376207574703    
363.62002439415      0.996720120515405    -1.66885584826478    0.029262588179725    82.730771635133      0.029262588179725    82.730771635133      0.996720120515405    -1.66885584826478    
366.455719277135     0.996658052395119    -1.71404048325422    0.03005091252227     82.7586531238513     0.03005091252227     82.7586531238513     0.996658052395119    -1.71404048325422    
369.313528358815     0.99659461726973     -1.75931844673906    0.030840951602351    82.781704139625      0.030840951602351    82.781704139625      0.99659461726973     -1.75931844673906    
372.193624097022     0.996529800517481    -1.80469220505366    0.031632743228921    82.8002563851974     0.031632743228921    82.8002563851974     0.996529800517481    -1.80469220505366    
375.096180294498     0.996463587218731    -1.85016422485715    0.032426325729013    82.8146097802552     0.032426325729013    82.8146097802552     0.996463587218731    -1.85016422485715    
378.02137210939      0.996395962153266    -1.89573697314461    0.033221737889349    82.8250361335237     0.033221737889349    82.8250361335237     0.996395962153266    -1.89573697314461    
380.969376065815     0.996326909797549    -1.94141291725603    0.034019018905855    82.831782317606      0.034019018905855    82.831782317606      0.996326909797549    -1.94141291725603    
383.940370064519     0.996256414321942    -1.98719452488204    0.03481820833986     82.8350730233169     0.03481820833986     82.8350730233169     0.996256414321942    -1.98719452488204    
386.934533393608     0.996184459587873    -2.03308426406722    0.035619346079964    82.8351131570246     0.035619346079964    82.8351131570246     0.996184459587873    -2.03308426406722    
389.952046739367     0.996111029144975    -2.07908460321035    0.036422472308712    82.8320899337967     0.036422472308712    82.8320899337967     0.996111029144975    -2.07908460321035    
392.993092197165     0.996036106228171    -2.12519801106172    0.037227627473382    82.82617471041       0.037227627473382    82.82617471041       0.996036106228171    -2.12519801106172    
396.057853282446     0.995959673754723    -2.17142695671759    0.038034852260298    82.8175245951474     0.038034852260298    82.8175245951474     0.995959673754723    -2.17142695671759    
399.146514941798     0.995881714321237    -2.21777390961152    0.03884418757215     82.8062838654383     0.03884418757215     82.8062838654383     0.995881714321237    -2.21777390961152    
402.259263564121     0.995802210200634    -2.26424133950238    0.039655674507921    82.7925852195616     0.039655674507921    82.7925852195616     0.995802210200634    -2.26424133950238    
405.396286991867     0.995721143339071    -2.31083171645947    0.040469354345054    82.7765508846204     0.040469354345054    82.7765508846204     0.995721143339071    -2.31083171645947    
408.557774532382     0.995638495352826    -2.35754751084421    0.041285268523564    82.7582935996709     0.041285268523564    82.7582935996709     0.995638495352826    -2.35754751084421    
411.743916969327     0.995554247525141    -2.40439119328838    0.042103458631821    82.737917490102      0.042103458631821    82.737917490102      0.995554247525141    -2.40439119328838    
414.954906574191     0.995468380803032    -2.4513652346691     0.042923966393804    82.7155188470393     0.042923966393804    82.7155188470393     0.995468380803032    -2.4513652346691     
418.190937117895     0.995380875794048    -2.49847210608038    0.04374683365762     82.6911868235861     0.04374683365762     82.6911868235861     0.995380875794048    -2.49847210608038    
421.452203882485     0.995291712763001    -2.54571427880067    0.044572102385129    82.6650040580703     0.044572102385129    82.6650040580703     0.995291712763001    -2.54571427880067    
424.738903672915     0.995200871628651    -2.59309422425743    0.04539981464254     82.6370472330638     0.04539981464254     82.6370472330638     0.995200871628651    -2.59309422425743    
428.051234828925     0.995108331960357    -2.64061441398733    0.046230012591843    82.6073875777657     0.046230012591843    82.6073875777657     0.995108331960357    -2.64061441398733    
431.389397237011     0.995014072974684    -2.68827731959298    0.047062738482981    82.5760913203269     0.047062738482981    82.5760913203269     0.995014072974684    -2.68827731959298    
434.753592342484     0.994918073531985    -2.73608541269568    0.047898034646668    82.54322009584       0.047898034646668    82.54322009584       0.994918073531985    -2.73608541269568    
438.144023161631     0.994820312132928    -2.78404116488428    0.048735943487768    82.5088313149789     0.048735943487768    82.5088313149789     0.994820312132928    -2.78404116488428    
441.560894293962     0.994720766915007    -2.83214704765983    0.04957650747917     82.4729784976473     0.04957650747917     82.4729784976473     0.994720766915007    -2.83214704765983    
445.004411934559     0.994619415648999    -2.88040553237596    0.050419769156084    82.4357115754462     0.050419769156084    82.4357115754462     0.994619415648999    -2.88040553237596    
448.47478388652      0.994516235735398    -2.92881909017568    0.051265771110727    82.3970771663099     0.051265771110727    82.3970771663099     0.994516235735398    -2.92881909017568    
451.972219573494     0.994411204200807    -2.97739019192283    0.052114555987322    82.3571188242524     0.052114555987322    82.3571188242524     0.994411204200807    -2.97739019192283    
455.496930052328     0.994304297694309    -3.02612130812995    0.052966166477392    82.3158772668145     0.052966166477392    82.3158772668145     0.994304297694309    -3.02612130812995    
459.049128025795     0.99419549248378     -3.07501490888133    0.053820645315295    82.2733905825032     0.053820645315295    82.2733905825032     0.99419549248378     -3.07501490888133    
462.629027855433     0.994084764452199    -3.12407346375131    0.054678035273973    82.2296944202451     0.054678035273973    82.2296944202451     0.994084764452199    -3.12407346375131    
466.236845574481     0.993972089093905    -3.17329944171815    0.055538379160886    82.184822162649      0.055538379160886    82.184822162649      0.993972089093905    -3.17329944171815    
469.872798900916     0.993857441510833    -3.22269531107294    0.0564017198141      82.1388050846692     0.0564017198141      82.1388050846692     0.993857441510833    -3.22269531107294    
473.537107250593     0.993740796408713    -3.27226353932354    0.057268100098502    82.0916724990852     0.057268100098502    82.0916724990852     0.993740796408713    -3.27226353932354    
477.229991750481     0.993622128093253    -3.3220065930938     0.058137562902139    82.0434518900602     0.058137562902139    82.0434518900602     0.993622128093253    -3.3220065930938     
480.951675252012     0.993501410466274    -3.37192693801718    0.059010151132628    81.9941690359019     0.059010151132628    81.9941690359019     0.993501410466274    -3.37192693801718    
484.702382344525     0.993378617021837    -3.42202703862591    0.059885907713661    81.9438481220326     0.059885907713661    81.9438481220326     0.993378617021837    -3.42202703862591    
488.482339368826     0.99325372084233     -3.47230935823382    0.060764875581547    81.8925118450696     0.060764875581547    81.8925118450696     0.99325372084233     -3.47230935823382    
492.291774430837     0.993126694594536    -3.5227763588149     0.06164709768181     81.8401815088191     0.06164709768181     81.8401815088191     0.993126694594536    -3.5227763588149     
496.130917415372     0.992997510525677    -3.57343050087535    0.062532616965812    81.7868771129126     0.062532616965812    81.7868771129126     0.992997510525677    -3.57343050087535    
500                  0.992866140459433    -3.62427424332052    0.063421476387389    81.7326174347334     0.063421476387389    81.7326174347334     0.992866140459433    -3.62427424332052    
