# MHz S MA R 50      
!Freq                MagS11               AngS11               MagS21               AngS21               MagS12               AngS12               MagS22               AngS22               
1                    0.001896698272418    23.3371165218832     0.998258753466544    -0.04312478315434    0.998258753466544    -0.04312478315434    0.001896698272418    23.3371165218832     
1.01114647674837     0.001901281030233    23.5525121483249     0.998257395746516    -0.043605413354428   0.998257395746516    -0.043605413354428   0.001901281030233    23.5525121483249     
1.02241719744064     0.001905935260153    23.769341240772      0.99825603037743     -0.044091399892842   0.99825603037743     -0.044091399892842   0.001905935260153    23.769341240772      
1.03381354695905     0.001910662163244    23.9875998479879     0.998254657314421    -0.044582802457111   0.998254657314421    -0.044582802457111   0.001910662163244    23.9875998479879     
1.04533692562238     0.001915462958272    24.2072836484543     0.998253276512313    -0.045079681399785   0.998253276512313    -0.045079681399785   0.001915462958272    24.2072836484543     
1.05698874935804     0.00192033888186     24.4283879449678     0.998251887925649    -0.045582097745843   0.998251887925649    -0.045582097745843   0.00192033888186     24.4283879449678     
1.06877044987605     0.001925291188635    24.6509076593574     0.998250491508631    -0.046090113200184   0.998250491508631    -0.046090113200184   0.001925291188635    24.6509076593574     
1.08068347484494     0.001930321151382    24.8748373273352     0.998249087215173    -0.046603790155198   0.998249087215173    -0.046603790155198   0.001930321151382    24.8748373273352     
1.09272928806965     0.001935430061197    25.1001710934859     0.998247674998874    -0.04712319169843    0.998247674998874    -0.04712319169843    0.001935430061197    25.1001710934859     
1.10490936967138     0.001940619227627    25.3269027064085     0.998246254813007    -0.047648381620316   0.998246254813007    -0.047648381620316   0.001940619227627    25.3269027064085     
1.11722521626948     0.001945889978823    25.5550255140144     0.998244826610523    -0.048179424422017   0.998244826610523    -0.048179424422017   0.001945889978823    25.5550255140144     
1.12967834116532     0.001951243661678    25.7845324589978     0.998243390344062    -0.048716385323335   0.998243390344062    -0.048716385323335   0.001951243661678    25.7845324589978     
1.14227027452825     0.001956681641972    26.0154160744814     0.998241945965921    -0.049259330270716   0.998241945965921    -0.049259330270716   0.001956681641972    26.0154160744814     
1.15500256358364     0.001962205304506    26.2476684798516     0.99824049342808     -0.049808325945346   0.99824049342808     -0.049808325945346   0.001962205304506    26.2476684798516     
1.16787677280293     0.001967816053243    26.4812813767896     0.998239032682176    -0.050363439771334   0.998239032682176    -0.050363439771334   0.001967816053243    26.4812813767896     
1.18089448409594     0.001973515311442    26.7162460455123     0.998237563679519    -0.050924739923989   0.998237563679519    -0.050924739923989   0.001973515311442    26.7162460455123     
1.1940572970052      0.001979304521787    26.9525533412256     0.998236086371068    -0.051492295338183   0.998236086371068    -0.051492295338183   0.001979304521787    26.9525533412256     
1.20736682890249     0.001985185146518    27.1901936908087     0.998234600707449    -0.052066175716817   0.998234600707449    -0.052066175716817   0.001985185146518    27.1901936908087     
1.2208247151876      0.001991158667557    27.4291570897295     0.998233106638939    -0.052646451539371   0.998233106638939    -0.052646451539371   0.001991158667557    27.4291570897295     
1.23443260948928     0.001997226586634    27.6694330992086     0.998231604115464    -0.053233194070558   0.998231604115464    -0.053233194070558   0.001997226586634    27.6694330992086     
1.24819218386838     0.002003390425406    27.911010843637      0.998230093086581    -0.053826475369066   0.998230093086581    -0.053826475369066   0.002003390425406    27.911010843637      
1.26210512902337     0.002009651725579    28.1538790082567     0.998228573501506    -0.054426368296404   0.998228573501506    -0.054426368296404   0.002009651725579    28.1538790082567     
1.27617315449802     0.00201601204902     28.3980258371153     0.99822704530909     -0.055032946525845   0.99822704530909     -0.055032946525845   0.00201601204902     28.3980258371153     
1.29039798889153     0.002022472977875    28.6434391313031     0.998225508457826    -0.055646284551465   0.998225508457826    -0.055646284551465   0.002022472977875    28.6434391313031     
1.30478138007085     0.002029036114677    28.8901062474806     0.998223962895821    -0.056266457697289   0.998223962895821    -0.056266457697289   0.002029036114677    28.8901062474806     
1.31932509538552     0.002035703082455    29.1380140967056     0.998222408570804    -0.05689354212653    0.998222408570804    -0.05689354212653    0.002035703082455    29.1380140967056     
1.33403092188478     0.002042475524838    29.3871491435678     0.998220845430168    -0.057527614850941   0.998220845430168    -0.057527614850941   0.002042475524838    29.3871491435678     
1.34890066653717     0.00204935510616     29.6374974056421     0.998219273420873    -0.058168753740261   0.998219273420873    -0.058168753740261   0.00204935510616     29.6374974056421     
1.36393615645259     0.002056343511557    29.8890444532625     0.998217692489532    -0.058817037531779   0.998217692489532    -0.058817037531779   0.002056343511557    29.8890444532625     
1.37913923910675     0.002063442447065    30.1417754096313     0.998216102582347    -0.059472545839987   0.998216102582347    -0.059472545839987   0.002063442447065    30.1417754096313     
1.39451178256822     0.002070653639714    30.3956749512639     0.998214503645122    -0.060135359166357   0.998214503645122    -0.060135359166357   0.002070653639714    30.3956749512639     
1.41005567572795     0.002077978837619    30.6507273087831     0.998212895623296    -0.060805558909218   0.998212895623296    -0.060805558909218   0.002077978837619    30.6507273087831     
1.42577282853136     0.002085419810072    30.9069162680647     0.998211278461866    -0.061483227373745   0.998211278461866    -0.061483227373745   0.002085419810072    30.9069162680647     
1.44166517221304     0.002092978347622    31.1642251717402     0.998209652105446    -0.062168447782058   0.998209652105446    -0.062168447782058   0.002092978347622    31.1642251717402     
1.45773465953405     0.002100656262163    31.4226369210671     0.998208016498234    -0.062861304283439   0.998208016498234    -0.062861304283439   0.002100656262163    31.4226369210671     
1.47398326502184     0.002108455387011    31.6821339781667     0.998206371583997    -0.063561881964651   0.998206371583997    -0.063561881964651   0.002108455387011    31.6821339781667     
1.49041298521289     0.002116377576987    31.9426983686379     0.99820471730611     -0.064270266860385   0.99820471730611     -0.064270266860385   0.002116377576987    31.9426983686379     
1.50702583889804     0.002124424708489    32.2043116845513     0.998203053607491    -0.064986545963818   0.998203053607491    -0.064986545963818   0.002124424708489    32.2043116845513     
1.52382386737051     0.002132598679565    32.4669550878231     0.99820138043066     -0.065710807237284   0.99820138043066     -0.065710807237284   0.002132598679565    32.4669550878231     
1.54080913467676     0.002140901409988    32.7306093139782     0.998199697717666    -0.066443139623067   0.998199697717666    -0.066443139623067   0.002140901409988    32.7306093139782     
1.55798372787011     0.002149334841317    32.9952546763026     0.998198005410146    -0.067183633054324   0.998198005410146    -0.067183633054324   0.002149334841317    32.9952546763026     
1.57534975726716     0.002157900936974    33.2608710703834     0.998196303449282    -0.067932378466108   0.998196303449282    -0.067932378466108   0.002157900936974    33.2608710703834     
1.59290935670709     0.002166601682297    33.5274379790472     0.998194591775803    -0.068689467806539   0.998194591775803    -0.068689467806539   0.002166601682297    33.5274379790472     
1.61066468381389     0.002175439084611    33.7949344776877     0.998192870329978    -0.069454994048074   0.998192870329978    -0.069454994048074   0.002175439084611    33.7949344776877     
1.62861792026144     0.002184415173284    34.0633392399899     0.998191139051627    -0.070229051198924   0.998191139051627    -0.070229051198924   0.002184415173284    34.0633392399899     
1.64677127204161     0.002193531999788    34.3326305440477     0.998189397880097    -0.071011734314587   0.998189397880097    -0.071011734314587   0.002193531999788    34.3326305440477     
1.66512696973531     0.002202791637753    34.6027862788759     0.998187646754261    -0.071803139509511   0.998187646754261    -0.071803139509511   0.002202791637753    34.6027862788759     
1.68368726878655     0.002212196183029    34.8737839513098     0.998185885612506    -0.072603363968886   0.998185885612506    -0.072603363968886   0.002212196183029    34.8737839513098     
1.70245444977961     0.002221747753732    35.1456006932976     0.998184114392747    -0.07341250596057    0.998184114392747    -0.07341250596057    0.002221747753732    35.1456006932976     
1.72143081871923     0.002231448490302    35.418213269579      0.998182333032423    -0.074230664847148   0.998182333032423    -0.074230664847148   0.002231448490302    35.418213269579      
1.74061870731402     0.002241300555556    35.691598085743      0.998180541468443    -0.075057941098119   0.998180541468443    -0.075057941098119   0.002241300555556    35.691598085743      
1.76002047326287     0.002251306134736    35.965731196667      0.998178739637229    -0.075894436302229   0.998178739637229    -0.075894436302229   0.002251306134736    35.965731196667      
1.77963850054475     0.00226146743556     36.2405883153263     0.998176927474708    -0.076740253179931   0.998176927474708    -0.076740253179931   0.00226146743556     36.2405883153263     
1.79947519971158     0.002271786688275    36.5161448219739     0.998175104916289    -0.077595495595989   0.998175104916289    -0.077595495595989   0.002271786688275    36.5161448219739     
1.81953300818443     0.002282266145704    36.7923757736776     0.998173271896836    -0.078460268572224   0.998173271896836    -0.078460268572224   0.002282266145704    36.7923757736776     
1.83981439055305     0.002292908083293    37.0692559142136     0.998171428350718    -0.079334678300396   0.998171428350718    -0.079334678300396   0.002292908083293    37.0692559142136     
1.86032183887867     0.002303714799166    37.3467596843034     0.998169574211746    -0.080218832155235   0.998169574211746    -0.080218832155235   0.002303714799166    37.3467596843034     
1.88105787300022     0.002314688614171    37.6248612321885     0.998167709413206    -0.081112838707611   0.998167709413206    -0.081112838707611   0.002314688614171    37.6248612321885     
1.90202504084395     0.002325831871932    37.9035344245342     0.99816583388783     -0.082016807737864   0.99816583388783     -0.082016807737864   0.002325831871932    37.9035344245342     
1.92322591873654     0.002337146938897    38.1827528576485     0.998163947567801    -0.082930850249256   0.998163947567801    -0.082930850249256   0.002337146938897    38.1827528576485     
1.9446631117216      0.002348636204391    38.4624898690115     0.998162050384719    -0.083855078481606   0.998162050384719    -0.083855078481606   0.002348636204391    38.4624898690115     
1.96633925387982     0.002360302080673    38.7427185490981     0.998160142269652    -0.084789605925053   0.998160142269652    -0.084789605925053   0.002360302080673    38.7427185490981     
1.9882570086526      0.00237214700298     39.023411753486      0.998158223153066    -0.085734547333976   0.998158223153066    -0.085734547333976   0.00237214700298     39.023411753486      
2.01041906916933     0.002384173429594    39.3045421152352     0.998156292964843    -0.086690018741077   0.998156292964843    -0.086690018741077   0.002384173429594    39.3045421152352     
2.0328281585783      0.002396383841891    39.5860820575269     0.998154351634281    -0.087656137471615   0.998154351634281    -0.087656137471615   0.002396383841891    39.5860820575269     
2.05548703038133     0.002408780744404    39.8680038065458     0.998152399090083    -0.088633022157799   0.998152399090083    -0.088633022157799   0.002408780744404    39.8680038065458     
2.07839846877205     0.002421366664882    40.1502794045955     0.998150435260324    -0.089620792753338   0.998150435260324    -0.089620792753338   0.002421366664882    40.1502794045955     
2.10156528897807     0.002434144154358    40.4328807234287     0.998148460072494    -0.090619570548166   0.998148460072494    -0.090619570548166   0.002434144154358    40.4328807234287     
2.12499033760685     0.002447115787211    40.7157794777778     0.99814647345344     -0.09162947818331    0.99814647345344     -0.09162947818331    0.002447115787211    40.7157794777778     
2.14867649299549     0.002460284161241    40.9989472390733     0.998144475329382    -0.092650639665938   0.998144475329382    -0.092650639665938   0.002460284161241    40.9989472390733     
2.17262666556444     0.002473651897733    41.2823554493313     0.998142465625885    -0.093683180384575   0.998142465625885    -0.093683180384575   0.002473651897733    41.2823554493313     
2.19684379817504     0.002487221641545    41.5659754351921     0.998140444267893    -0.094727227124484   0.998140444267893    -0.094727227124484   0.002487221641545    41.5659754351921     
2.2213308664912      0.002500996061178    41.8497784220982     0.998138411179668    -0.095782908083212   0.998138411179668    -0.095782908083212   0.002500996061178    41.8497784220982     
2.24609087934498     0.002514977848863    42.1337355485903     0.998136366284808    -0.096850352886322   0.998136366284808    -0.096850352886322   0.002514977848863    42.1337355485903     
2.27112687910633     0.002529169720652    42.4178178807057     0.998134309506259    -0.097929692603294   0.998134309506259    -0.097929692603294   0.002529169720652    42.4178178807057     
2.29644194205689     0.002543574416505    42.7019964264629     0.998132240766234    -0.099021059763595   0.998132240766234    -0.099021059763595   0.002543574416505    42.7019964264629     
2.32203917876801     0.002558194700391    42.9862421504102     0.998130159986307    -0.100124588372948   0.998130159986307    -0.100124588372948   0.002558194700391    42.9862421504102     
2.34792173448295     0.002573033360388    43.270525988227      0.998128067087289    -0.101240413929753   0.998128067087289    -0.101240413929753   0.002573033360388    43.270525988227      
2.37409278950336     0.00258809320879     43.5548188613542     0.998125961989321    -0.102368673441723   0.998125961989321    -0.102368673441723   0.00258809320879     43.5548188613542     
2.40055555958003     0.00260337708222     43.8390916916381     0.998123844611797    -0.103509505442678   0.998123844611797    -0.103509505442678   0.00260337708222     43.8390916916381     
2.42731329630806     0.002618887841746    44.1233154159704     0.998121714873386    -0.104663050009544   0.998121714873386    -0.104663050009544   0.002618887841746    44.1233154159704     
2.45436928752637     0.002634628373007    44.4074610009033     0.99811957269199     -0.105829448779526   0.99811957269199     -0.105829448779526   0.002634628373007    44.4074610009033     
2.4817268577217      0.00265060158634     44.6914994572265     0.99811741798478     -0.107008844967492   0.99811741798478     -0.107008844967492   0.00265060158634     44.6914994572265     
2.5093893684371      0.002666810416917    44.9754018544831     0.998115250668132    -0.108201383383524   0.998115250668132    -0.108201383383524   0.002666810416917    44.9754018544831     
2.53736021868499     0.002683257824888    45.2591393354084     0.998113070657674    -0.109407210450695   0.998113070657674    -0.109407210450695   0.002683257824888    45.2591393354084     
2.5656428453648      0.002699946795527    45.5426831302777     0.998110877868219    -0.110626474223013   0.998110877868219    -0.110626474223013   0.002699946795527    45.5426831302777     
2.59424072368529     0.002716880339391    45.826004571138      0.998108672213795    -0.111859324403588   0.998108672213795    -0.111859324403588   0.002716880339391    45.826004571138      
2.62315736759152     0.002734061492479    46.1090751059159     0.998106453607591    -0.113105912362988   0.998106453607591    -0.113105912362988   0.002734061492479    46.1090751059159     
2.6523963301967      0.002751493316404    46.391866312375      0.998104221961986    -0.114366391157804   0.998104221961986    -0.114366391157804   0.002751493316404    46.391866312375      
2.6819612042187      0.002769178898571    46.6743499119146     0.998101977188532    -0.115640915549425   0.998101977188532    -0.115640915549425   0.002769178898571    46.6743499119146     
2.71185562242155     0.00278712135236     46.9564977831888     0.99809971919791     -0.116929642023014   0.99809971919791     -0.116929642023014   0.00278712135236     46.9564977831888     
2.74208325806181     0.002805323817316    47.2382819755316     0.998097447899941    -0.118232728806697   0.998097447899941    -0.118232728806697   0.002805323817316    47.2382819755316     
2.77264782533989     0.002823789459355    47.519674722174      0.998095163203576    -0.119550335890974   0.998095163203576    -0.119550335890974   0.002823789459355    47.519674722174      
2.80355307985646     0.002842521470968    47.8006484532327     0.998092865016874    -0.120882625048332   0.998092865016874    -0.120882625048332   0.002842521470968    47.8006484532327     
2.83480281907391     0.00286152307144     48.081175808467      0.998090553246989    -0.122229759853087   0.998090553246989    -0.122229759853087   0.00286152307144     48.081175808467      
2.86640088278293     0.002880797507072    48.3612296497776     0.998088227800158    -0.123591905701446   0.998088227800158    -0.123591905701446   0.002880797507072    48.3612296497776     
2.89835115357438     0.002900348051418    48.6407830734406     0.998085888581679    -0.124969229831779   0.998085888581679    -0.124969229831779   0.002900348051418    48.6407830734406     
2.93065755731631     0.002920178005523    48.9198094220673     0.998083535495908    -0.126361901345139   0.998083535495908    -0.126361901345139   0.002920178005523    48.9198094220673     
2.96332406363637     0.002940290698177    49.1982822962664     0.998081168446258    -0.127770091225993   0.998081168446258    -0.127770091225993   0.002940290698177    49.1982822962664     
2.99635468640958     0.002960689486172    49.4761755660115     0.998078787335136    -0.129193972363184   0.998078787335136    -0.129193972363184   0.002960689486172    49.4761755660115     
3.02975348425152     0.002981377754571    49.75346338169       0.998076392063967    -0.130633719571136   0.998076392063967    -0.130633719571136   0.002981377754571    49.75346338169       
3.06352456101702     0.003002358916987    50.0301201848313     0.998073982533198    -0.13208950961129    0.998073982533198    -0.13208950961129    0.003002358916987    50.0301201848313     
3.09767206630446     0.003023636415867    50.3061207185023     0.998071558642202    -0.13356152121377    0.998071558642202    -0.13356152121377    0.003023636415867    50.3061207185023     
3.1322001959656      0.003045213722788    50.581440037361      0.998069120289369    -0.13504993509931    0.998069120289369    -0.13504993509931    0.003045213722788    50.581440037361      
3.16711319262117     0.003067094338765    50.8560535173595     0.998066667371988    -0.136554934001398   0.998066667371988    -0.136554934001398   0.003067094338765    50.8560535173595     
3.20241534618218     0.00308928179456     51.1299368650913     0.998064199786304    -0.138076702688695   0.998064199786304    -0.138076702688695   0.00308928179456     51.1299368650913     
3.23811099437702     0.00311177965101     51.4030661267723     0.998061717427453    -0.13961542798768    0.998061717427453    -0.13961542798768    0.00311177965101     51.4030661267723     
3.27420452328449     0.003134591499357    51.6754176968531     0.998059220189484    -0.141171298805556   0.998059220189484    -0.141171298805556   0.003134591499357    51.6754176968531     
3.31070036787269     0.003157720961595    51.9469683262549     0.998056707965296    -0.142744506153415   0.998056707965296    -0.142744506153415   0.003157720961595    51.9469683262549     
3.347603012544       0.003181171690814    52.2176951302263     0.998054180646676    -0.144335243169653   0.998054180646676    -0.144335243169653   0.003181171690814    52.2176951302263     
3.3849169916861      0.00320494737157     52.487575595814      0.998051638124234    -0.145943705143652   0.998051638124234    -0.145943705143652   0.00320494737157     52.487575595814      
3.42264689022909     0.003229051720252    52.7565875889454     0.998049080287392    -0.147570089539713   0.998049080287392    -0.147570089539713   0.003229051720252    52.7565875889454     
3.46079734420892     0.003253488485463    53.0247093611249     0.998046507024385    -0.149214596021273   0.998046507024385    -0.149214596021273   0.003253488485463    53.0247093611249     
3.49937304133696     0.003278261448408    53.2919195557323     0.998043918222206    -0.150877426475378   0.998043918222206    -0.150877426475378   0.003278261448408    53.2919195557323     
3.5383787215761      0.003303374423301    53.5581972139327     0.998041313766645    -0.152558785037434   0.998041313766645    -0.152558785037434   0.003303374423301    53.5581972139327     
3.57781917772308     0.003328831257767    53.823521780189      0.998038693542193    -0.154258878116225   0.998038693542193    -0.154258878116225   0.003328831257767    53.823521780189      
3.61769925599744     0.003354635833264    54.0878731073828     0.99803605743209     -0.155977914419226   0.99803605743209     -0.155977914419226   0.003354635833264    54.0878731073828     
3.65802385663701     0.003380792065511    54.3512314615402     0.998033405318253    -0.157716104978175   0.998033405318253    -0.157716104978175   0.003380792065511    54.3512314615402     
3.6987979345         0.00340730390493     54.6135775261669     0.998030737081278    -0.159473663174949   0.998030737081278    -0.159473663174949   0.00340730390493     54.6135775261669     
3.74002649967383     0.003434175337089    54.8748924061933     0.998028052600415    -0.161250804767719   0.998028052600415    -0.161250804767719   0.003434175337089    54.8748924061933     
3.78171461809073     0.003461410383159    55.1351576315301     0.998025351753547    -0.163047747917389   0.998025351753547    -0.163047747917389   0.003461410383159    55.1351576315301     
3.82386741215025     0.003489013100385    55.3943551602425     0.998022634417159    -0.164864713214346   0.998022634417159    -0.164864713214346   0.003489013100385    55.3943551602425     
3.86649006134864     0.003516987582562    55.6524673813412     0.998019900466316    -0.166701923705489   0.998019900466316    -0.166701923705489   0.003516987582562    55.6524673813412     
3.90958780291526     0.003545337960516    55.9094771171981     0.998017149774654    -0.168559604921573   0.998017149774654    -0.168559604921573   0.003545337960516    55.9094771171981     
3.95316593245617     0.003574068402603    56.1653676255887     0.998014382214333    -0.170437984904846   0.998014382214333    -0.170437984904846   0.003574068402603    56.1653676255887     
3.99722980460475     0.003603183115214    56.4201226013695     0.998011597656025    -0.172337294237002   0.998011597656025    -0.172337294237002   0.003603183115214    56.4201226013695     
4.04178483367967     0.003632686343285    56.6737261777908     0.998008795968868    -0.174257766067434   0.998008795968868    -0.174257766067434   0.003632686343285    56.6737261777908     
4.08683649435019     0.003662582370825    56.9261629274573     0.998005977020481    -0.176199636141814   0.998005977020481    -0.176199636141814   0.003662582370825    56.9261629274573     
4.13239032230886     0.003692875521445    57.1774178629388     0.998003140676889    -0.178163142830977   0.998003140676889    -0.178163142830977   0.003692875521445    57.1774178629388     
4.17845191495167     0.0037235701589      57.4274764370377     0.998000286802554    -0.180148527160148   0.998000286802554    -0.180148527160148   0.0037235701589      57.4274764370377     
4.22502693206586     0.003754670687642    57.6763245427222     0.997997415260267    -0.182156032838451   0.997997415260267    -0.182156032838451   0.003754670687642    57.6763245427222     
4.27212109652537     0.003786181553374    57.9239485127321     0.997994525911191    -0.184185906288804   0.997994525911191    -0.184185906288804   0.003786181553374    57.9239485127321     
4.31974019499401     0.003818107243626    58.1703351188649     0.997991618614803    -0.186238396678092   0.997991618614803    -0.186238396678092   0.003818107243626    58.1703351188649     
4.36789007863652     0.003850452288327    58.4154715709488     0.997988693228864    -0.188313755947714   0.997988693228864    -0.188313755947714   0.003850452288327    58.4154715709488     
4.41657666383748     0.003883221260395    58.6593455155147     0.99798574960939     -0.190412238844443   0.99798574960939     -0.190412238844443   0.003883221260395    58.6593455155147     
4.46580593292834     0.003916418776329    58.9019450341715     0.997982787610613    -0.192534102951648   0.997982787610613    -0.192534102951648   0.003916418776329    58.9019450341715     
4.51558393492246     0.003950049496818    59.1432586416949     0.997979807084983    -0.19467960872085    0.997979807084983    -0.19467960872085    0.003950049496818    59.1432586416949     
4.56591678625839     0.003984118127348    59.3832752838412     0.997976807883074    -0.196849019503631   0.997976807883074    -0.196849019503631   0.003984118127348    59.3832752838412     
4.61681067155141     0.00401862941883     59.6219843348915     0.997973789853623    -0.199042601583912   0.997973789853623    -0.199042601583912   0.00401862941883     59.6219843348915     
4.66827184435349     0.004053588168226    59.8593755949366     0.997970752843427    -0.201260624210555   0.997970752843427    -0.201260624210555   0.004053588168226    59.8593755949366     
4.72030662792165     0.004088999219188    60.0954392869137     0.997967696697378    -0.203503359630374   0.997967696697378    -0.203503359630374   0.004088999219188    60.0954392869137     
4.77292141599495     0.004124867462707    60.3301660534029     0.997964621258376    -0.205771083121472   0.997964621258376    -0.205771083121472   0.004124867462707    60.3301660534029     
4.82612267358014     0.00416119783777     60.5635469531917     0.997961526367291    -0.208064073026962   0.997961526367291    -0.208064073026962   0.00416119783777     60.5635469531917     
4.87991693774598     0.00419799533202     60.7955734576205     0.997958411862964    -0.210382610789073   0.997958411862964    -0.210382610789073   0.00419799533202     60.7955734576205     
4.93431081842655     0.004235264982435    61.0262374467161     0.997955277582154    -0.212726980983625   0.997955277582154    -0.212726980983625   0.004235264982435    61.0262374467161     
4.98931099923338     0.004273011876002    61.2555312051216     0.997952123359492    -0.215097471354888   0.997952123359492    -0.215097471354888   0.004273011876002    61.2555312051216     
5.04492423827672     0.004311241150414    61.4834474178372     0.997948949027422    -0.217494372850811   0.997948949027422    -0.217494372850811   0.004311241150414    61.4834474178372     
5.10115736899596     0.00434995799476     61.7099791657762     0.997945754416228    -0.21991797965869    0.997945754416228    -0.21991797965869    0.00434995799476     61.7099791657762     
5.15801730099925     0.004389167650237    61.935119921148      0.997942539353905    -0.222368589241171   0.997942539353905    -0.222368589241171   0.004389167650237    61.935119921148      
5.21551102091254     0.004428875410863    62.1588635426786     0.997939303666203    -0.224846502372707   0.997939303666203    -0.224846502372707   0.004428875410863    62.1588635426786     
5.27364559323801     0.004469086624197    62.3812042706757     0.99793604717651     -0.227352023176373   0.99793604717651     -0.227352023176373   0.004469086624197    62.3812042706757     
5.33242816122218     0.004509806692071    62.6021367219489     0.997932769705857    -0.229885459161123   0.997932769705857    -0.229885459161123   0.004509806692071    62.6021367219489     
5.3918659477336      0.00455104107133     62.8216558845942     0.997929471072868    -0.232447121259454   0.997929471072868    -0.232447121259454   0.00455104107133     62.8216558845942     
5.45196625615034     0.004592795274575    63.0397571126529     0.997926151093696    -0.235037323865478   0.997926151093696    -0.235037323865478   0.004592795274575    63.0397571126529     
5.51273647125742     0.004635074870923    63.2564361206494     0.997922809581965    -0.237656384873404   0.997922809581965    -0.237656384873404   0.004635074870923    63.2564361206494     
5.57418406015419     0.004677885486766    63.4716889780243     0.997919446348791    -0.240304625716507   0.997919446348791    -0.240304625716507   0.004677885486766    63.4716889780243     
5.63631657317184     0.004721232806543    63.6855121034628     0.997916061202656    -0.242982371406445   0.997916061202656    -0.242982371406445   0.004721232806543    63.6855121034628     
5.69914164480115     0.00476512257352     63.8979022591345     0.997912653949388    -0.245689950573074   0.997912653949388    -0.245689950573074   0.00476512257352     63.8979022591345     
5.7626669946306      0.004809560590577    64.1088565448472     0.997909224392125    -0.248427695504682   0.997909224392125    -0.248427695504682   0.004809560590577    64.1088565448472     
5.82690042829485     0.004854552721001    64.3183723921274     0.997905772331235    -0.251195942188674   0.997905772331235    -0.251195942188674   0.004854552721001    64.3183723921274     
5.89184983843391     0.004900104889293    64.5264475582294     0.997902297564312    -0.253995030352706   0.997902297564312    -0.253995030352706   0.004900104889293    64.5264475582294     
5.9575232056629      0.004946223081976    64.7330801200897     0.997898799886052    -0.256825303506273   0.997898799886052    -0.256825303506273   0.004946223081976    64.7330801200897     
6.0239285995527      0.004992913348417    64.938268468224      0.997895279088262    -0.259687108982758   0.997895279088262    -0.259687108982758   0.004992913348417    64.938268468224      
6.09107417962146     0.00504018180165     65.1420113005837     0.997891734959758    -0.262580797981961   0.997891734959758    -0.262580797981961   0.00504018180165     65.1420113005837     
6.15896819633721     0.005088034619219    65.3443076163703     0.997888167286353    -0.265506725613083   0.997888167286353    -0.265506725613083   0.005088034619219    65.3443076163703     
6.22761899213163     0.005136478044014    65.5451567098221     0.997884575850743    -0.268465250938188   0.997884575850743    -0.268465250938188   0.005136478044014    65.5451567098221     
6.29703500242514     0.005185518385128    65.744558163975      0.99788096043251     -0.271456737016164   0.99788096043251     -0.271456737016164   0.005185518385128    65.744558163975      
6.36722475666335     0.005235162018715    65.9425118444063     0.997877320808006    -0.274481550947143   0.997877320808006    -0.274481550947143   0.005235162018715    65.9425118444063     
6.43819687936515     0.005285415388858    66.139017892966      0.997873656750321    -0.277540063917442   0.997873656750321    -0.277540063917442   0.005285415388858    66.139017892966      
6.50996009118242     0.005336285008445    66.3340767215037     0.997869968029214    -0.280632651244986   0.997869968029214    -0.280632651244986   0.005336285008445    66.3340767215037     
6.58252320997161     0.005387777460058    66.5276890055956     0.99786625441105     -0.283759692425237   0.99786625441105     -0.283759692425237   0.005387777460058    66.5276890055956     
6.65589515187716     0.005439899396861    66.7198556782765     0.997862515658723    -0.286921571177631   0.997862515658723    -0.286921571177631   0.005439899396861    66.7198556782765     
6.73008493242715     0.005492657543501    66.910577923785      0.997858751531592    -0.290118675492532   0.997858751531592    -0.290118675492532   0.005492657543501    66.910577923785      
6.80510166764101     0.005546058697024    67.0998571713229     0.997854961785433    -0.293351397678713   0.997854961785433    -0.293351397678713   0.005546058697024    67.0998571713229     
6.88095457514967     0.005600109727788    67.287695088838      0.997851146172328    -0.296620134411346   0.997851146172328    -0.296620134411346   0.005600109727788    67.287695088838      
6.95765297532817     0.00565481758039     67.4740935768315     0.997847304440634    -0.299925286780542   0.997847304440634    -0.299925286780542   0.00565481758039     67.4740935768315     
7.0352062924409      0.005710189274605    67.6590547621979     0.99784343633488     -0.303267260340414   0.99784343633488     -0.303267260340414   0.005710189274605    67.6590547621979     
7.11362405579958     0.005766231906327    67.8425809920975     0.997839541595695    -0.306646465158691   0.997839541595695    -0.306646465158691   0.005766231906327    67.8425809920975     
7.1929159009342      0.005822952648524    68.0246748278693     0.997835619959765    -0.31006331586689    0.997835619959765    -0.31006331586689    0.005822952648524    68.0246748278693     
7.27309157077694     0.005880358752197    68.2053390389871     0.997831671159698    -0.313518231711014   0.997831671159698    -0.313518231711014   0.005880358752197    68.2053390389871     
7.35416091685938     0.005938457547354    68.3845765970612     0.997827694923993    -0.317011636602855   0.997827694923993    -0.317011636602855   0.005938457547354    68.3845765970612     
7.43613390052293     0.005997256443986    68.5623906698901     0.99782369097692     -0.320543959171817   0.99782369097692     -0.320543959171817   0.005997256443986    68.5623906698901     
7.51902059414287     0.006056762933057    68.7387846155661     0.997819659038461    -0.324115632817357   0.997819659038461    -0.324115632817357   0.006056762933057    68.7387846155661     
7.60283118236601     0.006116984587505    68.913761976637      0.997815598824232    -0.327727095761982   0.997815598824232    -0.327727095761982   0.006116984587505    68.913761976637      
7.68757596336204     0.006177929063241    69.0873264743266     0.997811510045364    -0.33137879110483    0.997811510045364    -0.33137879110483    0.006177929063241    69.0873264743266     
7.77326535008898     0.006239604100173    69.2594820028174     0.997807392408428    -0.335071166875856   0.997807392408428    -0.335071166875856   0.006239604100173    69.2594820028174     
7.85990987157267     0.006302017523227    69.4302326235975     0.997803245615355    -0.338804676090608   0.997803245615355    -0.338804676090608   0.006302017523227    69.4302326235975     
7.94752017420044     0.006365177243385    69.5995825598749     0.997799069363335    -0.342579776805633   0.997799069363335    -0.342579776805633   0.006365177243385    69.5995825598749     
8.03610702302937     0.006429091258724    69.7675361910591     0.997794863344706    -0.346396932174445   0.997794863344706    -0.346396932174445   0.006429091258724    69.7675361910591     
8.12568130310898     0.006493767655478    69.9340980473156     0.997790627246891    -0.350256610504173   0.997790627246891    -0.350256610504173   0.006493767655478    69.9340980473156     
8.21625402081875     0.006559214609096    70.099272804191      0.997786360752242    -0.354159285312784   0.997786360752242    -0.354159285312784   0.006559214609096    70.099272804191      
8.30783630522052     0.006625440385319    70.263065277315      0.99778206353802     -0.358105435386986   0.99778206353802     -0.358105435386986   0.006625440385319    70.263065277315      
8.40043940942592     0.006692453341262    70.4254804171752     0.997777735276207    -0.362095544840722   0.997777735276207    -0.362095544840722   0.006692453341262    70.4254804171752     
8.49407471197919     0.00676026192651     70.5865233039717     0.997773375633463    -0.36613010317435    0.997773375633463    -0.36613010317435    0.00676026192651     70.5865233039717     
8.58875371825518     0.00682887468422     70.7461991425494     0.997768984270967    -0.370209605334456   0.997768984270967    -0.370209605334456   0.00682887468422     70.7461991425494     
8.6844880618732      0.006898300252238    70.9045132574088     0.997764560844348    -0.374334551774335   0.997764560844348    -0.374334551774335   0.006898300252238    70.9045132574088     
8.78128950612637     0.006968547364222    71.0614710877996     0.997760105003555    -0.378505448515156   0.997760105003555    -0.378505448515156   0.006968547364222    71.0614710877996     
8.87916994542712     0.007039624850779    71.2170781828928     0.997755616392726    -0.382722807207749   0.997755616392726    -0.382722807207749   0.007039624850779    71.2170781828928     
8.97814140676865     0.007111541640613    71.3713401970374     0.997751094650102    -0.386987145195163   0.997751094650102    -0.386987145195163   0.007111541640613    71.3713401970374     
9.07821605120278     0.007184306761676    71.5242628850988     0.997746539407881    -0.391298985575818   0.997746539407881    -0.391298985575818   0.007184306761676    71.5242628850988     
9.1794061753342      0.007257929342345    71.6758520978792     0.997741950292089    -0.395658857267427   0.997741950292089    -0.395658857267427   0.007257929342345    71.6758520978792     
9.2817242128314      0.007332418612594    71.8261137776239     0.997737326922481    -0.400067295071594   0.997737326922481    -0.400067295071594   0.007332418612594    71.8261137776239     
9.38518273595452     0.007407783905189    71.9750539536088     0.99773266891239     -0.404524839739127   0.99773266891239     -0.404524839739127   0.007407783905189    71.9750539536088     
9.48979445710004     0.007484034656888    72.1226787378137     0.997727975868602    -0.409032038036071   0.997727975868602    -0.409032038036071   0.007484034656888    72.1226787378137     
9.59557223036292     0.007561180409654    72.2689943206783     0.997723247391217    -0.413589442810473   0.997723247391217    -0.413589442810473   0.007561180409654    72.2689943206783     
9.70252905311597     0.007639230811884    72.4140069669436     0.99771848307354     -0.418197613059899   0.99771848307354     -0.418197613059899   0.007639230811884    72.4140069669436     
9.81067806760692     0.007718195619639    72.5577230115749     0.997713682501866    -0.422857113999654   0.997713682501866    -0.422857113999654   0.007718195619639    72.5577230115749     
9.92003256257325     0.007798084697901    72.700148855771      0.99770884525545     -0.427568517131808   0.99770884525545     -0.427568517131808   0.007798084697901    72.700148855771      
10.0306059748751     0.007878908021827    72.8412909630554     0.997703970906223    -0.43233240031493    0.997703970906223    -0.43233240031493    0.007878908021827    72.8412909630554     
10.1424118911461     0.007960675678028    72.9811558554496     0.997699059018778    -0.437149347834646   0.997699059018778    -0.437149347834646   0.007960675678028    72.9811558554496     
10.2554640494631     0.008043397865851    73.1197501097319     0.997694109150126    -0.442019950474927   0.997694109150126    -0.442019950474927   0.008043397865851    73.1197501097319     
10.3697763410342     0.008127084898676    73.2570803537747     0.997689120849548    -0.446944805590173   0.997689120849548    -0.446944805590173   0.008127084898676    73.2570803537747     
10.4853628119054     0.008211747205234    73.3931532629672     0.997684093658479    -0.451924517178139   0.997684093658479    -0.451924517178139   0.008211747205234    73.3931532629672     
10.6022376646865     0.008297395330922    73.5279755567157     0.997679027110311    -0.456959695953587   0.997679027110311    -0.456959695953587   0.008297395330922    73.5279755567157     
10.7204152602966     0.008384039939147    73.6615539950266     0.997673920730234    -0.462050959422808   0.997673920730234    -0.462050959422808   0.008384039939147    73.6615539950266     
10.8399101197284     0.008471691812671    73.793895375168      0.997668774035048    -0.467198931958939   0.997668774035048    -0.467198931958939   0.008471691812671    73.793895375168      
10.9607369258324     0.008560361854978    73.9250065284102     0.997663586533016    -0.472404244878111   0.997663586533016    -0.472404244878111   0.008560361854978    73.9250065284102     
11.0829105251212     0.008650061091647    74.0548943168457     0.99765835772367     -0.477667536516451   0.99765835772367     -0.477667536516451   0.008650061091647    74.0548943168457     
11.2064459295937     0.008740800671749    74.1835656302839     0.997653087097635    -0.482989452307935   0.997653087097635    -0.482989452307935   0.008740800671749    74.1835656302839     
11.3313583185798     0.008832591869246    74.3110273832249     0.997647774136429    -0.488370644863031   0.997647774136429    -0.488370644863031   0.008832591869246    74.3110273832249     
11.4576630406053     0.008925446084408    74.4372865119069     0.997642418312294    -0.493811774048316   0.997642418312294    -0.493811774048316   0.008925446084408    74.4372865119069     
11.5853756152781     0.009019374845255    74.5623499714298     0.997637019087956    -0.499313507066868   0.997637019087956    -0.499313507066868   0.009019374845255    74.5623499714298     
11.7145117351949     0.009114389808992    74.6862247329503     0.997631575916512    -0.504876518539627   0.997631575916512    -0.504876518539627   0.009114389808992    74.6862247329503     
11.8450872678697     0.009210502763481    74.808917780952      0.997626088241117    -0.510501490587574   0.997626088241117    -0.510501490587574   0.009210502763481    74.808917780952      
11.9771182576835     0.009307725628711    74.9304361105857     0.997620555494871    -0.516189112914877   0.997620555494871    -0.516189112914877   0.009307725628711    74.9304361105857     
12.1106209278552     0.009406070458291    75.0507867250802     0.997614977100539    -0.521940082892883   0.997614977100539    -0.521940082892883   0.009406070458291    75.0507867250802     
12.2456116824359     0.009505549440959    75.1699766332228     0.997609352470383    -0.527755105645122   0.997609352470383    -0.527755105645122   0.009505549440959    75.1699766332228     
12.3821071083237     0.009606174902099    75.2880128469095     0.997603681005907    -0.533634894133163   0.997603681005907    -0.533634894133163   0.009606174902099    75.2880128469095     
12.5201239773025     0.00970795930528     75.4049023787599     0.997597962097632    -0.539580169243419   0.997597962097632    -0.539580169243419   0.00970795930528     75.4049023787599     
12.6596792481022     0.009810915253813    75.5206522398011     0.997592195124894    -0.545591659875005   0.997592195124894    -0.545591659875005   0.009810915253813    75.5206522398011     
12.800790068483      0.009915055492311    75.6352694372147     0.997586379455574    -0.551670103028418   0.997586379455574    -0.551670103028418   0.009915055492311    75.6352694372147     
12.9434737773421     0.010020392908282    75.748760972149      0.997580514445872    -0.55781624389527    0.997580514445872    -0.55781624389527    0.010020392908282    75.748760972149      
13.0877479068444     0.010126940533723    75.8611338375931     0.997574599440033    -0.564030835948988   0.997574599440033    -0.564030835948988   0.010126940533723    75.8611338375931     
13.2336301845766     0.010234711546742    75.9723950163138     0.997568633770155    -0.57031464103656    0.997568633770155    -0.57031464103656    0.010234711546742    75.9723950163138     
13.3811385357255     0.01034371927319     76.082551478852      0.997562616755852    -0.576668429471144   0.997562616755852    -0.576668429471144   0.01034371927319     76.082551478852      
13.5302910852807     0.010453977188312    76.19161018158       0.997556547704056    -0.583092980125887   0.997556547704056    -0.583092980125887   0.010453977188312    76.19161018158       
13.6811061602615     0.010565498918411    76.2995780648145     0.997550425908702    -0.589589080528578   0.997550425908702    -0.589589080528578   0.010565498918411    76.2995780648145     
13.8336022919688     0.010678298242539    76.4064620509897     0.997544250650474    -0.596157526957487   0.997544250650474    -0.596157526957487   0.010678298242539    76.4064620509897     
13.9877982182625     0.010792389094194    76.5122690428846     0.997538021196527    -0.602799124538185   0.997538021196527    -0.602799124538185   0.010792389094194    76.5122690428846     
14.1437128858632     0.010907785563041    76.6170059219059     0.997531736800181    -0.609514687341436   0.997531736800181    -0.609514687341436   0.010907785563041    76.6170059219059     
14.3013654526811     0.01102450189665     76.720679546423      0.997525396700617    -0.616305038482082   0.997525396700617    -0.616305038482082   0.01102450189665     76.720679546423      
14.4607752901694     0.011142552502251    76.8232967501588     0.997519000122627    -0.623171010219215   0.997519000122627    -0.623171010219215   0.011142552502251    76.8232967501588     
14.6219619857047     0.011261951948508    76.9248643406288     0.997512546276247    -0.630113444057205   0.997512546276247    -0.630113444057205   0.011261951948508    76.9248643406288     
14.7849453449939     0.011382714967309    77.0253890976314     0.997506034356478    -0.637133190847976   0.997506034356478    -0.637133190847976   0.011382714967309    77.0253890976314     
14.9497453945078     0.011504856455579    77.1248777717887     0.997499463542936    -0.644231110894343   0.997499463542936    -0.644231110894343   0.011504856455579    77.1248777717887     
15.1163823839417     0.011628391477107    77.2233370831336     0.997492832999566    -0.651408074054544   0.997492832999566    -0.651408074054544   0.011628391477107    77.2233370831336     
15.2848767887038     0.011753335264398    77.3207737197448     0.997486141874264    -0.65866495984779    0.997486141874264    -0.65866495984779    0.011753335264398    77.3207737197448     
15.4552493124308     0.011879703220535    77.4171943364275     0.997479389298548    -0.66600265756108    0.997479389298548    -0.66600265756108    0.011879703220535    77.4171943364275     
15.6275208895321     0.01200751092107     77.5126055534396     0.99747257438721     -0.673422066357137   0.99747257438721     -0.673422066357137   0.01200751092107     77.5126055534396     
15.8017126877619     0.012136774115929    77.6070139552593     0.997465696237962    -0.680924095383516   0.997465696237962    -0.680924095383516   0.012136774115929    77.6070139552593     
15.9778461108205     0.012267508731342    77.7004260893995     0.997458753931061    -0.688509663882911   0.997458753931061    -0.688509663882911   0.012267508731342    77.7004260893995     
16.1559428009838     0.012399730871782    77.7928484652588     0.997451746528921    -0.696179701304613   0.997451746528921    -0.696179701304613   0.012399730871782    77.7928484652588     
16.336024641763      0.012533456821939    77.8842875530178     0.997444673075766    -0.703935147417313   0.997444673075766    -0.703935147417313   0.012533456821939    77.8842875530178     
16.5181137605932     0.012668703048705    77.9747497825712     0.997437532597192    -0.711776952422954   0.997437532597192    -0.711776952422954   0.012668703048705    77.9747497825712     
16.7022325315526     0.012805486203182    78.0642415425016     0.997430324099821    -0.719706077071966   0.997430324099821    -0.719706077071966   0.012805486203182    78.0642415425016     
16.8884035781114     0.012943823122709    78.1527691790879     0.997423046570843    -0.727723492779675   0.997423046570843    -0.727723492779675   0.012943823122709    78.1527691790879     
17.0766497759119     0.013083730832916    78.2403389953532     0.997415698977616    -0.73583018174399    0.997415698977616    -0.73583018174399    0.013083730832916    78.2403389953532     
17.2669942555792     0.013225226549794    78.3269572501458     0.997408280267236    -0.744027137064368   0.997408280267236    -0.744027137064368   0.013225226549794    78.3269572501458     
17.4594604055632     0.013368327681786    78.4126301572563     0.99740078936612     -0.752315362862136   0.99740078936612     -0.752315362862136   0.013368327681786    78.4126301572563     
17.654071875013      0.013513051831907    78.4973638845683     0.997393225179533    -0.76069587440197    0.997393225179533    -0.76069587440197    0.013513051831907    78.4973638845683     
17.8508525766818     0.013659416799876    78.5811645532415     0.997385586591146    -0.769169698214836   0.997385586591146    -0.769169698214836   0.013659416799876    78.5811645532415     
18.0498266898664     0.013807440584282    78.6640382369266     0.997377872462549    -0.777737872222166   0.997377872462549    -0.777737872222166   0.013807440584282    78.6640382369266     
18.2510186633771     0.013957141384757    78.7459909610119     0.997370081632817    -0.786401445861453   0.997370081632817    -0.786401445861453   0.013957141384757    78.7459909610119     
18.4544532185426     0.014108537604191    78.8270287018993     0.997362212917975    -0.795161480213123   0.997362212917975    -0.795161480213123   0.014108537604191    78.8270287018993     
18.6601553522469     0.014261647850951    78.9071573863096     0.997354265110528    -0.804019048128841   0.997354265110528    -0.804019048128841   0.014261647850951    78.9071573863096     
18.8681503400017     0.01441649094114     78.9863828906172     0.997346236978939    -0.812975234361199   0.997346236978939    -0.812975234361199   0.01441649094114     78.9863828906172     
19.0784637390513     0.014573085900864    79.0647110402105     0.997338127267132    -0.822031135694752   0.997338127267132    -0.822031135694752   0.014573085900864    79.0647110402105     
19.2911213915133     0.014731451968539    79.1421476088806     0.997329934693922    -0.831187861078512   0.997329934693922    -0.831187861078512   0.014731451968539    79.1421476088806     
19.5061494275538     0.014891608597203    79.2186983182357     0.997321657952504    -0.84044653175988    0.997321657952504    -0.84044653175988    0.014891608597203    79.2186983182357     
19.7235742685982     0.015053575456873    79.29436883714       0.997313295709889    -0.849808281419996   0.997313295709889    -0.849808281419996   0.015053575456873    79.29436883714       
19.9434226305779     0.015217372436908    79.3691647811776     0.997304846606309    -0.859274256310487   0.997304846606309    -0.859274256310487   0.015217372436908    79.3691647811776     
20.1657215272126     0.015383019648409    79.4430917121391     0.997296309254682    -0.868845615391851   0.997296309254682    -0.868845615391851   0.015383019648409    79.4430917121391     
20.3904982733298     0.015550537426639    79.5161551375328     0.997287682239994    -0.878523530473165   0.997287682239994    -0.878523530473165   0.015550537426639    79.5161551375328     
20.6177804882211     0.015719946333465    79.5883605101159     0.997278964118698    -0.888309186353334   0.997278964118698    -0.888309186353334   0.015719946333465    79.5883605101159     
20.8475960990361     0.015891267159837    79.659713227449      0.997270153418069    -0.898203780963948   0.997270153418069    -0.898203780963948   0.015891267159837    79.659713227449      
21.0799733442134     0.016064520928276    79.7302186314697     0.997261248635637    -0.908208525513524   0.997261248635637    -0.908208525513524   0.016064520928276    79.7302186314697     
21.314940776951      0.016239728895402    79.7998820080877     0.997252248238434    -0.918324644633398   0.997252248238434    -0.918324644633398   0.016239728895402    79.7998820080877     
21.5525272687142     0.016416912554481    79.8687085867981     0.997243150662454    -0.928553376525153   0.997243150662454    -0.928553376525153   0.016416912554481    79.8687085867981     
21.7927620127835     0.016596093638002    79.9367035403139     0.997233954311886    -0.938895973109626   0.997233954311886    -0.938895973109626   0.016596093638002    79.9367035403139     
22.0356745278418     0.016777294120276    80.0038719842168     0.99722465755845     -0.949353700177448   0.99722465755845     -0.949353700177448   0.016777294120276    80.0038719842168     
22.281294661601      0.016960536220067    80.070218976625      0.997215258740716    -0.959927837541324   0.997215258740716    -0.959927837541324   0.016960536220067    80.070218976625      
22.5296525944702     0.017145842403247    80.1357495178777     0.99720575616332     -0.970619679189761   0.99720575616332     -0.970619679189761   0.017145842403247    80.1357495178777     
22.7807788432633     0.01733323538548     80.2004685502364     0.997196148096305    -0.981430533442601   0.997196148096305    -0.981430533442601   0.01733323538548     80.2004685502364     
23.0347042649495     0.017522738134932    80.2643809576012     0.997186432774312    -0.992361723108127   0.997186432774312    -0.992361723108127   0.017522738134932    80.2643809576012     
23.2914600604443     0.017714373875008    80.3274915652426     0.99717660839582     -1.00341458564181    0.99717660839582     -1.00341458564181    0.017714373875008    80.3274915652426     
23.5510777784437     0.017908166087124    80.3898051395475     0.997166673122362    -1.01459047330678    0.997166673122362    -1.01459047330678    0.017908166087124    80.3898051395475     
23.8135893193002     0.018104138513497    80.451326387779      0.997156625077714    -1.02589075333609    0.997156625077714    -1.02589075333609    0.018104138513497    80.451326387779      
24.079026938943      0.018302315159971    80.5120599578505     0.997146462347083    -1.03731680809648    0.997146462347083    -1.03731680809648    0.018302315159971    80.5120599578505     
24.3474232528413     0.018502720298871    80.5720104381107     0.99713618297626     -1.0488700352541     0.99713618297626     -1.0488700352541     0.018502720298871    80.5720104381107     
24.6188112400118     0.018705378471883    80.6311823571438     0.997125784970753    -1.06055184794189    0.997125784970753    -1.06055184794189    0.018705378471883    80.6311823571438     
24.8932242470711     0.018910314492966    80.6895801835785     0.99711526629491     -1.07236367492865    0.99711526629491     -1.07236367492865    0.018910314492966    80.6895801835785     
25.1706959923331     0.019117553451291    80.7472083259109     0.997104624871037    -1.08430696079006    0.997104624871037    -1.08430696079006    0.019117553451291    80.7472083259109     
25.4512605699519     0.019327120714217    80.8040711323367     0.997093858578445    -1.09638316608137    0.997093858578445    -1.09638316608137    0.019327120714217    80.8040711323367     
25.7349524541116     0.019539041930285    80.8601728905944     0.997082965252542    -1.10859376751199    0.997082965252542    -1.10859376751199    0.019539041930285    80.8601728905944     
26.0218065032618     0.019753343032256    80.9155178278184     0.997071942683877    -1.12094025812183    0.997071942683877    -1.12094025812183    0.019753343032256    80.9155178278184     
26.311857964401      0.019970050240168    80.9701101104018     0.997060788617137    -1.13342414745959    0.997060788617137    -1.13342414745959    0.019970050240168    80.9701101104018     
26.6051424774076     0.020189190064429    81.0239538438681     0.997049500750131    -1.14604696176285    0.997049500750131    -1.14604696176285    0.020189190064429    81.0239538438681     
26.9016960794191     0.020410789308946    81.0770530727516     0.997038076732819    -1.15881024414003    0.997038076732819    -1.15881024414003    0.020410789308946    81.0770530727516     
27.2015552092601     0.020634875074273    81.1294117804858     0.997026514166232    -1.1717155547544     0.997026514166232    -1.1717155547544     0.020634875074273    81.1294117804858     
27.5047567119196     0.020861474760805    81.1810338893003     0.997014810601388    -1.18476447100973    0.997014810601388    -1.18476447100973    0.020861474760805    81.1810338893003     
27.8113378430786     0.021090616071992    81.2319232601247     0.997002963538222    -1.19795858773824    0.997002963538222    -1.19795858773824    0.021090616071992    81.2319232601247     
28.1213362736876     0.021322327017589    81.2820836924997     0.996990970424454    -1.21129951739013    0.996990970424454    -1.21129951739013    0.021322327017589    81.2820836924997     
28.4347900945954     0.021556635916947    81.331518924495      0.996978828654481    -1.22478889022543    0.996978828654481    -1.22478889022543    0.021556635916947    81.331518924495      
28.7517378212296     0.021793571402318    81.3802326326331     0.996966535568136    -1.23842835450752    0.996966535568136    -1.23842835450752    0.021793571402318    81.3802326326331     
29.0722183983291     0.022033162422211    81.4282284318201     0.996954088449593    -1.25221957669893    0.996954088449593    -1.25221957669893    0.022033162422211    81.4282284318201     
29.3962712047297     0.022275438244774    81.4755098752813     0.996941484526048    -1.26616424165898    0.996941484526048    -1.26616424165898    0.022275438244774    81.4755098752813     
29.723936058202      0.022520428461204    81.5220804545024     0.996928720966544    -1.28026405284353    0.996928720966544    -1.28026405284353    0.022520428461204    81.5220804545024     
30.0552532203448     0.022768162989199    81.5679435991755     0.996915794880658    -1.29452073250685    0.996915794880658    -1.29452073250685    0.022768162989199    81.5679435991755     
30.3902634015317     0.023018672076442    81.6131026771505     0.99690270331724     -1.30893602190539    0.99690270331724     -1.30893602190539    0.023018672076442    81.6131026771505     
30.7290077659138     0.023271986304112    81.6575609943902     0.996889443263026    -1.32351168150389    0.996889443263026    -1.32351168150389    0.023271986304112    81.6575609943902     
31.071527936477      0.023528136590439    81.7013217949294     0.996876011641326    -1.33824949118334    0.996876011641326    -1.33824949118334    0.023528136590439    81.7013217949294     
31.4178660001573     0.02378715419429     81.7443882608389     0.996862405310594    -1.35315125045127    0.996862405310594    -1.35315125045127    0.02378715419429     81.7443882608389     
31.7680645130115     0.024049070718782    81.7867635121911     0.996848621063043    -1.36821877865411    0.996848621063043    -1.36821877865411    0.024049070718782    81.7867635121911     
32.1221665054465     0.024313918114946    81.8284506070311     0.996834655623187    -1.38345391519172    0.996834655623187    -1.38345391519172    0.024313918114946    81.8284506070311     
32.4802154875068     0.024581728685408    81.8694525413486     0.996820505646336    -1.39885851973409    0.996820505646336    -1.39885851973409    0.024581728685408    81.8694525413486     
32.8422554542203     0.02485253508812     81.9097722490545     0.996806167717087    -1.41443447244024    0.996806167717087    -1.41443447244024    0.02485253508812     81.9097722490545     
33.2083308910048     0.025126370340119    81.9494126019582     0.996791638347798    -1.4301836741794     0.996791638347798    -1.4301836741794     0.025126370340119    81.9494126019582     
33.5784867791336     0.02540326782132     81.9883764097486     0.996776913976972    -1.44610804675431    0.996776913976972    -1.44610804675431    0.02540326782132     81.9883764097486     
33.9527686012627     0.025683261278352    82.0266664199757     0.99676199096765     -1.46220953312685    0.99676199096765     -1.46220953312685    0.025683261278352    82.0266664199757     
34.3312223470195     0.025966384828426    82.0642853180353     0.996746865605774    -1.47849009764602    0.996746865605774    -1.47849009764602    0.025966384828426    82.0642853180353     
34.7138945186536     0.026252672963239    82.1012357271541     0.996731534098461    -1.49495172627791    0.996731534098461    -1.49495172627791    0.026252672963239    82.1012357271541     
35.1008321367512     0.026542160552915    82.1375202083767     0.996715992572315    -1.51159642683842    0.996715992572315    -1.51159642683842    0.026542160552915    82.1375202083767     
35.492082746012      0.026834882849979    82.1731412605536     0.996700237071624    -1.52842622922785    0.996700237071624    -1.52842622922785    0.026834882849979    82.1731412605536     
35.8876944210916     0.027130875493381    82.2081013203298     0.996684263556585    -1.54544318566815    0.996684263556585    -1.54544318566815    0.027130875493381    82.2081013203298     
36.287715772509      0.027430174512539    82.2424027621346     0.996668067901444    -1.5626493709424     0.996668067901444    -1.5626493709424     0.027430174512539    82.2424027621346     
36.6921959526187     0.02773281633143     82.276047898171      0.996651645892626    -1.58004688263662    0.996651645892626    -1.58004688263662    0.02773281633143     82.276047898171      
37.1011846616512     0.028038837772718    82.3090389784066     0.996634993226771    -1.59763784138405    0.996634993226771    -1.59763784138405    0.028038837772718    82.3090389784066     
37.5147321538193     0.028348276061918    82.3413781905636     0.996618105508834    -1.61542439111186    0.996618105508834    -1.61542439111186    0.028348276061918    82.3413781905636     
37.9328892434932     0.028661168831593    82.3730676601089     0.996600978250004    -1.63340869929012    0.996600978250004    -1.63340869929012    0.028661168831593    82.3730676601089     
38.3557073114443     0.028977554125597    82.4041094502445     0.996583606865674    -1.65159295718339    0.996583606865674    -1.65159295718339    0.028977554125597    82.4041094502445     
38.7832383111586     0.029297470403352    82.434505561897      0.996565986673383    -1.66997938010471    0.996565986673383    -1.66997938010471    0.029297470403352    82.434505561897      
39.2155347752205     0.029620956544158    82.4642579337064     0.996548112890603    -1.68857020767196    0.996548112890603    -1.68857020767196    0.029620956544158    82.4642579337064     
39.6526498217674     0.029948051851552    82.4933684420147     0.996529980632576    -1.70736770406682    0.996529980632576    -1.70736770406682    0.029948051851552    82.4933684420147     
40.094637161017      0.030278796057695    82.5218389008532     0.996511584910081    -1.72637415829626    0.996511584910081    -1.72637415829626    0.030278796057695    82.5218389008532     
40.5415511018666     0.030613229327803    82.5496710619287     0.996492920627125    -1.74559188445639    0.996492920627125    -1.74559188445639    0.030613229327803    82.5496710619287     
40.9934465585664     0.030951392264614    82.5768666146091     0.996473982578631    -1.76502322199899    0.996473982578631    -1.76502322199899    0.030951392264614    82.5768666146091     
41.4503790574671     0.031293325912896    82.6034271859067     0.996454765448023    -1.78467053600054    0.996454765448023    -1.78467053600054    0.031293325912896    82.6034271859067     
41.9124047438423     0.031639071763989    82.6293543404612     0.996435263804776    -1.80453621743377    0.996435263804776    -1.80453621743377    0.031639071763989    82.6293543404612     
42.3795803887878     0.031988671760387    82.6546495805201     0.99641547210194     -1.82462268344179    0.99641547210194     -1.82462268344179    0.031988671760387    82.6546495805201     
42.8519633961971     0.032342168300365    82.6793143459181     0.996395384673584    -1.84493237761494    0.996395384673584    -1.84493237761494    0.032342168300365    82.6793143459181     
43.3296118098149     0.032699604242633    82.7033500140542     0.996374995732186    -1.86546777027009    0.996374995732186    -1.86546777027009    0.032699604242633    82.7033500140542     
43.8125843203689     0.033061022911041    82.7267578998672     0.996354299365952    -1.8862313587325     0.996354299365952    -1.8862313587325     0.033061022911041    82.7267578998672     
44.3009402727819     0.033426468099309    82.7495392558088     0.99633328953615     -1.9072256676207     0.99633328953615     -1.9072256676207     0.033426468099309    82.7495392558088     
44.7947396734634     0.033795984075811    82.7716952718149     0.996311960074251    -1.92845324913334    0.996311960074251    -1.92845324913334    0.033795984075811    82.7716952718149     
45.294043197683      0.03416961558838     82.7932270752744     0.996290304679135    -1.9499166833394     0.996290304679135    -1.9499166833394     0.03416961558838     82.7932270752744     
45.7989121970257     0.03454740786917     82.8141357309952     0.996268316914208    -1.97161857847064    0.996268316914208    -1.97161857847064    0.03454740786917     82.8141357309952     
46.3094087069305     0.03492940663954     82.8344222411692     0.996245990204374    -1.99356157121673    0.996245990204374    -1.99356157121673    0.03492940663954     82.8344222411692     
46.825595454313      0.035315658114989    82.8540875453325     0.996223317833046    -2.01574832702338    0.996223317833046    -2.01574832702338    0.035315658114989    82.8540875453325     
47.3475358652732     0.035706209010117    82.8731325203251     0.99620029293905     -2.03818154039274    0.99620029293905     -2.03818154039274    0.035706209010117    82.8731325203251     
47.8752940728881     0.036101106543636    82.8915579802461     0.996176908513443    -2.06086393518686    0.996176908513443    -2.06086393518686    0.036101106543636    82.8915579802461     
48.4089349250929     0.036500398443413    82.9093646764074     0.996153157396304    -2.08379826493375    0.996153157396304    -2.08379826493375    0.036500398443413    82.9093646764074     
48.9485239926488     0.036904132951548    82.9265532972839     0.9961290322734      -2.10698731313599    0.9961290322734      -2.10698731313599    0.036904132951548    82.9265532972839     
49.4941275772        0.037312358829494    82.9431244684603     0.996104525672829    -2.13043389358237    0.996104525672829    -2.13043389358237    0.037312358829494    82.9431244684603     
50.0458127194201     0.037725125363216    82.9590787525759     0.996079629961598    -2.15414085066209    0.996079629961598    -2.15414085066209    0.037725125363216    82.9590787525759     
50.6036472072504     0.038142482368377    82.974416649265      0.996054337342033    -2.17811105968167    0.996054337342033    -2.17811105968167    0.038142482368377    82.974416649265      
51.1676995842288     0.038564480195576    82.9891385950951     0.996028639848273    -2.20234742718485    0.996028639848273    -2.20234742718485    0.038564480195576    82.9891385950951     
51.738039157912      0.038991169735612    83.0032449635015     0.996002529342518    -2.22685289127487    0.996002529342518    -2.22685289127487    0.038991169735612    83.0032449635015     
52.314736008392      0.039422602424781    83.0167360647184     0.995975997511297    -2.25163042193988    0.995975997511297    -2.25163042193988    0.039422602424781    83.0167360647184     
52.8978609969066     0.039858830250222    83.0296121457067     0.995949035861661    -2.27668302138088    0.995949035861661    -2.27668302138088    0.039858830250222    83.0296121457067     
53.4874857745472     0.04029990575529     83.0418733900784     0.995921635717219    -2.30201372434255    0.995921635717219    -2.30201372434255    0.04029990575529     83.0418733900784     
54.083682791062      0.040745882044959    83.0535199180176     0.995893788214173    -2.32762559844676    0.995893788214173    -2.32762559844676    0.040745882044959    83.0535199180176     
54.6865253037588     0.041196812791276    83.064551786198      0.995865484297193    -2.35352174452891    0.995865484297193    -2.35352174452891    0.041196812791276    83.064551786198      
55.2960873865063     0.041652752238831    83.0749689876962     0.995836714715302    -2.37970529697708    0.995836714715302    -2.37970529697708    0.041652752238831    83.0749689876962     
55.9124439388359     0.042113755210273    83.0847714519022     0.99580747001751     -2.40617942407378    0.99580747001751     -2.40617942407378    0.042113755210273    83.0847714519022     
56.5356706951447     0.042579877111855    83.0939590444259     0.995777740548562    -2.43294732834067    0.995777740548562    -2.43294732834067    0.042579877111855    83.0939590444259     
57.1658442340016     0.043051173939011    83.1025315669996     0.995747516444409    -2.46001224688592    0.995747516444409    -2.46001224688592    0.043051173939011    83.1025315669996     
57.8030419875569     0.043527702281969    83.1104887573773     0.995716787627706    -2.48737745175435    0.995716787627706    -2.48737745175435    0.043527702281969    83.1104887573773     
58.4473422510563     0.044009519331391    83.1178302892295     0.995685543803145    -2.51504625028038    0.995685543803145    -2.51504625028038    0.044009519331391    83.1178302892295     
59.0988241924618     0.044496682884044    83.1245557720351     0.995653774452707    -2.54302198544359    0.995653774452707    -2.54302198544359    0.044496682884044    83.1245557720351     
59.7575678621791     0.044989251348507    83.1306647509688     0.995621468830855    -2.57130803622727    0.995621468830855    -2.57130803622727    0.044989251348507    83.1306647509688     
60.423654202894      0.045487283750899    83.1361567067849     0.995588615959525    -2.5999078179793     0.995588615959525    -2.5999078179793     0.045487283750899    83.1361567067849     
61.0971650595182     0.045990839740644    83.1410310556969     0.995555204623134    -2.62882478277624    0.995555204623134    -2.62882478277624    0.045990839740644    83.1410310556969     
61.7781831892454     0.046499979596255    83.145287149254      0.995521223363367    -2.65806241978968    0.995521223363367    -2.65806241978968    0.046499979596255    83.145287149254      
62.4667922717209     0.047014764231156    83.1489242742127     0.995486660473933    -2.68762425565556    0.995486660473933    -2.68762425565556    0.047014764231156    83.1489242742127     
63.163076919323      0.047535255199516    83.1519416524055     0.995451503995184    -2.71751385484606    0.995451503995184    -2.71751385484606    0.047535255199516    83.1519416524055     
63.8671226875597     0.048061514702121    83.1543384406046     0.995415741708601    -2.74773482004417    0.995415741708601    -2.74773482004417    0.048061514702121    83.1543384406046     
64.579016085582      0.048593605592263    83.1561137303826     0.995379361131187    -2.77829079252086    0.995379361131187    -2.77829079252086    0.048593605592263    83.1561137303826     
65.2988445868125     0.049131591381654    83.157266547969      0.995342349509755    -2.80918545251502    0.995342349509755    -2.80918545251502    0.049131591381654    83.157266547969      
66.0266966396948     0.049675536246358    83.1577958541022     0.995304693815009    -2.84042251961565    0.995304693815009    -2.84042251961565    0.049675536246358    83.1577958541022     
66.762661678561      0.050225505032752    83.1577005438788     0.995266380735646    -2.8720057531471     0.995266380735646    -2.8720057531471     0.050225505032752    83.1577005438788     
67.5068301346203     0.050781563263496    83.1569794465976     0.995227396672216    -2.90393895255655    0.995227396672216    -2.90393895255655    0.050781563263496    83.1569794465976     
68.2592934470721     0.051343777143529    83.1556313256009     0.995187727730847    -2.93622595780386    0.995187727730847    -2.93622595780386    0.051343777143529    83.1556313256009     
69.0201440743401     0.051912213566078    83.1536548781109     0.995147359716971    -2.96887064975445    0.995147359716971    -2.96887064975445    0.051912213566078    83.1536548781109     
69.7894755054339     0.052486940118681    83.1510487350634     0.995106278128729    -3.00187695057396    0.995106278128729    -3.00187695057396    0.052486940118681    83.1510487350634     
70.5673822714362     0.053068025089228    83.1478114609359     0.99506446815043     -3.03524882412596    0.99506446815043     -3.03524882412596    0.053068025089228    83.1478114609359     
71.3539599571181     0.053655537472011    83.1439415535742     0.995021914645693    -3.06899027637153    0.995021914645693    -3.06899027637153    0.053655537472011    83.1439415535742     
72.1493052126843     0.054249546973781    83.1394374440131     0.994978602150578    -3.10310535577153    0.994978602150578    -3.10310535577153    0.054249546973781    83.1394374440131     
72.9535157656486     0.054850124019822    83.1342974962945     0.994934514866523    -3.13759815369091    0.994934514866523    -3.13759815369091    0.054850124019822    83.1342974962945     
73.7666904328423     0.055457339760027    83.1285200072813     0.994889636653137    -3.17247280480558    0.994889636653137    -3.17247280480558    0.055457339760027    83.1285200072813     
74.5889291325562     0.056071266074975    83.1221032064682     0.99484395102081     -3.20773348751107    0.99484395102081     -3.20773348751107    0.056071266074975    83.1221032064682     
75.4203328968181     0.05669197558202     83.1150452557879     0.994797441123251    -3.24338442433376    0.994797441123251    -3.24338442433376    0.05669197558202     83.1150452557879     
76.2610038838068     0.057319541641374    83.1073442494145     0.994750089749807    -3.27942988234402    0.994750089749807    -3.27942988234402    0.057319541641374    83.1073442494145     
77.1110453904051     0.057954038362192    83.0989982135631     0.994701879317597    -3.31587417357127    0.994701879317597    -3.31587417357127    0.057954038362192    83.0989982135631     
77.9705618648918     0.05859554060865     83.0900051062858     0.994652791863588    -3.35272165542125    0.994652791863588    -3.35272165542125    0.05859554060865     83.0900051062858     
78.8396589197762     0.059244124006022    83.0803628172641     0.994602809036413    -3.38997673109515    0.994602809036413    -3.38997673109515    0.059244124006022    83.0803628172641     
79.7184433447749     0.059899864946745    83.0700691675988     0.994551912088014    -3.42764385001035    0.994551912088014    -3.42764385001035    0.059899864946745    83.0700691675988     
80.6070231199338     0.060562840596478    83.0591219095951     0.994500081865239    -3.46572750822352    0.994500081865239    -3.46572750822352    0.060562840596478    83.0591219095951     
81.5055074288954     0.061233128900138    83.0475187265461     0.994447298801087    -3.50423224885465    0.994447298801087    -3.50423224885465    0.061233128900138    83.0475187265461     
82.4140066723158     0.061910808587934    83.0352572325115     0.994393542905928    -3.5431626625134     0.994393542905928    -3.5431626625134     0.061910808587934    83.0352572325115     
83.3326324814287     0.062595959181366    83.0223349720948     0.994338793758432    -3.58252338772652    0.994338793758432    -3.58252338772652    0.062595959181366    83.0223349720948     
84.2614977317636     0.063288660999214    83.0087494202162     0.994283030496384    -3.62231911136707    0.994283030496384    -3.62231911136707    0.063288660999214    83.0087494202162     
85.2007165570136     0.063988995163502    82.9944979818832     0.994226231807315    -3.66255456908486    0.994226231807315    -3.66255456908486    0.063988995163502    82.9944979818832     
86.1504043630607     0.064697043605422    82.9795779919585     0.994168375918846    -3.70323454573801    0.994168375918846    -3.70323454573801    0.064697043605422    82.9795779919585     
87.1106778421564     0.065412889071238    82.9639867149246     0.994109440588977    -3.74436387582609    0.994109440588977    -3.74436387582609    0.065412889071238    82.9639867149246     
88.0816549872587     0.066136615128152    82.9477213446463     0.994049403096069    -3.78594744392389    0.994049403096069    -3.78594744392389    0.066136615128152    82.9477213446463     
89.0634551065323     0.066868306170128    82.9307790041306     0.993988240228672    -3.82799018511648    0.993988240228672    -3.82799018511648    0.066868306170128    82.9307790041306     
90.0561988380067     0.067608047423676    82.9131567452838     0.993925928275137    -3.87049708543497    0.993925928275137    -3.87049708543497    0.067608047423676    82.9131567452838     
91.0600081644012     0.068355924953594    82.894851548667      0.993862443013038    -3.91347318229311    0.993862443013038    -3.91347318229311    0.068355924953594    82.894851548667      
92.0750064281121     0.069112025668646    82.8758603232485     0.993797759698343    -3.9569235649243     0.993797759698343    -3.9569235649243     0.069112025668646    82.8758603232485     
93.1013183463691     0.069876437327204    82.8561799061555     0.993731853054405    -4.00085337481928    0.993731853054405    -4.00085337481928    0.069876437327204    82.8561799061555     
94.1390700265596     0.070649248542815    82.8358070624222     0.993664697260734    -4.04526780616417    0.993664697260734    -4.04526780616417    0.070649248542815    82.8358070624222     
95.1883889817238     0.071430548789715    82.8147384847378     0.993596265941506    -4.09017210627856    0.993596265941506    -4.09017210627856    0.071430548789715    82.8147384847378     
96.2494041462235     0.072220428408269    82.7929707931921     0.993526532153887    -4.13557157605372    0.993526532153887    -4.13557157605372    0.072220428408269    82.7929707931921     
97.3222458915839     0.073018978610342    82.7705005350195     0.993455468376114    -4.18147157039083    0.993455468376114    -4.18147157039083    0.073018978610342    82.7705005350195     
98.4070460425136     0.073826291484588    82.747324184342      0.993383046495313    -4.22787749863878    0.993383046495313    -4.22787749863878    0.073826291484588    82.747324184342      
99.5039378931023     0.074642460001661    82.7234381419111     0.993309237795146    -4.27479482503173    0.993309237795146    -4.27479482503173    0.074642460001661    82.7234381419111     
100.613056223199     0.07546757801933     82.6988387348491     0.993234012943133    -4.32222906912581    0.993234012943133    -4.32222906912581    0.07546757801933     82.6988387348491     
101.734537314973     0.076301740287511    82.6735222163886     0.993157341977807    -4.37018580623549    0.993157341977807    -4.37018580623549    0.076301740287511    82.6735222163886     
102.868518969661     0.077145042453187    82.6474847656128     0.993079194295546    -4.41867066786839    0.993079194295546    -4.41867066786839    0.077145042453187    82.6474847656128     
104.015140524496     0.077997581065229    82.6207224871941     0.992999538637173    -4.4676893421595     0.992999538637173    -4.4676893421595     0.077997581065229    82.6207224871941     
105.17454286983      0.078859453579105    82.5932314111342     0.992918343074373    -4.51724757430365    0.992918343074373    -4.51724757430365    0.078859453579105    82.5932314111342     
106.346868466449     0.079730758361469    82.5650074925019     0.992835574995731    -4.56735116698681    0.992835574995731    -4.56735116698681    0.079730758361469    82.5650074925019     
107.532261363073     0.080611594694624    82.5360466111741     0.992751201092547    -4.61800598081495    0.992751201092547    -4.61800598081495    0.080611594694624    82.5360466111741     
108.730867214056     0.081502062780854    82.5063445715748     0.992665187344446    -4.66921793474165    0.992665187344446    -4.66921793474165    0.081502062780854    82.5063445715748     
109.942833297288     0.082402263746617    82.4758971024163     0.992577499004611    -4.72099300649293    0.992577499004611    -4.72099300649293    0.082402263746617    82.4758971024163     
111.168308532286     0.083312299646592    82.444699856441      0.992488100584786    -4.77333723298961    0.992488100584786    -4.77333723298961    0.083312299646592    82.444699856441      
112.407443498497     0.084232273467572    82.4127484101642     0.992396955840043    -4.82625671076746    0.992396955840043    -4.82625671076746    0.084232273467572    82.4127484101642     
113.660390453796     0.085162289132193    82.3800382636193     0.992304027753146    -4.87975759639346    0.992304027753146    -4.87975759639346    0.085162289132193    82.3800382636193     
114.9273033532       0.086102451502496    82.3465648401038     0.992209278518746    -4.93384610687951    0.992209278518746    -4.93384610687951    0.086102451502496    82.3465648401038     
116.20833786778      0.087052866383311    82.3123234859276     0.992112669527232    -4.98852852009233    0.992112669527232    -4.98852852009233    0.087052866383311    82.3123234859276     
117.50365140379      0.088013640525448    82.2773094701653     0.992014161348231    -5.04381117515925    0.992014161348231    -5.04381117515925    0.088013640525448    82.2773094701653     
118.813403122011     0.088984881628698    82.2415179844089     0.991913713713918    -5.09970047287002    0.991913713713918    -5.09970047287002    0.088984881628698    82.2415179844089     
120.137753957305     0.08996669834463     82.2049441425245     0.991811285501885    -5.15620287607436    0.991811285501885    -5.15620287607436    0.08996669834463     82.2049441425245     
121.476866638391     0.090959200279168    82.1675829804134     0.991706834717862    -5.21332491007425    0.991706834717862    -5.21332491007425    0.090959200279168    82.1675829804134     
122.830905707841     0.091962497994949    82.1294294557753     0.991600318477954    -5.27107316301146    0.991600318477954    -5.27107316301146    0.091962497994949    82.1294294557753     
124.200037542295     0.092976703013437    82.0904784478769     0.991491692990693    -5.32945428624919    0.991491692990693    -5.32945428624919    0.092976703013437    82.0904784478769     
125.584430372907     0.094001927816804    82.0507247573241     0.991380913538664    -5.38847499474803    0.991380913538664    -5.38847499474803    0.094001927816804    82.0507247573241     
126.984254306016     0.095038285849547    82.0101631058396     0.991267934459919    -5.44814206743579    0.991267934459919    -5.44814206743579    0.095038285849547    82.0101631058396     
128.399681344047     0.096085891519844    81.9687881360455     0.991152709128952    -5.50846234757059    0.991152709128952    -5.50846234757059    0.096085891519844    81.9687881360455     
129.830885406647     0.09714486020062     81.9265944112516     0.991035189937399    -5.56944274309668    0.991035189937399    -5.56944274309668    0.09714486020062     81.9265944112516     
131.278042352052     0.098215308230334    81.8835764152501     0.990915328274402    -5.63109022699301    0.990915328274402    -5.63109022699301    0.098215308230334    81.8835764152501     
132.741329998701     0.099297352913463    81.8397285521163     0.9907930745066      -5.69341183761413    0.9907930745066      -5.69341183761413    0.099297352913463    81.8397285521163     
134.220928147079     0.100391112520661    81.7950451460165     0.990668377957831    -5.75641467902218    0.990668377957831    -5.75641467902218    0.100391112520661    81.7950451460165     
135.717018601815     0.101496706288596    81.7495204410237     0.990541186888415    -5.82010592131045    0.990541186888415    -5.82010592131045    0.101496706288596    81.7495204410237     
137.229785194019     0.102614254419451    81.7031486009408     0.99041144847415     -5.88449280091798    0.99041144847415     -5.88449280091798    0.102614254419451    81.7031486009408     
138.759413803868     0.10374387808006     81.6559237091325     0.990279108784947    -5.94958262093338    0.990279108784947    -5.94958262093338    0.10374387808006     81.6559237091325     
140.30609238345      0.104885699400671    81.6078397683659     0.990144112763041    -6.01538275138929    0.990144112763041    -6.01538275138929    0.104885699400671    81.6078397683659     
141.870010979857     0.10603984147335     81.5588907006609     0.990006404200961    -6.08190062954615    0.990006404200961    -6.08190062954615    0.10603984147335     81.5588907006609     
143.451361758535     0.107206428349945    81.5090703471504     0.989865925719006    -6.14914376016341    0.989865925719006    -6.14914376016341    0.107206428349945    81.5090703471504     
145.050339026898     0.108385585039677    81.4583724679515     0.98972261874249     -6.21711971576021    0.98972261874249     -6.21711971576021    0.108385585039677    81.4583724679515     
146.667139258205     0.109577437506272    81.4067907420471     0.989576423478512    -6.28583613686286    0.989576423478512    -6.28583613686286    0.109577437506272    81.4067907420471     
148.301961115697     0.110782112664654    81.3543187671805     0.989427278892394    -6.35530073223908    0.989427278892394    -6.35530073223908    0.110782112664654    81.3543187671805     
149.955005477011     0.11199973837718     81.3009500597611     0.989275122683784    -6.42552127911916    0.989275122683784    -6.42552127911916    0.11199973837718     81.3009500597611     
151.626475458862     0.113230443449389    81.2466780547843     0.989119891262361    -6.49650562340254    0.989119891262361    -6.49650562340254    0.113230443449389    81.2466780547843     
153.316576442001     0.114474357625249    81.1914961057641     0.988961519723122    -6.56826167984881    0.988961519723122    -6.56826167984881    0.114474357625249    81.1914961057641     
155.025516096452     0.115731611581894    81.1353974846814     0.988799941821372    -6.64079743225401    0.988799941821372    -6.64079743225401    0.115731611581894    81.1353974846814     
156.753504407025     0.11700233692382     81.0783753819461     0.988635089947287    -6.71412093360999    0.988635089947287    -6.71412093360999    0.11700233692382     81.0783753819461     
158.500753699124     0.118286666176522    81.0204229063758     0.988466895100093    -6.7882403062465     0.988466895100093    -6.7882403062465     0.118286666176522    81.0204229063758     
160.26747866483      0.119584732779569    80.961533085191      0.988295286861939    -6.86316374195623    0.988295286861939    -6.86316374195623    0.119584732779569    80.961533085191      
162.053896389288     0.120896671079075    80.9016988640273     0.988120193371292    -6.93889950210083    0.988120193371292    -6.93889950210083    0.120896671079075    80.9016988640273     
163.860226377374     0.122222616319539    80.8409131069664     0.987941541296008    -7.01545591769695    0.987941541296008    -7.01545591769695    0.122222616319539    80.8409131069664     
165.686690580672     0.123562704635085    80.7791685965852     0.987759255806058    -7.09284138948369    0.987759255806058    -7.09284138948369    0.123562704635085    80.7791685965852     
167.533513424744     0.12491707304        80.7164580340256     0.987573260545784    -7.17106438796709    0.987573260545784    -7.17106438796709    0.12491707304        80.7164580340256     
169.400921836705     0.126285859418626    80.652774039084      0.987383477605908    -7.250133453445      0.987383477605908    -7.250133453445      0.126285859418626    80.652774039084      
171.289145273111     0.127669202514511    80.5881091503233     0.987189827495013    -7.33005719600704    0.987189827495013    -7.33005719600704    0.127669202514511    80.5881091503233     
173.198415748146     0.129067241918866    80.5224558252067     0.98699222911079     -7.41084429551224    0.98699222911079     -7.41084429551224    0.129067241918866    80.5224558252067     
175.128967862137     0.130480118058244    80.455806440255      0.986790599710841    -7.49250350154212    0.986790599710841    -7.49250350154212    0.130480118058244    80.455806440255      
177.081038830379     0.13190797218145     80.3881532912286     0.986584854883141    -7.57504363332774    0.986584854883141    -7.57504363332774    0.13190797218145     80.3881532912286     
179.054868512279     0.133350946345652    80.3194885933338     0.986374908516135    -7.65847357965083    0.986374908516135    -7.65847357965083    0.133350946345652    80.3194885933338     
181.050699440833     0.134809183401643    80.2498044814573     0.986160672768438    -7.74280229871633    0.986160672768438    -7.74280229871633    0.134809183401643    80.2498044814573     
183.068776852427     0.136282826978281    80.1790930104263     0.985942058038239    -7.82803881799827    0.985942058038239    -7.82803881799827    0.136282826978281    80.1790930104263     
185.109348716965     0.137772021466004    80.1073461552972     0.985718972932351    -7.9141922340545     0.985718972932351    -7.9141922340545     0.137772021466004    80.1073461552972     
187.172665768345     0.13927691199947     80.0345558116757     0.985491324234835    -8.00127171231104    0.985491324234835    -8.00127171231104    0.13927691199947     80.0345558116757     
189.258981535262     0.140797644439235    79.9607137960648     0.985259016875401    -8.08928648681564    0.985259016875401    -8.08928648681564    0.140797644439235    79.9607137960648     
191.368552372365     0.142334365352465    79.8858118462475     0.985021953897386    -8.17824585995657    0.985021953897386    -8.17824585995657    0.142334365352465    79.8858118462475     
193.501637491753     0.143887221992659    79.8098416216998     0.984780036425454    -8.26815920214944    0.984780036425454    -8.26815920214944    0.143887221992659    79.8098416216998     
195.658498994827     0.145456362278332    79.7327947040396     0.984533163632986    -8.35903595148691    0.984533163632986    -8.35903595148691    0.145456362278332    79.7327947040396     
197.839401904493     0.147041934770644    79.6546625975111     0.984281232709098    -8.45088561335309    0.984281232709098    -8.45088561335309    0.147041934770644    79.6546625975111     
200.044614197733     0.148644088649938    79.5754367295049     0.984024138825488    -8.5437177599994     0.984024138825488    -8.5437177599994     0.148644088649938    79.5754367295049     
202.274406838525     0.150262973691142    79.4951084511169     0.983761775102845    -8.63754203008148    0.983761775102845    -8.63754203008148    0.150262973691142    79.4951084511169     
204.529053811141     0.151898740238036    79.4136690377465     0.98349403257708     -8.73236812815585    0.98349403257708     -8.73236812815585    0.151898740238036    79.4136690377465     
206.808832153813     0.153551539176307    79.331109689735      0.983220800165317    -8.82820582413478    0.983220800165317    -8.82820582413478    0.153551539176307    79.331109689735      
209.114021992773     0.155221521905393    79.2474215330473     0.982941964631503    -8.92506495269773    0.982941964631503    -8.92506495269773    0.155221521905393    79.2474215330473     
211.444906576674     0.156908840309065    79.1625956199956     0.982657410551947    -9.02295541265838    0.982657410551947    -9.02295541265838    0.156908840309065    79.1625956199956     
213.801772311392     0.158613646724711    79.0766229300092     0.982367020280517    -9.12188716628542    0.982367020280517    -9.12188716628542    0.158613646724711    79.0766229300092     
216.184908795222     0.160336093911296    78.9894943704506     0.982070673913676    -9.22187023857626    0.982070673913676    -9.22187023857626    0.160336093911296    78.9894943704506     
218.594608854456     0.162076335015946    78.9012007774796     0.981768249255347    -9.32291471648065    0.981768249255347    -9.32291471648065    0.162076335015946    78.9012007774796     
221.031168579372     0.163834523539147    78.8117329169667     0.981459621781596    -9.42503074807538    0.981459621781596    -9.42503074807538    0.163834523539147    78.8117329169667     
223.494887360607     0.165610813298475    78.721081485458      0.981144664605121    -9.52822854168488    0.981144664605121    -9.52822854168488    0.165610813298475    78.721081485458      
225.986067925951     0.167405358390887    78.6292371111925     0.980823248439732    -9.63251836494979    0.980823248439732    -9.63251836494979    0.167405358390887    78.6292371111925     
228.505016377544     0.169218313153441    78.5361903551747     0.980495241564558    -9.73791054383822    0.980495241564558    -9.73791054383822    0.169218313153441    78.5361903551747     
231.052042229482     0.171049832122514    78.4419317123023     0.980160509788334    -9.84441546160146    0.980160509788334    -9.84441546160146    0.171049832122514    78.4419317123023     
233.627458445856     0.172900069991386    78.3464516125524     0.979818916413496    -9.95204355767052    0.979818916413496    -9.95204355767052    0.172900069991386    78.3464516125524     
236.231581479204     0.174769181566213    78.2497404222265     0.979470322200373    -10.0608053264914    0.979470322200373    -10.0608053264914    0.174769181566213    78.2497404222265     
238.864731309393     0.176657321720299    78.1517884452588     0.979114585331236    -10.1707113162984    0.979114585331236    -10.1707113162984    0.176657321720299    78.1517884452588     
241.527231482939     0.178564645346678    78.0525859245843     0.978751561374485    -10.2817721278236    0.978751561374485    -10.2817721278236    0.178564645346678    78.0525859245843     
244.219409152762     0.180491307308917    77.9521230435755     0.978381103248839    -10.39399841294      0.978381103248839    -10.39399841294      0.180491307308917    77.9521230435755     
246.941595118384     0.182437462390135    77.8503899275435     0.978003061187618    -10.507400873237     0.978003061187618    -10.507400873237     0.182437462390135    77.8503899275435     
249.694123866576     0.184403265240163    77.7473766453096     0.977617282703137    -10.6219902585254    0.977617282703137    -10.6219902585254    0.184403265240163    77.7473766453096     
252.47733361246      0.186388870320846    77.6430732108454     0.97722361255129     -10.7377773652723    0.97722361255129     -10.7377773652723    0.186388870320846    77.6430732108454     
255.291566341062     0.188394431849401    77.5374695849879     0.976821892696308    -10.8547730349608    0.976821892696308    -10.8547730349608    0.188394431849401    77.5374695849879     
258.137167849337     0.190420103739807    77.4305556772279     0.976411962275715    -10.9729881523746    0.976411962275715    -10.9729881523746    0.190420103739807    77.4305556772279     
261.01448778866      0.192466039542208    77.3223213475751     0.975993657565625    -11.0924336438057    0.975993657565625    -11.0924336438057    0.192466039542208    77.3223213475751     
263.923879707784     0.194532392380242    77.2127564085023     0.975566811946325    -11.2131204751818    0.975566811946325    -11.2131204751818    0.194532392380242    77.2127564085023     
266.865701096287     0.196619314886281    77.1018506269699     0.975131255868188    -11.3350596501118    0.975131255868188    -11.3350596501118    0.196619314886281    77.1018506269699     
269.840313428494     0.198726959134549    76.9895937265332     0.974686816818048    -11.4582622078486    0.974686816818048    -11.4582622078486    0.198726959134549    76.9895937265332     
272.848082207898     0.200855476572041    76.875975389535      0.974233319285984    -11.5827392211645    0.974233319285984    -11.5827392211645    0.200855476572041    76.875975389535      
275.889377012066     0.203005017947242    76.7609852593848     0.973770584732653    -11.7085017941403    0.973770584732653    -11.7085017941403    0.203005017947242    76.7609852593848     
278.964571538053     0.205175733236581    76.6446129429271     0.97329843155717     -11.8355610598635    0.97329843155717     -11.8355610598635    0.205175733236581    76.6446129429271     
282.074043648321     0.20736777156857     76.5268480129009     0.972816675065586    -11.9639281780342    0.972816675065586    -11.9639281780342    0.20736777156857     76.5268480129009     
285.218175417166     0.209581281145618    76.4076800104931     0.972325127440058    -12.0936143324769    0.972325127440058    -12.0936143324769    0.209581281145618    76.4076800104931     
288.397353177666     0.211816409163457    76.2870984479867     0.971823597708758    -12.2246307285559    0.971823597708758    -12.2246307285559    0.211816409163457    76.2870984479867     
291.611967569153     0.214073301728148    76.1650928115076     0.971311891716581    -12.3569885904913    0.971311891716581    -12.3569885904913    0.214073301728148    76.1650928115076     
294.862413585209     0.216352103770614    76.041652563871      0.970789812096676    -12.4906991585749    0.970789812096676    -12.4906991585749    0.216352103770614    76.041652563871      
298.149090622205     0.218652958958709    75.916767147529      0.970257158242972    -12.6257736862832    0.970257158242972    -12.6257736862832    0.218652958958709    75.916767147529      
301.472402528373     0.220976009606718    75.7904259876242     0.969713726283659    -12.762223437284     0.969713726283659    -12.762223437284     0.220976009606718    75.7904259876242     
304.832757653431     0.223321396582298    75.6626184951492     0.969159309055704    -12.9000596823358    0.969159309055704    -12.9000596823358    0.223321396582298    75.6626184951492     
308.230568898756     0.225689259210835    75.5333340702136     0.968593696080628    -13.0392936960793    0.968593696080628    -13.0392936960793    0.225689259210835    75.5333340702136     
311.666253768124     0.228079735177146    75.4025621054229     0.968016673541396    -13.1799367537147    0.968016673541396    -13.1799367537147    0.228079735177146    75.4025621054229     
315.140234419002     0.230492960424512    75.2702919893712     0.967428024260652    -13.3220001275664    0.967428024260652    -13.3220001275664    0.230492960424512    75.2702919893712     
318.652937714429     0.232929069051032    75.1365131102471     0.966827527680348    -13.4654950835318    0.966827527680348    -13.4654950835318    0.232929069051032    75.1365131102471     
322.204795275463     0.235388193203226    75.0012148595582     0.966214959842843    -13.6104328774104    0.966214959842843    -13.6104328774104    0.235388193203226    75.0012148595582     
325.796243534214     0.237870462966918    74.8643866359749     0.965590093373532    -13.7568247511146    0.965590093373532    -13.7568247511146    0.237870462966918    74.8643866359749     
329.427723787475     0.240376006255327    74.7260178492943     0.964952697465202    -13.9046819287568    0.964952697465202    -13.9046819287568    0.240376006255327    74.7260178492943     
333.099682250941     0.242904948694354    74.5860979245298     0.964302537864018    -14.0540156126119    0.964302537864018    -14.0540156126119    0.242904948694354    74.5860979245298     
336.81257011404      0.245457413505085    74.4446163061238     0.963639376857495    -14.2048369789551    0.963639376857495    -14.2048369789551    0.245457413505085    74.4446163061238     
340.566843595375     0.248033521383425    74.3015624622892     0.96296297326425     -14.3571571737691    0.96296297326425     -14.3571571737691    0.248033521383425    74.3015624622892     
344.362963998777     0.250633390376923    74.1569258894795     0.962273082425953    -14.5109873083226    0.962273082425953    -14.5109873083226    0.250633390376923    74.1569258894795     
348.20139776999      0.253257135758722    74.0106961169902     0.96156945620133     -14.6663384546167    0.96156945620133     -14.6663384546167    0.253257135758722    74.0106961169902     
352.082616553983     0.255904869898639    73.8628627116935     0.960851842962412    -14.823221640696     0.960851842962412    -14.823221640696     0.255904869898639    73.8628627116935     
356.007097252907     0.258576702131416    73.7134152829063     0.960119987593258    -14.9816478458266    0.960119987593258    -14.9816478458266    0.258576702131416    73.7134152829063     
359.975322084692     0.261272738622062    73.5623434873955     0.959373631491018    -15.1416279955343    0.959373631491018    -15.1416279955343    0.261272738622062    73.5623434873955     
363.987778642296     0.263993082228358    73.4096370345208     0.958612512569697    -15.3031729565059    0.958612512569697    -15.3031729565059    0.263993082228358    73.4096370345208     
368.044959953623     0.266737832360517    73.255285691516      0.95783636526659     -15.4662935313502    0.95783636526659     -15.4662935313502    0.266737832360517    73.255285691516      
372.147364542101     0.269507084837956    73.0992792889116     0.957044920551532    -15.6310004532155    0.957044920551532    -15.6310004532155    0.269507084837956    73.0992792889116     
376.295496487937     0.272300931743307    72.9416077260993     0.956237905939145    -15.797304380267     0.956237905939145    -15.797304380267     0.272300931743307    72.9416077260993     
380.489865490056     0.275119461273577    72.782260977038      0.955415045504137    -15.9652158900185    0.955415045504137    -15.9652158900185    0.275119461273577    72.782260977038      
384.730986928732     0.277962757588552    72.6212290961051     0.954576059899844    -16.1347454735203    0.954576059899844    -16.1347454735203    0.277962757588552    72.6212290961051     
389.019381928911     0.280830900656436    72.4585022240928     0.953720666380032    -16.3059035293988    0.953720666380032    -16.3059035293988    0.280830900656436    72.4585022240928     
393.355577424247     0.283723966096819    72.2940705943482     0.952848578824296    -16.4787003577532    0.952848578824296    -16.4787003577532    0.283723966096819    72.2940705943482     
397.740106221848     0.286642025020948    72.1279245390613     0.951959507766947    -16.653146153902     0.951959507766947    -16.653146153902     0.286642025020948    72.1279245390613     
402.173507067744     0.289585143869393    71.9600544956986     0.951053160429697    -16.8292510019826    0.951053160429697    -16.8292510019826    0.289585143869393    71.9600544956986     
406.656324713086     0.292553384247158    71.7904510135838     0.950129240758198    -17.0070248684039    0.950129240758198    -17.0070248684039    0.292553384247158    71.7904510135838     
411.189109981078     0.295546802756294    71.6191047606258     0.949187449462619    -17.1864775951493    0.949187449462619    -17.1864775951493    0.295546802756294    71.6191047606258     
415.772419834665     0.298565450826085    71.4460065301925     0.948227484062365    -17.3676188929329    0.948227484062365    -17.3676188929329    0.298565450826085    71.4460065301925     
420.406817444966     0.301609374540877    71.2711472481326     0.947249038935059    -17.5504583342074    0.947249038935059    -17.5504583342074    0.301609374540877    71.2711472481326     
425.092872260473     0.304678614465647    71.0945179799419     0.946251805370011    -17.7350053460246    0.946251805370011    -17.7350053460246    0.304678614465647    71.0945179799419     
429.831160077022     0.30777320546941     70.916109938076      0.945235471626264    -17.9212692027509    0.945235471626264    -17.9212692027509    0.30777320546941     70.916109938076      
434.622263108546     0.310893176546505    70.7359144894071     0.944199722995279    -18.1092590186342    0.944199722995279    -18.1092590186342    0.310893176546505    70.7359144894071     
439.466770058609     0.314038550635974    70.5539231628236     0.943144241868596    -18.2989837402298    0.943144241868596    -18.2989837402298    0.314038550635974    70.5539231628236     
444.365276192749     0.317209344439044    70.3701276569715     0.942068707810395    -18.4904521386806    0.942068707810395    -18.4904521386806    0.317209344439044    70.3701276569715     
449.318383411614     0.320405568234896    70.1845198481369     0.940972797635287    -18.6836728018578    0.940972797635287    -18.6836728018578    0.320405568234896    70.1845198481369     
454.326700324928     0.323627225694853    69.9970917982645     0.939856185491308    -18.8786541263612    0.939856185491308    -18.8786541263612    0.323627225694853    69.9970917982645     
459.390842326264     0.326874313695099    69.8078357631135     0.938718542948396    -19.0754043093829    0.938718542948396    -19.0754043093829    0.326874313695099    69.8078357631135     
464.511431668668     0.330146822128117    69.616744200546      0.937559539092422    -19.2739313404363    0.937559539092422    -19.2739313404363    0.330146822128117    69.616744200546      
469.689097541114     0.333444733712989    69.4238097789461     0.936378840624853    -19.4742429929533    0.936378840624853    -19.4742429929533    0.333444733712989    69.4238097789461     
474.92447614582      0.336768023804726    69.2290253857653     0.935176111968329    -19.6763468157538    0.935176111968329    -19.6763468157538    0.336768023804726    69.2290253857653     
480.218210776411     0.340116660202828    69.0323841361926     0.933951015378125    -19.8802501243881    0.933951015378125    -19.8802501243881    0.340116660202828    69.0323841361926     
485.570951896975     0.343490602959263    68.8338793819429     0.932703211059733    -20.0859599923613    0.932703211059733    -20.0859599923613    0.343490602959263    68.8338793819429     
490.983357221978     0.346889804186042    68.6335047201621     0.931432357292635    -20.2934832422381    0.931432357292635    -20.2934832422381    0.346889804186042    68.6335047201621     
496.45609179709      0.350314207862656    68.431254002442      0.930138110560407    -20.5028264366364    0.930138110560407    -20.5028264366364    0.350314207862656    68.431254002442      
501.989828080893     0.353763749643528    68.2271213439426     0.928820125687218    -20.713995869113     0.928820125687218    -20.713995869113     0.353763749643528    68.2271213439426     
507.585246027516     0.357238356665802    68.0211011326118     0.92747805598095     -20.9269975549484    0.92747805598095     -20.9269975549484    0.357238356665802    68.0211011326118     
513.243033170177     0.360737947357632    67.8131880385036     0.926111553382863    -21.1418372218335    0.926111553382863    -21.1418372218335    0.360737947357632    67.8131880385036     
518.963884705671     0.364262431247278    67.6033770231825     0.924720268624044    -21.358520300467     0.924720268624044    -21.358520300467     0.364262431247278    67.6033770231825     
524.748503579787     0.367811708773282    67.3916633492094     0.923303851388736    -21.57705191507      0.923303851388736    -21.57705191507      0.367811708773282    67.3916633492094     
530.597600573682     0.371385671095953    67.1780425897043     0.921861950484439    -21.7974368738223    0.921861950484439    -21.7974368738223    0.371385671095953    67.1780425897043     
536.511894391218     0.374984199910513    66.9625106379756     0.920394214019119    -22.0196796592299    0.920394214019119    -22.0196796592299    0.374984199910513    66.9625106379756     
542.492111747273     0.378607167262174    66.7450637172071     0.918900289585374    -22.2437844184332    0.918900289585374    -22.2437844184332    0.378607167262174    66.7450637172071     
548.538987457039     0.382254435363437    66.5256983902005     0.917379824451702    -22.4697549534575    0.917379824451702    -22.4697549534575    0.382254435363437    66.5256983902005     
554.653264526303     0.385925856414003    66.3044115691549     0.91583246576095     -22.6975947114252    0.91583246576095     -22.6975947114252    0.385925856414003    66.3044115691549     
560.835694242754     0.38962127242355     66.0812005254839     0.914257860735868    -22.9273067747273    0.914257860735868    -22.9273067747273    0.38962127242355     66.0812005254839     
567.087036268287     0.393340515037757    65.8560628996546     0.912655656891834    -23.1588938511723    0.912655656891834    -23.1588938511723    0.393340515037757    65.8560628996546     
573.408058732353     0.397083405367981    65.6289967110371     0.911025502256886    -23.3923582641208    0.911025502256886    -23.3923582641208    0.397083405367981    65.6289967110371     
579.799538326342     0.400849753824814    65.400000367762      0.90936704559877     -23.6277019426119    0.90936704559877     -23.6277019426119    0.400849753824814    65.400000367762      
586.262260399013     0.404639359956042    65.1690726765652     0.907679936659283    -23.8649264114988    0.907679936659283    -23.8649264114988    0.404639359956042    65.1690726765652     
592.797019052997     0.408452012289311    64.9362128526126     0.905963826395699    -24.1040327816018    0.905963826395699    -24.1040327816018    0.408452012289311    64.9362128526126     
599.404617242375     0.412287488179869    64.7014205292947     0.904218367229247    -24.3450217398906    0.904218367229247    -24.3450217398906    0.412287488179869    64.7014205292947     
606.085866871333     0.416145553663863    64.4646957679747     0.902443213300667    -24.5878935397092    0.902443213300667    -24.5878935397092    0.416145553663863    64.4646957679747     
612.84158889393      0.420025963317504    64.2260390676793     0.900638020732647    -24.8326479910561    0.900638020732647    -24.8326479910561    0.420025963317504    64.2260390676793     
619.672613414971     0.42392846012259     63.9854513747185     0.898802447899101    -25.079284450934     0.898802447899101    -25.079284450934     0.42392846012259     63.9854513747185     
626.579779792003     0.427852775338765    63.7429340922183     0.896936155701214    -25.3278018137807    0.896936155701214    -25.3278018137807    0.427852775338765    63.7429340922183     
633.563936738453     0.431798628382912    63.4984890895589     0.89503880784997     -25.5781985019969    0.89503880784997     -25.5781985019969    0.431798628382912    63.4984890895589     
640.625942427914     0.435765726716217    63.2521187116909     0.893110071155222    -25.8304724565877    0.893110071155222    -25.8304724565877    0.435765726716217    63.2521187116909     
647.76666459959      0.439753765739181    63.0038257883291     0.891149615820923    -26.0846211279275    0.891149615820923    -26.0846211279275    0.439753765739181    63.0038257883291     
654.986980664919     0.443762428695142    62.7536136429977     0.889157115746464    -26.3406414666687    0.889157115746464    -26.3406414666687    0.443762428695142    62.7536136429977     
662.287777815386     0.447791386582701    62.501486101914      0.887132248833847    -26.5985299148095    0.887132248833847    -26.5985299148095    0.447791386582701    62.501486101914      
669.669953131535     0.451840298077441    62.2474475026976     0.885074697300435    -26.8582823969319    0.885074697300435    -26.8582823969319    0.451840298077441    62.2474475026976     
677.134413693198     0.455908809463502    61.9915027028815     0.882984147997129    -27.1198943116369    0.882984147997129    -27.1198943116369    0.455908809463502    61.9915027028815     
684.682076690951     0.459996554575266    61.7336570882169     0.880860292731498    -27.3833605231793    0.880860292731498    -27.3833605231793    0.459996554575266    61.7336570882169     
692.313869538813     0.464103154749788    61.4739165807438     0.878702828595798    -27.6486753533355    0.878702828595798    -27.6486753533355    0.464103154749788    61.4739165807438     
700.030729988201     0.468228218790235    61.2122876466213     0.87651145829935     -27.9158325735077    0.87651145829935     -27.9158325735077    0.468228218790235    61.2122876466213     
707.83360624316      0.472371342940855    60.9487773036902     0.874285890505053    -28.1848253970909    0.874285890505053    -28.1848253970909    0.472371342940855    60.9487773036902     
715.723457076864     0.476532110873848    60.6833931287559     0.872025840169598    -28.4556464721169    0.872025840169598    -28.4556464721169    0.476532110873848    60.6833931287559     
723.701251949435     0.480710093688582    60.4161432645696     0.869731028887055    -28.7282878741955    0.869731028887055    -28.7282878741955    0.480710093688582    60.4161432645696     
731.767971127056     0.48490484992353     60.1470364264924     0.867401185235327    -29.002741099768     0.867401185235327    -29.002741099768     0.48490484992353     60.1470364264924     
739.924605802426     0.489115925581325    59.876081908822      0.865036045125134    -29.2789970596952    0.865036045125134    -29.2789970596952    0.489115925581325    59.876081908822      
748.17215821655      0.493342854167298    59.6032895907643     0.86263535215096     -29.5570460731943    0.86263535215096     -29.5570460731943    0.493342854167298    59.6032895907643     
756.511641781889     0.497585156741913    59.3286699420298     0.860198857943587    -29.8368778621481    0.860198857943587    -29.8368778621481    0.497585156741913    59.3286699420298     
764.944081206882     0.501842341987365    59.0522340280397     0.857726322523599    -30.1184815457978    0.857726322523599    -30.1184815457978    0.501842341987365    59.0522340280397     
773.470512621858     0.506113906288736    58.77399351472       0.855217514655446    -30.4018456358447    0.855217514655446    -30.4018456358447    0.506113906288736    58.77399351472       
782.091983706348     0.510399333830022    58.4939606728647     0.852672212201417    -30.6869580319764    0.852672212201417    -30.6869580319764    0.510399333830022    58.4939606728647     
790.809553817818     0.514698096705263    58.2121483820547     0.85009020247501     -30.9738060178324    0.85009020247501     -30.9738060178324    0.514698096705263    58.2121483820547     
799.624294121837     0.519009655045106    57.9285701341089     0.847471282593086    -31.2623762574314    0.847471282593086    -31.2623762574314    0.519009655045106    57.9285701341089     
808.537287723699     0.523333457159033    57.6432400360529     0.844815259826234    -31.5526547920764    0.844815259826234    -31.5526547920764    0.523333457159033    57.6432400360529     
817.549629801502     0.527668939693446    57.3561728125874     0.842121951946667    -31.8446270377526    0.842121951946667    -31.8446270377526    0.527668939693446    57.3561728125874     
826.662427740723     0.532015527805862    57.0673838080376     0.839391187573058    -32.1382777830393    0.839391187573058    -32.1382777830393    0.532015527805862    57.0673838080376     
835.876801270286     0.536372635355287    56.7768889877715     0.836622806511644    -32.4335911875464    0.836622806511644    -32.4335911875464    0.536372635355287    56.7768889877715     
845.193882600148     0.540739665109035    56.4847049390645     0.833816660092888    -32.7305507808966    0.833816660092888    -32.7305507808966    0.540739665109035    56.4847049390645     
854.614816560416     0.54511600896596     56.1908488714008     0.830972611503073    -33.0291394622655    0.830972611503073    -33.0291394622655    0.54511600896596     56.1908488714008     
864.140760742019     0.549501048196312    55.895338616191      0.82809053611012     -33.3293395004969    0.82809053611012     -33.3293395004969    0.549501048196312    55.895338616191      
873.772885638949     0.553894153698103    55.5981926258991     0.825170321782869    -33.631132534803     0.825170321782869    -33.631132534803     0.553894153698103    55.5981926258991     
883.51237479208      0.558294686270107    55.2994299725568     0.822211869203182    -33.9344995760664    0.822211869203182    -33.9344995760664    0.558294686270107    55.2994299725568     
893.360424934598     0.562701996901429    54.9990703456582     0.819215092170112    -34.2394210087576    0.819215092170112    -34.2394210087576    0.562701996901429    54.9990703456582     
903.318246139046     0.567115427077531    54.6971340494203     0.816179917895403    -34.545876593475     0.816179917895403    -34.545876593475     0.567115427077531    54.6971340494203     
913.387061966013     0.571534309102616    54.3936419994006     0.813106287289629    -34.8538454701198    0.813106287289629    -34.8538454701198    0.571534309102616    54.3936419994006     
923.56810961448      0.575957966438282    54.0886157184581     0.809994155238205    -35.1633061617201    0.809994155238205    -35.1633061617201    0.575957966438282    54.0886157184581     
933.862640073834     0.58038571405817     53.7820773320511     0.806843490866577    -35.4742365789057    0.806843490866577    -35.4742365789057    0.58038571405817     53.7820773320511     
944.27191827759      0.584816858818421    53.4740495628641     0.80365427779386     -35.7866140250473    0.80365427779386     -35.7866140250473    0.584816858818421    53.4740495628641     
954.79722325881      0.589250699843632    53.1645557247561     0.800426514374184    -36.1004152020608    0.800426514374184    -36.1004152020608    0.589250699843632    53.1645557247561     
965.439848307273     0.593686528928057    52.8536197160226     0.7971602139251      -36.415616216889     0.7971602139251      -36.415616216889     0.593686528928057    52.8536197160226     
976.20110112838      0.598123630951642    52.5412660119685     0.793855404942271    -36.7321925886612    0.793855404942271    -36.7321925886612    0.598123630951642    52.5412660119685     
987.082304003841     0.602561284310461    52.2275196567927     0.790512131299853    -37.0501192565287    0.790512131299853    -37.0501192565287    0.602561284310461    52.2275196567927     
998.084793954148     0.60699876136122     51.9124062547723     0.787130452435814    -37.3693705881889    0.787130452435814    -37.3693705881889    0.60699876136122     51.9124062547723     
1009.20992290286     0.611435328879243    51.5959519607541     0.783710443521621    -37.6899203890897    0.783710443521621    -37.6899203890897    0.611435328879243    51.5959519607541     
1020.45905784272     0.615870248529404    51.2781834699545     0.780252195615615    -38.011741912312     0.780252195615615    -38.011741912312     0.615870248529404    51.2781834699545     
1031.83358100363     0.62030277734956     50.9591280070601     0.776755815799503    -38.3348078691373    0.776755815799503    -38.3348078691373    0.62030277734956     50.9591280070601     
1043.33489002247     0.624732168245685    50.638813314647      0.773221427297354    -38.6590904402835    0.773221427297354    -38.6590904402835    0.624732168245685    50.638813314647      
1054.96439811487     0.629157670498254    50.317267640909      0.769649169576594    -38.9845612878153    0.769649169576594    -38.9845612878153    0.629157670498254    50.317267640909      
1066.72353424882     0.633578530279017    49.9945197267124     0.766039198430458    -39.3111915677137    0.766039198430458    -39.3111915677137    0.633578530279017    49.9945197267124     
1078.61374332026     0.637993991177556    49.6705987919795     0.762391686041387    -39.6389519430995    0.762391686041387    -39.6389519430995    0.637993991177556    49.6705987919795     
1090.63648633066     0.642403294736764    49.3455345214121     0.758706821024994    -39.9678125980999    0.758706821024994    -39.9678125980999    0.642403294736764    49.3455345214121     
1102.79324056646     0.646805680996572    49.0193570495638     0.754984808454098    -40.2977432523491    0.754984808454098    -40.2977432523491    0.646805680996572    49.0193570495638     
1115.0854997807      0.651200389044954    48.6920969452764     0.751225869862518    -40.6287131761051    0.751225869862518    -40.6287131761051    0.651200389044954    48.6920969452764     
1127.51477437645     0.655586657575443    48.3637851954936     0.747430243228268    -40.960691205971     0.747430243228268    -40.960691205971     0.655586657575443    48.3637851954936     
1140.08259159248     0.659963725450266    48.034453188463      0.743598182935855    -41.2936457612067    0.743598182935855    -41.2936457612067    0.659963725450266    48.034453188463      
1152.79049569089     0.664330832268094    47.7041326963523     0.739729959717452    -41.6275448606053    0.739729959717452    -41.6275448606053    0.664330832268094    47.7041326963523     
1165.64004814685     0.668687218935619    47.3728558572852     0.735825860572746    -41.9623561399277    0.735825860572746    -41.9623561399277    0.668687218935619    47.3728558572852     
1178.63282784049     0.673032128241818    47.0406551568314     0.731886188667342    -42.2980468698599    0.731886188667342    -42.2980468698599    0.673032128241818    47.0406551568314     
1191.77043125088     0.67736480543408     46.707563408958      0.727911263209522    -42.6345839744842    0.727911263209522    -42.6345839744842    0.67736480543408     46.707563408958      
1205.05447265221     0.681684498795081    46.3736137364756     0.723901419305434    -42.9719340502304    0.723901419305434    -42.9719340502304    0.681684498795081    46.3736137364756     
1218.48658431215     0.685990460219518    46.0388395509923     0.719857007792656    -43.3100633852923    0.719857007792656    -43.3100633852923    0.685990460219518    46.0388395509923     
1232.06841669239     0.690281945789524    45.7032745324132     0.715778395052149    -43.6489379794706    0.715778395052149    -43.6489379794706    0.690281945789524    45.7032745324132     
1245.80163865145     0.694558216347916    45.3669526079972     0.711665962798775    -43.9885235644295    0.711665962798775    -43.9885235644295    0.694558216347916    45.3669526079972     
1259.68793764976     0.698818538068081    45.0299079310117     0.707520107850533    -44.328785624324     0.707520107850533    -44.328785624324     0.698818538068081    45.0299079310117     
1273.72901995698     0.703062183019585    44.6921748590048     0.703341241876636    -44.6696894167786    0.703341241876636    -44.6696894167786    0.703062183019585    44.6921748590048     
1287.92661086165     0.707288429728437    44.3537879317251     0.699129791124818    -45.011199994183     0.699129791124818    -45.011199994183     0.707288429728437    44.3537879317251     
1302.28245488323     0.711496563730943    44.0147818487255     0.69488619612809     -45.3532822252696    0.69488619612809     -45.3532822252696    0.711496563730943    44.0147818487255     
1316.7983159864      0.715685878120213    43.6751914466746     0.690610911391382    -45.6959008169459    0.690610911391382    -45.6959008169459    0.715685878120213    43.6751914466746     
1331.47597779783     0.719855674084238    43.3350516764129     0.686304405058473    -46.0390203363426    0.686304405058473    -46.0390203363426    0.719855674084238    43.3350516764129     
1346.31724382537     0.724005261434622    42.9943975797837     0.681967158559589    -46.3826052330462    0.681967158559589    -46.3826052330462    0.724005261434622    42.9943975797837     
1361.3239376796      0.728133959124973    42.6532642662702     0.677599666240394    -46.7266198614826    0.677599666240394    -46.7266198614826    0.728133959124973    42.6532642662702     
1376.49790329794     0.732241095757941    42.3116868894815     0.673202434972708    -47.0710285034062    0.673202434972708    -47.0710285034062    0.732241095757941    42.3116868894815     
1391.84100517124     0.736326010080112    41.9697006235074     0.668775983747751    -47.4157953904723    0.668775983747751    -47.4157953904723    0.736326010080112    41.9697006235074     
1407.3551285728      0.740388051463734    41.6273406391903     0.664320843252453    -47.7608847268431    0.664320843252453    -47.7608847268431    0.740388051463734    41.6273406391903     
1423.04217979014     0.744426580374515    41.2846420803386     0.659837555429613    -48.1062607117986    0.659837555429613    -48.1062607117986    0.744426580374515    41.2846420803386     
1438.90408635912     0.74844096882455     40.9416400399256     0.655326673022577    -48.4518875623079    0.655326673022577    -48.4518875623079    0.74844096882455     40.9416400399256     
1454.94279730086     0.752430600809702    40.5983695362996     0.650788759105292    -48.7977295355295    0.650788759105292    -48.7977295355295    0.752430600809702    40.5983695362996     
1471.16028336118     0.756394872730619    40.2548654894446     0.64622438659846     -49.1437509512003    0.64622438659846     -49.1437509512003    0.756394872730619    40.2548654894446     
1487.55853725279     0.7603331937966      39.9111626973333     0.641634137772772    -49.4899162138682    0.641634137772772    -49.4899162138682    0.7603331937966      39.9111626973333     
1504.13957390012     0.764244986411807    39.5672958123905     0.637018603739952    -49.836189834945     0.637018603739952    -49.836189834945     0.764244986411807    39.5672958123905     
1520.90543068691     0.768129686543053    39.2232993181158     0.632378383932623    -50.1825364545289    0.632378383932623    -50.1825364545289    0.768129686543053    39.2232993181158     
1537.85816770653     0.771986744068591    38.8792075058953     0.627714085573913    -50.5289208629622    0.627714085573913    -50.5289208629622    0.771986744068591    38.8792075058953     
1554.99986801516     0.775815623107467    38.5350544520313     0.62302632313772     -50.8753080220906    0.62302632313772     -50.8753080220906    0.775815623107467    38.5350544520313     
1572.33263788771     0.779615802328843    38.1908739950278     0.618315717800655    -51.2216630861829    0.618315717800655    -51.2216630861829    0.779615802328843    38.1908739950278     
1589.85860707663     0.78338677524094     37.8466997131598     0.613582896886589    -51.5679514224778    0.613582896886589    -51.5679514224778    0.78338677524094     37.8466997131598     
1607.57992907361     0.787128050459118    37.5025649023641     0.608828493304909    -51.9141386313143    0.608828493304909    -51.9141386313143    0.787128050459118    37.5025649023641     
1625.49878137417     0.790839151952904    37.1585025544709     0.604053144983363    -52.2601905658232    0.604053144983363    -52.2601905658232    0.790839151952904    37.1585025544709     
1643.61736574526     0.794519619271545    36.8145453358174     0.599257494296658    -52.6060733511306    0.599257494296658    -52.6060733511306    0.794519619271545    36.8145453358174     
1661.93790849576     0.798169007747943    36.4707255662657     0.594442187491691    -52.9517534030462    0.594442187491691    -52.9517534030462    0.798169007747943    36.4707255662657     
1680.46266075004     0.801786888680787    36.1270751986518     0.589607874110535    -53.2971974462032    0.589607874110535    -53.2971974462032    0.801786888680787    36.1270751986518     
1699.1938987246      0.805372849494783    35.7836257986926     0.584755206412152    -53.6423725316155    0.584755206412152    -53.6423725316155    0.805372849494783    35.7836257986926     
1718.13392400771     0.808926493878837    35.4404085253804     0.579884838793843    -53.9872460536154    0.579884838793843    -53.9872460536154    0.808926493878837    35.4404085253804     
1737.28506384225     0.812447441902283    35.0974541118821     0.574997427213465    -54.3317857661473    0.574997427213465    -54.3317857661473    0.812447441902283    35.0974541118821     
1756.64967141165     0.815935330109136    34.7547928469677     0.570093628613378    -54.6759597983845    0.570093628613378    -54.6759597983845    0.815935330109136    34.7547928469677     
1776.23012612908     0.819389811590445    34.4124545569939     0.565174100347074    -55.0197366696331    0.565174100347074    -55.0197366696331    0.819389811590445    34.4124545569939     
1796.02883392973     0.822810556034944    34.0704685884546     0.56023949960951     -55.3630853035024    0.56023949960951     -55.3630853035024    0.822810556034944    34.0704685884546     
1816.04822756653     0.826197249758137    33.7288637911225     0.555290482872022    -55.7059750413092    0.555290482872022    -55.7059750413092    0.826197249758137    33.7288637911225     
1836.29076690902     0.829549595710057    33.3876685017989     0.550327705322745    -56.0483756546837    0.550327705322745    -56.0483756546837    0.829549595710057    33.3876685017989     
1856.75893924562     0.832867313462025    33.0469105286813     0.545351820313425    -56.39025735736      0.545351820313425    -56.39025735736      0.832867313462025    33.0469105286813     
1877.45525958925     0.836150139172676    32.7066171363698     0.540363478813508    -56.7315908161144    0.540363478813508    -56.7315908161144    0.836150139172676    32.7066171363698     
1898.38227098637     0.839397825533626    32.3668150315232     0.535363328872283    -57.0723471608303    0.535363328872283    -57.0723471608303    0.839397825533626    32.3668150315232     
1919.54254482943     0.842610141695254    32.0275303491691     0.530352015089899    -57.4124979936663    0.530352015089899    -57.4124979936663    0.842610141695254    32.0275303491691     
1940.93868117288     0.845786873172933    31.6887886396891     0.525330178098052    -57.7520153972962    0.525330178098052    -57.7520153972962    0.845786873172933    31.6887886396891     
1962.57330905259     0.848927821734277    31.350614856478      0.520298454051008    -58.0908719422014    0.520298454051008    -58.0908719422014    0.848927821734277    31.350614856478      
1984.44908680892     0.852032805267889    31.0130333442859     0.515257474127687    -58.4290406929891    0.515257474127687    -58.4290406929891    0.852032805267889    31.0130333442859     
2006.56870241336     0.855101657634127    30.6760678282523     0.510207864045469    -58.7664952137112    0.510207864045469    -58.7664952137112    0.855101657634127    30.6760678282523     
2028.93487379882     0.858134228498511    30.3397414036296     0.505150243586304    -59.1032095721611    0.505150243586304    -59.1032095721611    0.858134228498511    30.3397414036296     
2051.55034919357     0.861130383148334    30.0040765262029     0.50008522613573     -59.4391583431218    0.50008522613573     -59.4391583431218    0.861130383148334    30.0040765262029     
2074.41790745897     0.864090002293092    29.6690950034062     0.495013418235324    -59.7743166105402    0.495013418235324    -59.7743166105402    0.864090002293092    29.6690950034062     
2097.54035843087     0.867012981849429    29.3348179861315     0.489935419149048    -60.1086599686059    0.489935419149048    -60.1086599686059    0.867012981849429    29.3348179861315     
2120.92054326488     0.869899232711196    29.0012659612345     0.484851820444012    -60.4421645217004    0.484851820444012    -60.4421645217004    0.869899232711196    29.0012659612345     
2144.56133478553     0.872748680505341    28.6684587447288     0.47976320558597     -60.7748068831966    0.47976320558597     -60.7748068831966    0.872748680505341    28.6684587447288     
2168.46563783917     0.875561265334329    28.3364154756654     0.474670149550003    -61.1065641730774    0.474670149550003    -61.1065641730774    0.875561265334329    28.3364154756654     
2192.63638965098     0.878336941505746    28.005154610697      0.469573218446669    -61.4374140143389    0.469573218446669    -61.4374140143389    0.878336941505746    28.005154610697      
2217.07656018586     0.881075677249886    27.67469391931       0.464472969163884    -61.7673345281555    0.464472969163884    -61.7673345281555    0.881075677249886    27.67469391931       
2241.78915251333     0.883777454425955    27.3450504797289     0.459369949024851    -62.0963043277628    0.459369949024851    -62.0963043277628    0.883777454425955    27.3450504797289     
2266.77720317657     0.886442268217666    27.0162406754742     0.454264695462168    -62.424302511028     0.454264695462168    -62.424302511028     0.886442268217666    27.0162406754742     
2292.04378256551     0.889070126818944    26.6882801925703     0.449157735708328    -62.7513086516649    0.449157735708328    -62.7513086516649    0.889070126818944    26.6882801925703     
2317.59199529412     0.891661051110466    26.3611840173884     0.444049586502683    -63.0773027890543    0.444049586502683    -63.0773027890543    0.891661051110466    26.3611840173884     
2343.42498058188     0.894215074327742    26.034966435117      0.438940753815034    -63.4022654166167    0.438940753815034    -63.4022654166167    0.894215074327742    26.034966435117      
2369.54591263949     0.896732241721504    25.7096410288437     0.433831732585823    -63.7261774686933    0.433831732585823    -63.7261774686933    0.896732241721504    25.7096410288437     
2395.95800105892     0.899212610211067    25.3852206792374     0.428723006483002    -64.0490203058731    0.428723006483002    -64.0490203058731    0.899212610211067    25.3852206792374     
2422.66449120779     0.901656248031405    25.0617175648165     0.423615047675497    -64.3707756987099    0.423615047675497    -64.3707756987099    0.901656248031405    25.0617175648165     
2449.66866462815     0.904063234374609    24.7391431627888     0.418508316623291    -64.6914258097548    0.418508316623291    -64.6914258097548    0.904063234374609    24.7391431627888     
2476.97383943964     0.90643365902645     24.4175082504476     0.413403261883972    -65.0109531738355    0.413403261883972    -65.0109531738355    0.90643365902645     24.4175082504476     
2504.58337074727     0.908767621998697    24.0968229071066     0.408300319935672    -65.3293406764959    0.408300319935672    -65.3293406764959    0.908767621998697    24.0968229071066     
2532.50065105366     0.911065233157844    23.777096516563      0.403199915016221    -65.6465715305034    0.403199915016221    -65.6465715305034    0.911065233157844    23.777096516563      
2560.72911067586     0.913326611850912    23.4583377700649     0.398102458978392    -65.9626292503255    0.398102458978392    -65.9626292503255    0.913326611850912    23.4583377700649     
2589.27221816689     0.915551886528938    23.140554669772      0.393008351161003    -66.2774976244586    0.393008351161003    -66.2774976244586    0.915551886528938    23.140554669772      
2618.13348074189     0.91774119436877     22.8237545326892     0.387917978275655    -66.5911606854866    0.387917978275655    -66.5911606854866    0.91774119436877     22.8237545326892     
2647.31644470911     0.919894680893753    22.5079439950566     0.382831714308882    -66.9036026777278    0.382831714308882    -66.9036026777278    0.919894680893753    22.5079439950566     
2676.82469590564     0.922012499593871    22.1931290171798     0.377749920439448    -67.2148080223146    0.377749920439448    -67.2148080223146    0.922012499593871    22.1931290171798     
2706.66186013801     0.924094811545936    21.8793148886784     0.372672944970487    -67.5247612795369    0.372672944970487    -67.5247612795369    0.924094811545936    21.8793148886784     
2736.83160362774     0.926141785034295    21.5665062341398     0.367601123276218    -67.8334471082503    0.367601123276218    -67.8334471082503    0.926141785034295    21.5665062341398     
2767.33763346178     0.92815359517262     21.2547070191576     0.362534777762884    -68.1408502221414    0.362534777762884    -68.1408502221414    0.92815359517262     21.2547070191576     
2798.18369804806     0.930130423527219    20.9439205567372     0.357474217843629    -68.4469553426049    0.357474217843629    -68.4469553426049    0.930130423527219    20.9439205567372     
2829.37358757602     0.932072457742402    20.6341495140501     0.352419739926922    -68.7517471479713    0.352419739926922    -68.7517471479713    0.932072457742402    20.6341495140501     
2860.91113448239     0.933979891168258    20.3253959195204     0.34737162741822     -69.0552102187817    0.34737162741822     -69.0552102187817    0.933979891168258    20.3253959195204     
2892.80021392205     0.935852922491339    20.0176611702255     0.342330150734497    -69.357328978779     0.342330150734497    -69.357328978779     0.935852922491339    20.0176611702255     
2925.04474424421     0.937691755368607    19.7109460395923     0.337295567331252    -69.658087631243     0.337295567331252    -69.658087631243     0.937691755368607    19.7109460395923     
2957.64868747387     0.939496598065039    19.4052506853728     0.332268121741649    -69.95747009025      0.332268121741649    -69.95747009025      0.939496598065039    19.4052506853728     
2990.61604979865     0.941267663095225    19.1005746578811     0.327248045627416    -70.2554599063888    0.327248045627416    -70.2554599063888    0.941267663095225    19.1005746578811     
3023.95088206104     0.943005166869311    18.7969169084767     0.322235557841088    -70.5520401864089    0.322235557841088    -70.5520401864089    0.943005166869311    18.7969169084767     
3057.65728025614     0.944709329343574    18.4942757982746     0.317230864499269    -70.8471935062085    0.317230864499269    -70.8471935062085    0.944709329343574    18.4942757982746     
3091.739386035       0.946380373675921    18.1926491070697     0.312234159066496    -71.1409018165003    0.312234159066496    -71.1409018165003    0.946380373675921    18.1926491070697     
3126.20138721346     0.94801852588659     17.8920340424562     0.307245622449357    -71.4331463404045    0.307245622449357    -71.4331463404045    0.94801852588659     17.8920340424562     
3161.04751828676     0.949624014524274    17.5924272491277     0.302265423100472    -71.7239074621295    0.302265423100472    -71.7239074621295    0.949624014524274    17.5924272491277     
3196.28206094984     0.951197070337899    17.2938248183458     0.297293717132014    -72.0131646057818    0.297293717132014    -72.0131646057818    0.951197070337899    17.2938248183458     
3231.90934462345     0.952737925954263    16.9962222975559     0.292330648438365    -72.3008961032333    0.292330648438365    -72.3008961032333    0.952737925954263    16.9962222975559     
3267.93374698614     0.954246815561706    16.6996147001434     0.287376348827613    -72.587079049821     0.287376348827613    -72.587079049821     0.954246815561706    16.6996147001434     
3304.35969451213     0.955723974599987    16.4039965153108     0.282430938161539    -72.871689146496     0.282430938161539    -72.871689146496     0.955723974599987    16.4039965153108     
3341.19166301527     0.957169639456493    16.1093617180659     0.277494524503785    -73.1547005268442    0.277494524503785    -73.1547005268442    0.957169639456493    16.1093617180659     
3378.43417819892     0.958584047168921    15.8157037793051     0.272567204275893    -73.4360855671882    0.272567204275893    -73.4360855671882    0.958584047168921    15.8157037793051     
3416.09181621211     0.959967435134536    15.5230156759831     0.267649062420965    -73.7158146777193    0.267649062420965    -73.7158146777193    0.959967435134536    15.5230156759831     
3454.16920421182     0.961320040826087    15.2312899013535     0.262740172574651    -73.9938560723207    0.262740172574651    -73.9938560723207    0.961320040826087    15.2312899013535     
3492.6710209315      0.962642101514472    14.9405184752708     0.257840597243281    -74.2701755144003    0.257840597243281    -74.2701755144003    0.962642101514472    14.9405184752708     
3531.60199725602     0.963933853998199    14.6506929545424     0.252950387988886    -74.5447360356492    0.252950387988886    -74.5447360356492    0.963933853998199    14.6506929545424     
3570.96691680294     0.96519553433969     14.3618044433198     0.24806958562099     -74.817497624183     0.24806958562099     -74.817497624183     0.96519553433969     14.3618044433198     
3610.77061651028     0.966427377608458    14.0738436035199     0.243198220395012    -75.0884168779719    0.243198220395012    -75.0884168779719    0.966427377608458    14.0738436035199     
3651.01798723091     0.967629617631182    13.7868006652662     0.238336312217188    -75.3574466188269    0.238336312217188    -75.3574466188269    0.967629617631182    13.7868006652662     
3691.71397433346     0.968802486748673    13.5006654373397     0.233483870856003    -75.6245354614536    0.233483870856003    -75.6245354614536    0.968802486748673    13.5006654373397     
3732.86357831001     0.96994621557973     13.2154273176352     0.228640896160114    -75.8896273311867    0.228640896160114    -75.8896273311867    0.96994621557973     13.2154273176352     
3774.47185539048     0.971061032791871    12.9310753036097     0.223807378282874    -76.1526609229629    0.223807378282874    -76.1526609229629    0.971061032791871    12.9310753036097     
3816.54391816397     0.972147164878903    12.647598002719      0.218983297913594    -76.41356909282      0.218983297913594    -76.41356909282      0.972147164878903    12.647598002719      
3859.08493620692     0.973204835945297    12.3649836428346     0.214168626515816    -76.6722781717048    0.214168626515816    -76.6722781717048    0.973204835945297    12.3649836428346     
3902.10013671833     0.974234267497323    12.0832200826332     0.209363326572922    -76.9287071895607    0.209363326572922    -76.9287071895607    0.974234267497323    12.0832200826332     
3945.59480516208     0.97523567824088     11.8022948219559     0.204567351841581    -77.1827669954853    0.204567351841581    -77.1827669954853    0.97523567824088     11.8022948219559     
3989.57428591631     0.976209283885977    11.5221950121269     0.199780647613626    -77.4343592571236    0.199780647613626    -77.4343592571236    0.976209283885977    11.5221950121269     
4034.04398293017     0.977155296957767    11.2429074662303     0.195003150987201    -77.6833753192588    0.195003150987201    -77.6833753192588    0.977155296957767    11.2429074662303     
4079.00936038781     0.978073926614087    10.9644186693403     0.190234791148145    -77.9296948976847    0.190234791148145    -77.9296948976847    0.978073926614087    10.9644186693403     
4124.47594337975     0.978965378469398    10.6867147886966     0.185475489662915    -78.1731845796759    0.185475489662915    -78.1731845796759    0.978965378469398    10.6867147886966     
4170.44931858185     0.979829854425057    10.4097816838267     0.180725160784609    -78.4136960965261    0.180725160784609    -78.4136960965261    0.979829854425057    10.4097816838267     
4216.93513494168     0.980667552505813    10.1336049166077     0.175983711774074    -78.6510643263924    0.175983711774074    -78.6510643263924    0.980667552505813    10.1336049166077     
4263.9391043727      0.981478666702446    9.85816976126596     0.171251043238506    -78.8851049767143    0.171251043238506    -78.8851049767143    0.981478666702446    9.85816976126596     
4311.46700245605     0.982263386820441    9.58346121431263     0.16652704949062     -79.1156118842675    0.16652704949062     -79.1156118842675    0.982263386820441    9.58346121431263     
4359.52466915029     0.983021898334599    9.30946400441197     0.161811618932108    -79.3423538568524    0.161811618932108    -79.3423538568524    0.983021898334599    9.30946400441197     
4408.11800950893     0.983754382249481    9.03616260218113     0.157104634466109    -79.5650709628573    0.157104634466109    -79.5650709628573    0.983754382249481    9.03616260218113     
4457.252994406       0.984461014965584    8.76354122992007     0.152405973944571    -79.7834701523741    0.152405973944571    -79.7834701523741    0.984461014965584    8.76354122992007     
4506.93566126974     0.985141968151133    8.49158387126956     0.147715510657829    -79.9972200646802    0.147715510657829    -79.9972200646802    0.985141968151133    8.49158387126956     
4557.17211482448     0.985797408619393    8.22027428079835     0.143033113875773    -80.2059448397398    0.143033113875773    -80.2059448397398    0.985797408619393    8.22027428079835     
4607.9685278407      0.986427498211389    7.94959599351726     0.138358649452362    -80.4092167031552    0.138358649452362    -80.4092167031552    0.986427498211389    7.94959599351726     
4659.33114189351     0.987032393683918    7.67953233432177     0.133691980508596    -80.6065470309615    0.133691980508596    -80.6065470309615    0.987032393683918    7.67953233432177     
4711.26626812957     0.987612246602766    7.41006642736128     0.129032968213304    -80.7973755175555    0.129032968213304    -80.7973755175555    0.987612246602766    7.41006642736128     
4763.78028804266     0.988167203241006    7.14118120533808     0.124381472686921    -80.9810569595336    0.124381472686921    -80.9810569595336    0.988167203241006    7.14118120533808     
4816.87965425767     0.98869740448228     6.87285941873439     0.11973735406102     -81.1568450198746    0.11973735406102     -81.1568450198746    0.98869740448228     6.87285941873439     
4870.57089132356     0.989202985728968    6.60508364497064     0.115100473736884    -81.3238721357851    0.115100473736884    -81.3238721357851    0.989202985728968    6.60508364497064     
4924.86059651498     0.989684076815127    6.3378362974949      0.11047069590066     -81.4811244579424    0.11047069590066     -81.4811244579424    0.989684076815127    6.3378362974949      
4979.75544064301     0.990140801924122    6.07109963480499     0.105847889372466    -81.6274103268952    0.105847889372466    -81.6274103268952    0.990140801924122    6.07109963480499     
5035.2621688747      0.99057327951084     5.80485576940684     0.101231929894705    -81.7613202563968    0.101231929894705    -81.7613202563968    0.99057327951084     5.80485576940684     
5091.38760156202     0.990981622228389    5.53908667670878     0.096622703004404    -81.8811756313127    0.096622703004404    -81.8811756313127    0.990981622228389    5.53908667670878     
5148.13863507977     0.991365936859221    5.27377420385581     0.092020107691648    -81.9849622283833    0.092020107691648    -81.9849622283833    0.991365936859221    5.27377420385581     
5205.52224267307     0.991726324250546    5.00890007850495     0.087424061130022    -82.0702430574432    0.087424061130022    -82.0702430574432    0.991726324250546    5.00890007850495     
5263.54547531415     0.992062879254012    4.74444591754569     0.082834504890156    -82.1340426205761    0.082834504890156    -82.1340426205761    0.992062879254012    4.74444591754569     
5322.21546256874     0.99237569066951     4.480393235767       0.078251413237664    -82.1726910433277    0.078251413237664    -82.1726910433277    0.99237569066951     4.480393235767       
5381.53941347208     0.992664841193085    4.2167234544748      0.073674804411937    -82.1816108880226    0.073674804411937    -82.1816108880226    0.992664841193085    4.2167234544748      
5441.52461741478     0.992930407368849    3.95341791006308     0.0691047562507      -82.1550205177635    0.0691047562507      -82.1550205177635    0.992930407368849    3.95341791006308     
5502.17844503848     0.99317245954484     3.69045786254016     0.064541428287663    -82.0855133586522    0.064541428287663    -82.0855133586522    0.99317245954484     3.69045786254016     
5563.50834914149     0.993391061832768    3.42782450401699     0.059985093726915    -81.9634481650274    0.059985093726915    -81.9634481650274    0.993391061832768    3.42782450401699     
5625.52186559456     0.99358627207159     3.16549896715681     0.055436186902317    -81.7760436475338    0.055436186902317    -81.7760436475338    0.99358627207159     3.16549896715681     
5688.22661426686     0.993758141794859    2.90346233359355     0.050895375776914    -81.505996388412     0.050895375776914    -81.505996388412     0.993758141794859    2.90346233359355     
5751.63029996225     0.993906716201807    2.6416956423201      0.04636367639523     -81.1293028772442    0.04636367639523     -81.1293028772442    0.993906716201807    2.6416956423201      
5815.740713366       0.994032034132113    2.38017989805148     0.041842640575091    -80.6116984260017    0.041842640575091    -80.6116984260017    0.994032034132113    2.38017989805148     
5880.56573200209     0.994134128044327    2.11889607956669     0.037334677772346    -79.9025773251485    0.037334677772346    -79.9025773251485    0.994134128044327    2.11889607956669     
5946.11332120111     0.994213023997916    1.85782514803245     0.032843637234233    -78.924066162386     0.032843637234233    -78.924066162386     0.994213023997916    1.85782514803245     
6012.39153507906     0.9942687416389      1.5969480553146      0.028375931206415    -77.5501367367757    0.028375931206415    -77.5501367367757    0.9942687416389      1.5969480553146      
6079.40851752692     0.994301294189077    1.33624575227886     0.023942882230502    -75.5635642112393    0.023942882230502    -75.5635642112393    0.994301294189077    1.33624575227886     
6147.17250321138     0.994310688438796    1.07569919708663     0.019566148623891    -72.5586658086905    0.019566148623891    -72.5586658086905    0.994310688438796    1.07569919708663     
6215.69181858664     0.994296924743286    0.815289363490436    0.015291995610661    -67.6955721885577    0.015291995610661    -67.6955721885577    0.994296924743286    0.815289363490436    
6284.97488291756     0.994259997022544    0.554997249130716    0.011235531916734    -59.0004698712573    0.011235531916734    -59.0004698712573    0.994259997022544    0.554997249130716    
6355.03020931409     0.994199892764757    0.294803883840927    0.007743495923406    -41.346428465837     0.007743495923406    -41.346428465837     0.994199892764757    0.294803883840927    
6425.8664057774      0.994116593033289    0.034690337963259    0.005914296520134    -5.8411084708799     0.005914296520134    -5.8411084708799     0.994116593033289    0.034690337963259    
6497.49217625754     0.994010072477249    -0.225362269319815   0.00715943419178     33.0996390147345     0.00715943419178     33.0996390147345     0.994010072477249    -0.225362269319815   
6569.91632172291     0.993880299345632    -0.48537276163532    0.010429523218474    53.8297631637265     0.010429523218474    53.8297631637265     0.993880299345632    -0.48537276163532    
6643.14774124172     0.99372723550508     -0.745359897045416   0.014405461210127    63.8143882945362     0.014405461210127    63.8143882945362     0.99372723550508     -0.745359897045416   
6717.19543307548     0.99355083646129     -1.00534235964609    0.018640792728257    69.2570947102622     0.018640792728257    69.2570947102622     0.99355083646129     -1.00534235964609    
6792.06849578451     0.993351051384095    -1.26533875113372    0.022992684352066    72.5597130347046     0.022992684352066    72.5597130347046     0.993351051384095    -1.26533875113372    
6867.77612934611     0.99312782313626     -1.52536758233732    0.027405873609263    74.7164006197603     0.027405873609263    74.7164006197603     0.99312782313626     -1.52536758233732    
6944.32763628487     0.992881088306049    -1.78544726471065    0.031855204342426    76.1955230200866     0.031855204342426    76.1955230200866     0.992881088306049    -1.78544726471065    
7021.73242281579     0.992610777243592    -2.04559610178212    0.036327784410558    77.2430019536219     0.036327784410558    77.2430019536219     0.992610777243592    -2.04559610178212    
7100                 0.992316814101137    -2.30583228055827    0.040816413656109    77.9993535399517     0.040816413656109    77.9993535399517     0.992316814101137    -2.30583228055827    
