# MHz S MA R 50      
!Freq                MagS11               AngS11               MagS21               AngS21               MagS12               AngS12               MagS22               AngS22               
1                    0.005616873811766    38.3844228435519     0.995603253311862    -0.200714064663979   0.995603253311862    -0.200714064663979   0.005616873811766    38.3844228435519     
1.00992519001214     0.005642472179187    38.6268855912902     0.995598175516006    -0.202705165119999   0.995598175516006    -0.202705165119999   0.005642472179187    38.6268855912902     
1.01994888942106     0.005668408555687    38.8696647646057     0.995593070808777    -0.204716012104652   0.995593070808777    -0.204716012104652   0.005668408555687    38.8696647646057     
1.03007207595123     0.00569468701683     39.1127421285832     0.995587939021083    -0.206746801367396   0.995587939021083    -0.206746801367396   0.00569468701683     39.1127421285832     
1.04029573703124     0.005721311672935    39.3560993362318     0.995582779982315    -0.208797730596775   0.995582779982315    -0.208797730596775   0.005721311672935    39.3560993362318     
1.0506208698901      0.00574828666918     39.5997179349894     0.995577593520254    -0.21086899943959    0.995577593520254    -0.21086899943959    0.00574828666918     39.5997179349894     
1.06104848165447     0.005775616185723    39.8435793733191     0.995572379461086    -0.212960809520274   0.995572379461086    -0.212960809520274   0.005775616185723    39.8435793733191     
1.07157958944699     0.005803304437817    40.0876650073925     0.995567137629405    -0.215073364460471   0.995567137629405    -0.215073364460471   0.005803304437817    40.0876650073925     
1.08221522048538     0.005831355675927    40.3319561078541     0.995561867848112    -0.217206869898767   0.995561867848112    -0.217206869898767   0.005831355675927    40.3319561078541     
1.09295641218273     0.005859774185859    40.5764338666602     0.995556569938465    -0.219361533510662   0.995556569938465    -0.219361533510662   0.005859774185859    40.5764338666602     
1.10380421224862     0.005888564288882    40.821079403986      0.995551243720027    -0.221537565028705   0.995551243720027    -0.221537565028705   0.005888564288882    40.821079403986      
1.11475967879139     0.005917730341862    41.0658737751977     0.995545889010638    -0.223735176262851   0.995545889010638    -0.223735176262851   0.005917730341862    41.0658737751977     
1.12582388042127     0.005947276737399    41.3107979778783     0.995540505626383    -0.225954581121003   0.995540505626383    -0.225954581121003   0.005947276737399    41.3107979778783     
1.13699789635465     0.005977207903959    41.5558329589044     0.995535093381597    -0.22819599562976    0.995535093381597    -0.22819599562976    0.005977207903959    41.5558329589044     
1.14828281651937     0.006007528306025    41.8009596215676     0.995529652088802    -0.230459637955377   0.995529652088802    -0.230459637955377   0.006007528306025    41.8009596215676     
1.159679741661       0.006038242444241    42.0461588327299     0.995524181558714    -0.232745728424927   0.995524181558714    -0.232745728424927   0.006038242444241    42.0461588327299     
1.17118978345022     0.006069354855567    42.2914114300139     0.995518681600189    -0.235054489547666   0.995518681600189    -0.235054489547666   0.006069354855567    42.2914114300139     
1.18281406459124     0.006100870113435    42.5366982290113     0.995513152020218    -0.237386146036618   0.995513152020218    -0.237386146036618   0.006100870113435    42.5366982290113     
1.19455371893133     0.006132792827915    42.7820000305129     0.995507592623876    -0.239740924830365   0.995507592623876    -0.239740924830365   0.006132792827915    42.7820000305129     
1.20640989157143     0.006165127645881    43.0272976277463     0.995502003214322    -0.242119055115062   0.995502003214322    -0.242119055115062   0.006165127645881    43.0272976277463     
1.21838373897781     0.006197879251189    43.272571813618      0.995496383592727    -0.244520768346652   0.995496383592727    -0.244520768346652   0.006197879251189    43.272571813618      
1.23047642909486     0.006231052364856    43.5178033879509     0.995490733558296    -0.246946298273319   0.995490733558296    -0.246946298273319   0.006231052364856    43.5178033879509     
1.24268914145909     0.006264651745244    43.7629731647143     0.995485052908203    -0.249395880958154   0.995485052908203    -0.249395880958154   0.006264651745244    43.7629731647143     
1.25502306731409     0.006298682188257    44.0080619792332     0.995479341437579    -0.251869754802035   0.995479341437579    -0.251869754802035   0.006298682188257    44.0080619792332     
1.2674794097268      0.006333148527539    44.2530506953787     0.995473598939464    -0.254368160566756   0.995473598939464    -0.254368160566756   0.006333148527539    44.2530506953787     
1.28005938370481     0.00636805563468     44.4979202127239     0.995467825204787    -0.256891341398353   0.995467825204787    -0.256891341398353   0.00636805563468     44.4979202127239     
1.2927642163149      0.006403408419429    44.7426514736654     0.995462020022347    -0.259439542850691   0.995462020022347    -0.259439542850691   0.006403408419429    44.7426514736654     
1.30559514680272     0.006439211829915    44.9872254705015     0.995456183178736    -0.262013012909255   0.995456183178736    -0.262013012909255   0.006439211829915    44.9872254705015     
1.31855342671367     0.006475470852872    45.2316232524585     0.995450314458354    -0.264612002015203   0.995450314458354    -0.264612002015203   0.006475470852872    45.2316232524585     
1.33164032001496     0.006512190513879    45.4758259326631     0.995444413643357    -0.267236763089632   0.995444413643357    -0.267236763089632   0.006512190513879    45.4758259326631     
1.34485710321893     0.006549375877596    45.719814695051      0.995438480513607    -0.269887551558094   0.995438480513607    -0.269887551558094   0.006549375877596    45.719814695051      
1.35820506550755     0.00658703204802     45.9635708012065     0.995432514846653    -0.272564625375356   0.995432514846653    -0.272564625375356   0.00658703204802     45.9635708012065     
1.37168550885816     0.00662516416874     46.207075597128      0.995426516417702    -0.275268245050398   0.995426516417702    -0.275268245050398   0.00662516416874     46.207075597128      
1.38529974817048     0.006663777423207    46.4503105199129     0.99542048499956     -0.277998673671661   0.99542048499956     -0.277998673671661   0.006663777423207    46.4503105199129     
1.39904911139484     0.006702877035003    46.6932571043538     0.995414420362634    -0.280756176932544   0.995414420362634    -0.280756176932544   0.006702877035003    46.6932571043538     
1.41293493966175     0.006742468268131    46.935896989446      0.995408322274824    -0.283541023157136   0.995408322274824    -0.283541023157136   0.006742468268131    46.935896989446      
1.42695858741268     0.006782556427302    47.1782119247934     0.995402190501567    -0.286353483326236   0.995402190501567    -0.286353483326236   0.006782556427302    47.1782119247934     
1.44112142253221     0.006823146858237    47.4201837769145     0.995396024805745    -0.2891938311036     0.995396024805745    -0.2891938311036     0.006823146858237    47.4201837769145     
1.4554248264814      0.006864244947976    47.6617945354373     0.995389824947655    -0.292062342862442   0.995389824947655    -0.292062342862442   0.006864244947976    47.6617945354373     
1.46987019443261     0.0069058561252      47.903026319183      0.995383590684965    -0.294959297712224   0.995383590684965    -0.294959297712224   0.0069058561252      47.903026319183      
1.48445893540554     0.006947985860552    48.1438613821307     0.9953773217727      -0.297884977525698   0.9953773217727      -0.297884977525698   0.006947985860552    48.1438613821307     
1.49919247240465     0.00699063966698     48.3842821192585     0.995371017963159    -0.300839666966195   0.995371017963159    -0.300839666966195   0.00699063966698     48.3842821192585     
1.51407224255804     0.007033823100079    48.6242710722593     0.995364679005906    -0.303823653515204   0.995364679005906    -0.303823653515204   0.007033823100079    48.6242710722593     
1.52909969725753     0.007077541758449    48.8638109351226     0.995358304647694    -0.306837227500216   0.995358304647694    -0.306837227500216   0.007077541758449    48.8638109351226     
1.54427630230032     0.007121801284059    49.1028845595839     0.995351894632458    -0.309880682122851   0.995351894632458    -0.309880682122851   0.007121801284059    49.1028845595839     
1.55960353803189     0.007166607362624    49.3414749604312     0.995345448701232    -0.312954313487233   0.995345448701232    -0.312954313487233   0.007166607362624    49.3414749604312     
1.57508289949046     0.007211965723985    49.579565320672      0.995338966592126    -0.316058420628679   0.995338966592126    -0.316058420628679   0.007211965723985    49.579565320672      
1.59071589655278     0.007257882142508    49.8171389965516     0.995332448040273    -0.319193305542649   0.995332448040273    -0.319193305542649   0.007257882142508    49.8171389965516     
1.60650405408139     0.007304362437488    50.0541795224233     0.995325892777775    -0.32235927321399    0.995325892777775    -0.32235927321399    0.007304362437488    50.0541795224233     
1.62244891207342     0.007351412473561    50.2906706154659     0.995319300533673    -0.325556631646465   0.995319300533673    -0.325556631646465   0.007351412473561    50.2906706154659     
1.63855202581074     0.00739903816113     50.5265961802454     0.99531267103387     -0.328785691892557   0.99531267103387     -0.328785691892557   0.00739903816113     50.5265961802454     
1.65481496601169     0.007447245456797    50.7619403131203     0.995306004001091    -0.332046768083592   0.995306004001091    -0.332046768083592   0.007447245456797    50.7619403131203     
1.67123931898428     0.007496040363814    50.9966873064865     0.995299299154827    -0.335340177460151   0.995299299154827    -0.335340177460151   0.007496040363814    50.9966873064865     
1.68782668678096     0.007545428932532    51.2308216528605     0.99529255621131     -0.338666240402762   0.99529255621131     -0.338666240402762   0.007545428932532    51.2308216528605     
1.70457868735482     0.007595417260867    51.4643280487988     0.995285774883422    -0.342025280462913   0.995285774883422    -0.342025280462913   0.007595417260867    51.4643280487988     
1.72149695471746     0.00764601149478     51.6971913986524     0.995278954880645    -0.34541762439437    0.995278954880645    -0.34541762439437    0.00764601149478     51.6971913986524     
1.73858313909835     0.007697217828758    51.9293968181548     0.995272095909031    -0.348843602184785   0.995272095909031    -0.348843602184785   0.007697217828758    51.9293968181548     
1.7558389071058      0.007749042506312    52.1609296378422     0.995265197671126    -0.352303547087638   0.995265197671126    -0.352303547087638   0.007749042506312    52.1609296378422     
1.77326594188953     0.007801491820486    52.3917754063053     0.995258259865908    -0.355797795654472   0.995258259865908    -0.355797795654472   0.007801491820486    52.3917754063053     
1.79086594330484     0.00785457211437     52.6219198932721     0.995251282188737    -0.359326687767449   0.995251282188737    -0.359326687767449   0.00785457211437     52.6219198932721     
1.80864062807841     0.007908289781631    52.8513490925209     0.995244264331286    -0.362890566672247   0.995244264331286    -0.362890566672247   0.007908289781631    52.8513490925209     
1.82659172997576     0.007962651267051    53.0800492246237     0.995237205981498    -0.366489779011244   0.995237205981498    -0.366489779011244   0.007962651267051    53.0800492246237     
1.84472099997038     0.008017663067074    53.3080067395192     0.995230106823498    -0.370124674857052   0.995230106823498    -0.370124674857052   0.008017663067074    53.3080067395192     
1.86303020641446     0.008073331730367    53.5352083189175     0.995222966537545    -0.373795607746386   0.995222966537545    -0.373795607746386   0.008073331730367    53.5352083189175     
1.88152113521148     0.008129663858388    53.7616408785337     0.995215784799968    -0.377502934714232   0.995215784799968    -0.377502934714232   0.008129663858388    53.7616408785337     
1.90019558999031     0.008186666105965    53.9872915701541     0.995208561283088    -0.381247016328383   0.995208561283088    -0.381247016328383   0.008186666105965    53.9872915701541     
1.91905539228119     0.008244345181892    54.2121477835349     0.995201295655172    -0.385028216724318   0.995201295655172    -0.385028216724318   0.008244345181892    54.2121477835349     
1.93810238169341     0.008302707849525    54.4361971481319     0.995193987580325    -0.388846903640365   0.995193987580325    -0.388846903640365   0.008302707849525    54.4361971481319     
1.95733841609469     0.008361760927394    54.6594275346674     0.995186636718471    -0.392703448453303   0.995186636718471    -0.392703448453303   0.008361760927394    54.6594275346674     
1.97676537179249     0.008421511289827    54.8818270565304     0.99517924272523     -0.396598226214213   0.99517924272523     -0.396598226214213   0.008421511289827    54.8818270565304     
1.99638514371695     0.008481965867581    55.1033840710148     0.995171805251882    -0.400531615684761   0.995171805251882    -0.400531615684761   0.008481965867581    55.1033840710148     
2.01619964560575     0.008543131648487    55.3240871803964     0.995164323945293    -0.404503999373805   0.995164323945293    -0.404503999373805   0.008543131648487    55.3240871803964     
2.03621081019079     0.0086050156781      55.5439252328503     0.995156798447801    -0.408515763574327   0.995156798447801    -0.408515763574327   0.0086050156781      55.5439252328503     
2.05642058938671     0.008667625060364    55.7628873232109     0.995149228397184    -0.412567298400786   0.995149228397184    -0.412567298400786   0.008667625060364    55.7628873232109     
2.07683095448125     0.008730966958287    55.9809627935772     0.995141613426566    -0.416658997826824   0.995141613426566    -0.416658997826824   0.008730966958287    55.9809627935772     
2.09744389632756     0.008795048594624    56.1981412337638     0.99513395316431     -0.42079125972328    0.99513395316431     -0.42079125972328    0.008795048594624    56.1981412337638     
2.11826142553842     0.008859877252571    56.4144124816025     0.99512624723398     -0.424964485896668   0.99512624723398     -0.424964485896668   0.008859877252571    56.4144124816025     
2.13928557268227     0.008925460276471    56.6297666230955     0.995118495254235    -0.429179082127974   0.995118495254235    -0.429179082127974   0.008925460276471    56.6297666230955     
2.16051838848137     0.00899180507253     56.8441939924222     0.995110696838744    -0.433435458211836   0.995110696838744    -0.433435458211836   0.00899180507253     56.8441939924222     
2.18196194401177     0.009058919109537    57.057685171805      0.99510285159609     -0.437734027996123   0.99510285159609     -0.437734027996123   0.009058919109537    57.057685171805      
2.20361833090534     0.009126809919607    57.2702309912334     0.99509495912972     -0.442075209421899   0.99509495912972     -0.442075209421899   0.009126809919607    57.2702309912334     
2.22548966155381     0.009195485098918    57.481822528053      0.995087019037805    -0.446459424563775   0.995087019037805    -0.446459424563775   0.009195485098918    57.481822528053      
2.24757806931478     0.009264952308474    57.6924511064183     0.99507903091318     -0.450887099670644   0.99507903091318     -0.450887099670644   0.009264952308474    57.6924511064183     
2.26988570871985     0.009335219274865    57.9021082966176     0.995070994343256    -0.455358665206856   0.995070994343256    -0.455358665206856   0.009335219274865    57.9021082966176     
2.29241475568473     0.009406293791044    58.1107859142676     0.995062908909897    -0.459874555893711   0.995062908909897    -0.459874555893711   0.009406293791044    58.1107859142676     
2.31516740772153     0.009478183717115    58.3184760193854     0.995054774189354    -0.464435210751466   0.995054774189354    -0.464435210751466   0.009478183717115    58.3184760193854     
2.33814588415308     0.009550896981124    58.525170915339      0.995046589752125    -0.469041073141651   0.995046589752125    -0.469041073141651   0.009550896981124    58.525170915339      
2.3613524263294      0.009624441579868    58.7308631476803     0.995038355162919    -0.473692590809907   0.995038355162919    -0.473692590809907   0.009624441579868    58.7308631476803     
2.38478929784635     0.009698825579706    58.9355455028628     0.995030069980482    -0.478390215929097   0.995030069980482    -0.478390215929097   0.009698825579706    58.9355455028628     
2.40845878476639     0.009774057117387    59.1392110068513     0.995021733757536    -0.483134405142989   0.995021733757536    -0.483134405142989   0.009774057117387    59.1392110068513     
2.4323631958416      0.009850144400885    59.341852923621      0.995013346040672    -0.487925619610272   0.995013346040672    -0.487925619610272   0.009850144400885    59.341852923621      
2.45650486273886     0.009927095710239    59.5434647535552     0.995004906370224    -0.49276432504902    0.995004906370224    -0.49276432504902    0.009927095710239    59.5434647535552     
2.48088614026729     0.010004919398413    59.7440402317426     0.994996414280166    -0.497650991781622   0.994996414280166    -0.497650991781622   0.010004919398413    59.7440402317426     
2.50550940660792     0.010083623892155    59.9435733261768     0.994987869297991    -0.502586094780091   0.994987869297991    -0.502586094780091   0.010083623892155    59.9435733261768     
2.53037706354571     0.010163217692871    60.1420582358642     0.994979270944612    -0.507570113711867   0.994979270944612    -0.507570113711867   0.010163217692871    60.1420582358642     
2.55549153670376     0.010243709377511    60.3394893888417     0.99497061873425     -0.512603532986071   0.99497061873425     -0.512603532986071   0.010243709377511    60.3394893888417     
2.58085527577995     0.010325107599457    60.5358614401091     0.994961912174288    -0.517686841800134   0.994961912174288    -0.517686841800134   0.010325107599457    60.5358614401091     
2.6064707547859      0.010407421089429    60.7311692694786     0.994953150765156    -0.522820534186981   0.994953150765156    -0.522820534186981   0.010407421089429    60.7311692694786     
2.63234047228823     0.010490658656394    60.9254079793465     0.994944334000229    -0.528005109062606   0.994944334000229    -0.528005109062606   0.010490658656394    60.9254079793465     
2.65846695165234     0.010574829188488    61.1185728923886     0.994935461365677    -0.533241070274136   0.994935461365677    -0.533241070274136   0.010574829188488    61.1185728923886     
2.68485274128848     0.010659941653947    61.3106595491858     0.994926532340343    -0.53852892664835    0.994926532340343    -0.53852892664835    0.010659941653947    61.3106595491858     
2.71150041490038     0.010746005102046    61.5016637057796     0.994917546395633    -0.543869192040694   0.994917546395633    -0.543869192040694   0.010746005102046    61.5016637057796     
2.73841257173626     0.010833028664048    61.6915813311645     0.994908502995329    -0.549262385384736   0.994908502995329    -0.549262385384736   0.010833028664048    61.6915813311645     
2.76559183684237     0.010921021554167    61.8804086047191     0.994899401595526    -0.554709030742166   0.994899401595526    -0.554709030742166   0.010921021554167    61.8804086047191     
2.79304086131905     0.011009993070529    62.0681419135785     0.994890241644408    -0.560209657353166   0.994890241644408    -0.560209657353166   0.011009993070529    62.0681419135785     
2.82076232257931     0.011099952596155    62.2547778499535     0.994881022582186    -0.565764799687413   0.994881022582186    -0.565764799687413   0.011099952596155    62.2547778499535     
2.84875892461        0.01119090959995     62.4403132083986     0.994871743840908    -0.571374997495479   0.994871743840908    -0.571374997495479   0.01119090959995     62.4403132083986     
2.87703339823553     0.011282873637691    62.6247449830314     0.99486240484432     -0.57704079586075    0.99486240484432     -0.57704079586075    0.011282873637691    62.6247449830314     
2.90558850138428     0.011375854353041    62.8080703647093     0.994853005007718    -0.582762745251878   0.994853005007718    -0.582762745251878   0.011375854353041    62.8080703647093     
2.93442701935761     0.011469861478562    62.9902867381629     0.994843543737799    -0.588541401575711   0.994843543737799    -0.588541401575711   0.011469861478562    62.9902867381629     
2.96355176510149     0.011564904836737    63.1713916790917     0.994834020432494    -0.594377326230733   0.994834020432494    -0.594377326230733   0.011564904836737    63.1713916790917     
2.99296557948093     0.011660994341007    63.3513829512269     0.994824434480821    -0.600271086161064   0.994824434480821    -0.600271086161064   0.011660994341007    63.3513829512269     
3.02267133155707     0.011758139996812    63.5302585033595     0.994814785262708    -0.606223253910958   0.994814785262708    -0.606223253910958   0.011758139996812    63.5302585033595     
3.05267191886702     0.011856351902647    63.7080164663397     0.994805072148866    -0.612234407679797   0.994805072148866    -0.612234407679797   0.011856351902647    63.7080164663397     
3.0829702677065      0.011955640251121    63.8846551500513     0.994795294500553    -0.618305131377661   0.994795294500553    -0.618305131377661   0.011955640251121    63.8846551500513     
3.11356933341526     0.012056015330028    64.0601730403619     0.994785451669463    -0.624436014681444   0.994785451669463    -0.624436014681444   0.012056015330028    64.0601730403619     
3.14447210066537     0.012157487523433    64.2345687960529     0.994775542997528    -0.630627653091477   0.994775542997528    -0.630627653091477   0.012157487523433    64.2345687960529     
3.17568158375235     0.012260067312757    64.4078412457301     0.994765567816732    -0.636880647988701   0.994765567816732    -0.636880647988701   0.012260067312757    64.4078412457301     
3.20720082688914     0.01236376527788     64.5799893847215     0.994755525448954    -0.643195606692436   0.994755525448954    -0.643195606692436   0.01236376527788     64.5799893847215     
3.23903290450311     0.012468592098249    64.7510123719603     0.99474541520574     -0.649573142518661   0.99474541520574     -0.649573142518661   0.012468592098249    64.7510123719603     
3.27118092153587     0.012574558553998    64.9209095268582     0.994735236388159    -0.656013874838878   0.994735236388159    -0.656013874838878   0.012574558553998    64.9209095268582     
3.3036480137462      0.012681675527077    65.0896803261712     0.994724988286582    -0.662518429139545   0.994724988286582    -0.662518429139545   0.012681675527077    65.0896803261712     
3.33643734801585     0.012789954002387    65.2573244008591     0.994714670180514    -0.669087437082092   0.994714670180514    -0.669087437082092   0.012789954002387    65.2573244008591     
3.36955212265851     0.012899405068931    65.4238415329433     0.994704281338332    -0.675721536563479   0.994704281338332    -0.675721536563479   0.012899405068931    65.4238415329433     
3.4029955677317      0.013010039920972    65.5892316523609     0.994693821017172    -0.68242137177737    0.994693821017172    -0.68242137177737    0.013010039920972    65.5892316523609     
3.4367709453519      0.013121869859196    65.7534948338231     0.994683288462642    -0.689187593275927   0.994683288462642    -0.689187593275927   0.013121869859196    65.7534948338231     
3.47088155001272     0.013234906291893    65.9166312936737     0.994672682908639    -0.69602085803212    0.994672682908639    -0.69602085803212    0.013234906291893    65.9166312936737     
3.50533070890622     0.013349160736139    66.0786413867545     0.994662003577142    -0.702921829502674   0.994662003577142    -0.702921829502674   0.013349160736139    66.0786413867545     
3.5401217822475      0.013464644819       66.2395256032782     0.994651249677981    -0.709891177691704   0.994651249677981    -0.709891177691704   0.013464644819       66.2395256032782     
3.57525816360242     0.01358137027873     66.3992845657074     0.994640420408618    -0.71692957921478    0.994640420408618    -0.71692957921478    0.01358137027873     66.3992845657074     
3.61074328021863     0.013699348965992    66.5579190256481     0.994629514953898    -0.724037717363814   0.994629514953898    -0.724037717363814   0.013699348965992    66.5579190256481     
3.64658059335985     0.013818592845082    66.7154298607509     0.994618532485859    -0.731216282172408   0.994618532485859    -0.731216282172408   0.013818592845082    66.7154298607509     
3.68277359864353     0.013939113995168    66.8718180716317     0.994607472163423    -0.738465970481914   0.994607472163423    -0.738465970481914   0.013939113995168    66.8718180716317     
3.71932582638175     0.014060924611535    67.0270847788019     0.994596333132234    -0.745787486008108   0.994596333132234    -0.745787486008108   0.014060924611535    67.0270847788019     
3.75624084192565     0.014184037006839    67.1812312196213     0.994585114524358    -0.753181539408534   0.994585114524358    -0.753181539408534   0.014184037006839    67.1812312196213     
3.79352224601312     0.014308463612378    67.3342587452638     0.99457381545803     -0.760648848350398   0.99457381545803     -0.760648848350398   0.014308463612378    67.3342587452638     
3.83117367512007     0.014434216979366    67.4861688177084     0.994562435037446    -0.768190137579259   0.994562435037446    -0.768190137579259   0.014434216979366    67.4861688177084     
3.86919880181515     0.014561309780222    67.6369630067464     0.994550972352432    -0.775806138988232   0.994550972352432    -0.775806138988232   0.014561309780222    67.6369630067464     
3.9076013351179      0.014689754809868    67.7866429870143     0.99453942647822     -0.783497591687962   0.99453942647822     -0.783497591687962   0.014689754809868    67.7866429870143     
3.94638502086063     0.014819564987034    67.9352105350485     0.99452779647518     -0.791265242077216   0.99452779647518     -0.791265242077216   0.014819564987034    67.9352105350485     
3.98555364205374     0.014950753355584    68.0826675263646     0.994516081388503    -0.799109843914136   0.994516081388503    -0.799109843914136   0.014950753355584    68.0826675263646     
4.02511101925469     0.015083333085836    68.2290159325629     0.994504280247968    -0.807032158388256   0.994504280247968    -0.807032158388256   0.015083333085836    68.2290159325629     
4.06506101094075     0.015217317475911    68.3742578184599     0.994492392067611    -0.815032954193089   0.994492392067611    -0.815032954193089   0.015217317475911    68.3742578184599     
4.10540751388527     0.015352719953079    68.518395339247      0.994480415845447    -0.823113007599469   0.994480415845447    -0.823113007599469   0.015352719953079    68.518395339247      
4.14615446353785     0.015489554075123    68.6614307376792     0.994468350563177    -0.831273102529652   0.994468350563177    -0.831273102529652   0.015489554075123    68.6614307376792     
4.18730583440814     0.015627833531711    68.80336634129       0.994456195185876    -0.839514030631994   0.994456195185876    -0.839514030631994   0.015627833531711    68.80336634129       
4.22886564045358     0.015767572145781    68.9442045596396     0.994443948661668    -0.847836591356431   0.994443948661668    -0.847836591356431   0.015767572145781    68.9442045596396     
4.27083793547089     0.015908783874934    69.0839478815906     0.994431609921424    -0.856241592030658   0.994431609921424    -0.856241592030658   0.015908783874934    69.0839478815906     
4.31322681349149     0.016051482812844    69.2225988726167     0.994419177878443    -0.86472984793702    0.994419177878443    -0.86472984793702    0.016051482812844    69.2225988726167     
4.35603640918084     0.016195683190672    69.3601601721435     0.994406651428099    -0.873302182390177   0.994406651428099    -0.873302182390177   0.016195683190672    69.3601601721435     
4.39927089824176     0.016341399378497    69.4966344909194     0.994394029447517    -0.88195942681539    0.994394029447517    -0.88195942681539    0.016341399378497    69.4966344909194     
4.44293449782168     0.016488645886759    69.6320246084229     0.994381310795244    -0.890702420827735   0.994381310795244    -0.890702420827735   0.016488645886759    69.6320246084229     
4.48703146692405     0.016637437367704    69.7663333702995     0.994368494310852    -0.899532012311871   0.994368494310852    -0.899532012311871   0.016637437367704    69.7663333702995     
4.53156610682372     0.016787788616856    69.8995636858349     0.994355578814638    -0.908449057502725   0.994355578814638    -0.908449057502725   0.016787788616856    69.8995636858349     
4.57654276148651     0.016939714574488    70.0317185254614     0.994342563107233    -0.917454421066838   0.994342563107233    -0.917454421066838   0.016939714574488    70.0317185254614     
4.62196581799294     0.017093230327112    70.1628009182988     0.994329445969224    -0.92654897618454    0.994329445969224    -0.92654897618454    0.017093230327112    70.1628009182988     
4.66783970696613     0.017248351108976    70.29281394973       0.994316226160777    -0.935733604632843   0.994316226160777    -0.935733604632843   0.017248351108976    70.29281394973       
4.71416890300398     0.017405092303578    70.4217607590106     0.994302902421253    -0.945009196869156   0.994302902421253    -0.945009196869156   0.017405092303578    70.4217607590106     
4.76095792511561     0.017563469445191    70.5496445369161     0.994289473468844    -0.95437665211585    0.994289473468844    -0.95437665211585    0.017563469445191    70.5496445369161     
4.80821133716218     0.017723498220393    70.6764685234215     0.994275938000129    -0.963836878445449   0.994275938000129    -0.963836878445449   0.017723498220393    70.6764685234215     
4.85593374830204     0.017885194469625    70.8022360054183     0.994262294689679    -0.973390792866814   0.994262294689679    -0.973390792866814   0.017885194469625    70.8022360054183     
4.9041298134403      0.018048574188743    70.9269503144664     0.994248542189639    -0.983039321411978   0.994248542189639    -0.983039321411978   0.018048574188743    70.9269503144664     
4.95280423368289     0.018213653530599    71.0506148245811     0.994234679129338    -0.992783399223978   0.994234679129338    -0.992783399223978   0.018213653530599    71.0506148245811     
5.00196175679512     0.018380448806622    71.1732329500569     0.994220704114784    -1.00262397064527    0.994220704114784    -1.00262397064527    0.018380448806622    71.1732329500569     
5.05160717766476     0.018548976488421    71.2948081433259     0.994206615728279    -1.01256198930721    0.994206615728279    -1.01256198930721    0.018548976488421    71.2948081433259     
5.10174533876977     0.018719253209397    71.4153438928517     0.994192412527983    -1.02259841822024    0.994192412527983    -1.02259841822024    0.018719253209397    71.4153438928517     
5.1523811306506      0.018891295766364    71.5348437210604     0.994178093047374    -1.03273422986493    0.994178093047374    -1.03273422986493    0.018891295766364    71.5348437210604     
5.20351949238727     0.019065121121193    71.6533111823053     0.994163655794859    -1.04297040628389    0.994163655794859    -1.04297040628389    0.019065121121193    71.6533111823053     
5.25516541208108     0.019240746402462    71.7707498608679     0.994149099253267    -1.05330793917458    0.994149099253267    -1.05330793917458    0.019240746402462    71.7707498608679     
5.30732392734121     0.019418188907118    71.8871633689936     0.994134421879354    -1.06374782998291    0.994134421879354    -1.06374782998291    0.019418188907118    71.8871633689936     
5.36000012577604     0.019597466102159    72.0025553449635     0.994119622103337    -1.07429108999777    0.994119622103337    -1.07429108999777    0.019597466102159    72.0025553449635     
5.41319914548946     0.019778595626327    72.1169294511998     0.994104698328336    -1.08493874044635    0.994104698328336    -1.08493874044635    0.019778595626327    72.1169294511998     
5.46692617558199     0.019961595291811    72.2302893724073     0.994089648929925    -1.09569181259053    0.994089648929925    -1.09569181259053    0.019961595291811    72.2302893724073     
5.52118645665697     0.020146483085965    72.3426388137477     0.994074472255549    -1.10655134782394    0.994074472255549    -1.10655134782394    0.020146483085965    72.3426388137477     
5.57598528133174     0.020333277173049    72.4539814990503     0.994059166624006    -1.11751839777005    0.994059166624006    -1.11751839777005    0.020333277173049    72.4539814990503     
5.63132799475385     0.02052199589597     72.5643211690554     0.994043730324927    -1.12859402438123    0.994043730324927    -1.12859402438123    0.02052199589597     72.5643211690554     
5.68721999512246     0.020712657778045    72.6736615796912     0.994028161618187    -1.13977930003852    0.994028161618187    -1.13977930003852    0.020712657778045    72.6736615796912     
5.74366673421489     0.020905281524779    72.782006500385      0.994012458733335    -1.1510753076525     0.994012458733335    -1.1510753076525     0.020905281524779    72.782006500385      
5.80067371791837     0.021099886025657    72.8893597124078     0.993996619869054    -1.16248314076504    0.993996619869054    -1.16248314076504    0.021099886025657    72.8893597124078     
5.85824650676714     0.021296490355943    72.9957250072509     0.993980643192532    -1.17400390365197    0.993980643192532    -1.17400390365197    0.021296490355943    72.9957250072509     
5.91639071648475     0.021495113778505    73.1011061850354     0.993964526838857    -1.18563871142667    0.993964526838857    -1.18563871142667    0.021495113778505    73.1011061850354     
5.97511201853191     0.021695775745648    73.2055070529544     0.993948268910442    -1.1973886901447     0.993948268910442    -1.1973886901447     0.021695775745648    73.2055070529544     
6.03441614065966     0.021898495900961    73.3089314237468     0.993931867476363    -1.20925497690929    0.993931867476363    -1.20925497690929    0.021898495900961    73.3089314237468     
6.09430886746803     0.022103294081185    73.411383114202      0.993915320571757    -1.22123871997785    0.993915320571757    -1.22123871997785    0.022103294081185    73.411383114202      
6.15479604097031     0.022310190318089    73.5128659436973     0.99389862619712     -1.23334107886947    0.99389862619712     -1.23334107886947    0.022310190318089    73.5128659436973     
6.2158835611629      0.022519204840364    73.6133837327642     0.993881782317693    -1.24556322447327    0.993881782317693    -1.24556322447327    0.022519204840364    73.6133837327642     
6.27757738660077     0.022730358075537    73.7129403016868     0.99386478686276     -1.257906339158      0.99386478686276     -1.257906339158      0.022730358075537    73.7129403016868     
6.33988353497869     0.022943670651891    73.8115394691292     0.993847637724995    -1.27037161688235    0.993847637724995    -1.27037161688235    0.022943670651891    73.8115394691292     
6.40280808371819     0.023159163400405    73.9091850507931     0.993830332759687    -1.28296026330641    0.993830332759687    -1.28296026330641    0.023159163400405    73.9091850507931     
6.46635717056035     0.023376857356717    74.0058808581042     0.993812869784104    -1.29567349590416    0.993812869784104    -1.29567349590416    0.023376857356717    74.0058808581042     
6.53053699416452     0.023596773763086    74.1016306969276     0.99379524657671     -1.30851254407687    0.99379524657671     -1.30851254407687    0.023596773763086    74.1016306969276     
6.59535381471291     0.023818934070389    74.1964383663121     0.993777460876469    -1.32147864926767    0.993777460876469    -1.32147864926767    0.023818934070389    74.1964383663121     
6.66081395452122     0.024043359940116    74.2903076572612     0.993759510382026    -1.33457306507698    0.993759510382026    -1.33457306507698    0.024043359940116    74.2903076572612     
6.72692379865535     0.024270073246395    74.3832423515336     0.993741392750977    -1.34779705737913    0.993741392750977    -1.34779705737913    0.024270073246395    74.3832423515336     
6.79368979555418     0.024499096078027    74.4752462204688     0.99372310559907     -1.36115190443993    0.99372310559907     -1.36115190443993    0.024499096078027    74.4752462204688     
6.86111845765859     0.024730450740533    74.5663230238415     0.993704646499414    -1.37463889703538    0.993704646499414    -1.37463889703538    0.024730450740533    74.5663230238415     
6.92921636204664     0.02496415975823     74.6564765087397     0.993686012981634    -1.38825933857131    0.993686012981634    -1.38825933857131    0.02496415975823     74.6564765087397     
6.99799015107518     0.025200245876306    74.7457104084721     0.99366720253104     -1.40201454520422    0.99366720253104     -1.40201454520422    0.025200245876306    74.7457104084721     
7.06744653302768     0.02543873206293     74.8340284414973     0.993648212587807    -1.41590584596313    0.993648212587807    -1.41590584596313    0.02543873206293     74.8340284414973     
7.13759228276861     0.025679641511362    74.9214343103811     0.993629040546074    -1.42993458287257    0.993629040546074    -1.42993458287257    0.025679641511362    74.9214343103811     
7.20843424240427     0.025922997642092    75.0079317007758     0.993609683753069    -1.44410211107648    0.993609683753069    -1.44410211107648    0.025922997642092    75.0079317007758     
7.27997932195014     0.02616882410499     75.0935242804264     0.993590139508213    -1.45840979896352    0.993590139508213    -1.45840979896352    0.02616882410499     75.0935242804264     
7.35223450000494     0.026417144781471    75.1782156981971     0.9935704050622      -1.47285902829314    0.9935704050622      -1.47285902829314    0.026417144781471    75.1782156981971     
7.42520682443129     0.026667983786683    75.2620095831248     0.993550477616044    -1.48745119432305    0.993550477616044    -1.48745119432305    0.026667983786683    75.2620095831248     
7.4989034130432      0.026921365471707    75.3449095434925     0.993530354320141    -1.50218770593761    0.993530354320141    -1.50218770593761    0.026921365471707    75.3449095434925     
7.57333145430033     0.027177314425776    75.4269191659265     0.993510032273297    -1.51706998577741    0.993510032273297    -1.51706998577741    0.027177314425776    75.4269191659265     
7.64849820800917     0.027435855478512    75.5080420145153     0.99348950852173     -1.53209947037008    0.99348950852173     -1.53209947037008    0.027435855478512    75.5080420145153     
7.72441100603117     0.027697013702178    75.5882816299502     0.993468780058049    -1.54727761026203    0.993468780058049    -1.54727761026203    0.027697013702178    75.5882816299502     
7.80107725299788     0.027960814413949    75.6676415286872     0.993447843820216    -1.5626058701515     0.993447843820216    -1.5626058701515     0.027960814413949    75.6676415286872     
7.87850442703326     0.028227283178198    75.7461252021284     0.993426696690549    -1.57808572902277    0.993426696690549    -1.57808572902277    0.028227283178198    75.7461252021284     
7.95670008048305     0.028496445808806    75.8237361158258     0.993405335494568    -1.59371868028138    0.993405335494568    -1.59371868028138    0.028496445808806    75.8237361158258     
8.03567184065144     0.028768328371481    75.900477708703      0.993383756999952    -1.60950623189064    0.993383756999952    -1.60950623189064    0.028768328371481    75.900477708703      
8.1154274105451      0.029042957186099    75.9763533922975     0.993361957915442    -1.62544990650934    0.993361957915442    -1.62544990650934    0.029042957186099    75.9763533922975     
8.19597456962449     0.029320358829062    76.0513665500219     0.993339934889647    -1.64155124163045    0.993339934889647    -1.64155124163045    0.029320358829062    76.0513665500219     
8.27732117456267     0.029600560135677    76.1255205364432     0.993317684509935    -1.65781178972126    0.993317684509935    -1.65781178972126    0.029600560135677    76.1255205364432     
8.3594751600117      0.029883588202543    76.1988186765812     0.993295203301243    -1.67423311836453    0.993295203301243    -1.67423311836453    0.029883588202543    76.1988186765812     
8.44244453937658     0.03016947038997     76.2712642652242     0.993272487724846    -1.69081681040084    0.993272487724846    -1.69081681040084    0.03016947038997     76.2712642652242     
8.52623740559683     0.030458234324401    76.3428605662617     0.993249534177187    -1.70756446407231    0.993249534177187    -1.70756446407231    0.030458234324401    76.3428605662617     
8.61086193193599     0.030749907900865    76.4136108120356     0.993226338988568    -1.72447769316728    0.993226338988568    -1.72447769316728    0.030749907900865    76.4136108120356     
8.69632637277875     0.031044519285436    76.4835182027065     0.99320289842192     -1.74155812716643    0.99320289842192     -1.74155812716643    0.031044519285436    76.4835182027065     
8.78263906443615     0.03134209691772     76.5525859056375     0.993179208671464    -1.75880741138995    0.993179208671464    -1.75880741138995    0.03134209691772     76.5525859056375     
8.86980842595872     0.031642669513355    76.6208170547927     0.993155265861427    -1.77622720714608    0.993155265861427    -1.77622720714608    0.031642669513355    76.6208170547927     
8.95784295995763     0.031946266066528    76.6882147501528     0.993131066044692    -1.79381919188081    0.993131066044692    -1.79381919188081    0.031946266066528    76.6882147501528     
9.04675125343411     0.032252915852513    76.7547820571444     0.993106605201372    -1.81158505932873    0.993106605201372    -1.81158505932873    0.032252915852513    76.7547820571444     
9.136541978617       0.032562648430223    76.8205220060848     0.993081879237471    -1.82952651966532    0.993081879237471    -1.82952651966532    0.032562648430223    76.8205220060848     
9.22722389380866     0.032875493644787    76.8854375916412     0.993056883983413    -1.8476452996603     0.993056883983413    -1.8476452996603     0.032875493644787    76.8854375916412     
9.31880584423926     0.033191481630137    76.9495317723044     0.993031615192618    -1.86594314283236    0.993031615192618    -1.86594314283236    0.033191481630137    76.9495317723044     
9.41129676292957     0.033510642811617    77.0128074698747     0.993006068539994    -1.88442180960509    0.993006068539994    -1.88442180960509    0.033510642811617    77.0128074698747     
9.50470567156227     0.033833007908609    77.0752675689634     0.992980239620421    -1.90308307746409    0.992980239620421    -1.90308307746409    0.033833007908609    77.0752675689634     
9.59904168136198     0.03415860793718     77.1369149165056     0.992954123947252    -1.9219287411156     0.992954123947252    -1.9219287411156     0.03415860793718     77.1369149165056     
9.69431399398394     0.034487474212739    77.1977523212866     0.992927716950666    -1.94096061264603    0.992927716950666    -1.94096061264603    0.034487474212739    77.1977523212866     
9.79053190241157     0.034819638352722    77.2577825534802     0.992901013976149    -1.96018052168313    0.992901013976149    -1.96018052168313    0.034819638352722    77.2577825534802     
9.88770479186291     0.035155132279288    77.3170083441995     0.992874010282806    -1.97959031555819    0.992874010282806    -1.97959031555819    0.035155132279288    77.3170083441995     
9.98584214070609     0.035493988222033    77.3754323850593     0.992846701041715    -1.99919185946957    0.992846701041715    -1.99919185946957    0.035493988222033    77.3754323850593     
10.0849535213838     0.035836238720725    77.4330573277497     0.992819081334244    -2.01898703664765    0.992819081334244    -2.01898703664765    0.035836238720725    77.4330573277497     
10.1850486013471     0.036181916628055    77.4898857836211     0.992791146150292    -2.03897774852086    0.992791146150292    -2.03897774852086    0.036181916628055    77.4898857836211     
10.2861371439984     0.036531055112403    77.5459203232797     0.992762890386559    -2.05916591488312    0.992762890386559    -2.05916591488312    0.036531055112403    77.5459203232797     
10.3882290096435     0.036883687660627    77.6011634761943     0.992734308844734    -2.07955347406258    0.992734308844734    -2.07955347406258    0.036883687660627    77.6011634761943     
10.4913341564538     0.037239848080866    77.6556177303119     0.992705396229674    -2.10014238309161    0.992705396229674    -2.10014238309161    0.037239848080866    77.6556177303119     
10.5954626414375     0.037599570505357    77.7092855316849     0.99267614714754     -2.12093461787811    0.99267614714754     -2.12093461787811    0.037599570505357    77.7092855316849     
10.7006246214203     0.037962889393275    77.7621692841066     0.992646556103884    -2.14193217337803    0.992646556103884    -2.14193217337803    0.037962889393275    77.7621692841066     
10.8068303540364     0.038329839533589    77.8142713487568     0.992616617501736    -2.16313706376943    0.992616617501736    -2.16313706376943    0.038329839533589    77.8142713487568     
10.9140901987292     0.03870045604793     77.8655940438564     0.992586325639586    -2.18455132262744    0.992586325639586    -2.18455132262744    0.03870045604793     77.8655940438564     
11.0224146177612     0.039074774393487    77.9161396443307     0.992555674709454    -2.20617700310109    0.992555674709454    -2.20617700310109    0.039074774393487    77.9161396443307     
11.1318141772351     0.039452830365899    77.965910381481      0.992524658794749    -2.22801617809067    0.992524658794749    -2.22801617809067    0.039452830365899    77.965910381481      
11.2422995481239     0.03983466010219     78.0149084426653     0.992493271868245    -2.25007094042724    0.992493271868245    -2.25007094042724    0.03983466010219     78.0149084426653     
11.3538815073125     0.040220300083698    78.0631359709863     0.992461507789927    -2.2723434030528     0.992461507789927    -2.2723434030528     0.040220300083698    78.0631359709863     
11.4665709386478     0.040609787139031    78.1105950649876     0.992429360304833    -2.29483569920202    0.992429360304833    -2.29483569920202    0.040609787139031    78.1105950649876     
11.5803788340016     0.041003158447039    78.1572877783573     0.992396823040835    -2.31754998258529    0.992396823040835    -2.31754998258529    0.041003158447039    78.1572877783573     
11.6953162943416     0.041400451539796    78.2032161196391     0.992363889506383    -2.34048842757295    0.992363889506383    -2.34048842757295    0.041400451539796    78.2032161196391     
11.811394530815      0.041801704305602    78.2483820519502     0.992330553088237    -2.3636532293809     0.992330553088237    -2.3636532293809     0.041801704305602    78.2483820519502     
11.9286248658417     0.042206954992002    78.2927874927065     0.992296807049108    -2.38704660425754    0.992296807049108    -2.38704660425754    0.042206954992002    78.2927874927065     
12.0470187342187     0.04261624220881     78.3364343133543     0.992262644525259    -2.4106707896718     0.992262644525259    -2.4106707896718     0.04261624220881     78.3364343133543     
12.1665876842356     0.043029604931163    78.3793243391078     0.992228058524142    -2.43452804450277    0.992228058524142    -2.43452804450277    0.043029604931163    78.3793243391078     
12.287343378801      0.043447082502573    78.4214593486943     0.992193041921836    -2.45862064923022    0.992193041921836    -2.45862064923022    0.043447082502573    78.4214593486943     
12.40929759658       0.043868714638009    78.4628410741036     0.992157587460608    -2.4829509061269     0.992157587460608    -2.4829509061269     0.043868714638009    78.4628410741036     
12.5324622331432     0.044294541426979    78.5034712003448     0.99212168774629     -2.50752113945148    0.99212168774629     -2.50752113945148    0.044294541426979    78.5034712003448     
12.6568493021271     0.044724603336632    78.5433513652075     0.992085335245695    -2.53233369564341    0.992085335245695    -2.53233369564341    0.044724603336632    78.5433513652075     
12.7824709364058     0.045158941214877    78.5824831590296     0.992048522283937    -2.55739094351859    0.992048522283937    -2.55739094351859    0.045158941214877    78.5824831590296     
12.9093393892742     0.045597596293506    78.6208681244689     0.992011241041734    -2.58269527446643    0.992011241041734    -2.58269527446643    0.045597596293506    78.6208681244689     
13.037467035644      0.046040610191334    78.6585077562812     0.991973483552598    -2.60824910264818    0.991973483552598    -2.60824910264818    0.046040610191334    78.6585077562812     
13.1668663732497     0.046488024917354    78.6954035011023     0.99193524170009     -2.63405486519656    0.99193524170009     -2.63405486519656    0.046488024917354    78.6954035011023     
13.2975500238687     0.046939882873897    78.731556757235      0.991896507214869    -2.66011502241641    0.991896507214869    -2.66011502241641    0.046939882873897    78.731556757235      
13.4295307345515     0.047396226859806    78.7669688744411     0.991857271671814    -2.68643205798674    0.991857271671814    -2.68643205798674    0.047396226859806    78.7669688744411     
13.5628213788658     0.047857100073623    78.8016411537365     0.991817526487053    -2.71300847916409    0.991817526487053    -2.71300847916409    0.047857100073623    78.8016411537365     
13.6974349581517     0.048322546116784    78.835574847192      0.991777262914876    -2.73984681698669    0.991777262914876    -2.73984681698669    0.048322546116784    78.835574847192      
13.8333846027903     0.048792608996822    78.8687711577373     0.991736472044702    -2.76694962648024    0.991736472044702    -2.76694962648024    0.048792608996822    78.8687711577373     
13.970683573484      0.049267333130582    78.9012312389689     0.991695144797906    -2.79431948686469    0.991695144797906    -2.79431948686469    0.049267333130582    78.9012312389689     
14.1093452625503     0.049746763347446    78.932956194962      0.991653271924581    -2.82195900176213    0.991653271924581    -2.82195900176213    0.049746763347446    78.932956194962      
14.249383195228      0.050230944892556    78.963947080086      0.991610844000305    -2.84987079940577    0.991610844000305    -2.84987079940577    0.050230944892556    78.963947080086      
14.3908110309964     0.050719923430063    78.9942048988235     0.991567851422827    -2.87805753285049    0.991567851422827    -2.87805753285049    0.050719923430063    78.9942048988235     
14.5336425649078     0.051213745046362    79.0237306055922     0.991524284408619    -2.90652188018381    0.991524284408619    -2.90652188018381    0.051213745046362    79.0237306055922     
14.677891728933      0.051712456253347    79.0525251045705     0.991480132989473    -2.93526654473862    0.991480132989473    -2.93526654473862    0.051712456253347    79.0525251045705     
14.8235725933203     0.052216103991668    79.0805892495262     0.991435387008954    -2.96429425530656    0.991435387008954    -2.96429425530656    0.052216103991668    79.0805892495262     
14.9706993679678     0.052724735633993    79.1079238436478     0.991390036118848    -2.99360776635273    0.991390036118848    -2.99360776635273    0.052724735633993    79.1079238436478     
15.1192864038094     0.053238398988267    79.134529639379      0.991344069775453    -3.02320985823114    0.991344069775453    -3.02320985823114    0.053238398988267    79.134529639379      
15.2693481942152     0.053757142300989    79.1604073382554     0.991297477235947    -3.05310333740169    0.991297477235947    -3.05310333740169    0.053757142300989    79.1604073382554     
15.4208993764043     0.054281014260476    79.1855575907447     0.99125024755453     -3.08329103664754    0.99125024755453     -3.08329103664754    0.054281014260476    79.1855575907447     
15.5739547328732     0.054810064000141    79.2099809960886     0.991202369578604    -3.11377581529396    0.991202369578604    -3.11377581529396    0.054810064000141    79.2099809960886     
15.7285291928374     0.055344341101761    79.2336781021477     0.99115383194483     -3.14456055942787    0.99115383194483     -3.14456055942787    0.055344341101761    79.2336781021477     
15.8846378336878     0.055883895598756    79.2566494052479     0.991104623075161    -3.17564818211841    0.991104623075161    -3.17564818211841    0.055883895598756    79.2566494052479     
16.0422958824612     0.056428777979457    79.2788953500306     0.991054731172742    -3.20704162363844    0.991054731172742    -3.20704162363844    0.056428777979457    79.2788953500306     
16.2015187173255     0.056979039190376    79.300416329303      0.991004144217763    -3.23874385168671    0.991004144217763    -3.23874385168671    0.056979039190376    79.300416329303      
16.3623218690802     0.057534730639481    79.3212126838923     0.99095284996327     -3.27075786161132    0.99095284996327     -3.27075786161132    0.057534730639481    79.3212126838923     
16.5247210226706     0.058095904199449    79.3412847025007     0.990900835930834    -3.30308667663345    0.990900835930834    -3.30308667663345    0.058095904199449    79.3412847025007     
16.6887320187182     0.05866261221093     79.3606326215628     0.990848089406186    -3.33573334807236    0.990848089406186    -3.33573334807236    0.05866261221093     79.3606326215628     
16.8543708550657     0.0592349074858      79.3792566251053     0.99079459743477     -3.36870095557073    0.99079459743477     -3.36870095557073    0.0592349074858      79.3792566251053     
17.0216536883372     0.059812843310403    79.3971568446069     0.9907403468172      -3.40199260732116    0.9907403468172      -3.40199260732116    0.059812843310403    79.3971568446069     
17.1905968355148     0.060396473448789    79.4143333588618     0.990685324104626    -3.43561144029293    0.990685324104626    -3.43561144029293    0.060396473448789    79.4143333588618     
17.3612167755294     0.060985852145943    79.4307861938441     0.990629515594081    -3.46956062045977    0.990629515594081    -3.46956062045977    0.060985852145943    79.4307861938441     
17.5335301508684     0.061581034130996    79.4465153225729     0.990572907323633    -3.50384334302789    0.990572907323633    -3.50384334302789    0.061581034130996    79.4465153225729     
17.7075537691994     0.062182074620433    79.4615206649804     0.990515485067567    -3.53846283266492    0.990515485067567    -3.53846283266492    0.062182074620433    79.4615206649804     
17.8833046050088     0.062789029321277    79.4758020877811     0.990457234331366    -3.573422343729      0.990457234331366    -3.573422343729      0.062789029321277    79.4758020877811     
18.0607998012585     0.063401954434272    79.4893594043416     0.99039814034673     -3.60872516049884    0.99039814034673     -3.60872516049884    0.063401954434272    79.4893594043416     
18.2400566710572     0.064020906657033    79.5021923745526     0.990338188066389    -3.64437459740372    0.990338188066389    -3.64437459740372    0.064020906657033    79.5021923745526     
18.4210926993496     0.064645943187194    79.5143007047025     0.990277362158896    -3.68037399925417    0.990277362158896    -3.68037399925417    0.064645943187194    79.5143007047025     
18.6039255446219     0.06527712172552     79.5256840473519     0.990215647003285    -3.71672674147289    0.990215647003285    -3.71672674147289    0.06527712172552     79.5256840473519     
18.788573040624      0.065914500479012    79.5363420012093     0.990153026683668    -3.75343623032596    0.990153026683668    -3.75343623032596    0.065914500479012    79.5363420012093     
18.9750531981091     0.066558138163982    79.5462741110084     0.990089484983724    -3.79050590315429    0.990089484983724    -3.79050590315429    0.066558138163982    79.5462741110084     
19.1633842065908     0.067208094009104    79.5554798673867     0.990025005381062    -3.82793922860532    0.990025005381062    -3.82793922860532    0.067208094009104    79.5554798673867     
19.3535844361168     0.067864427758438    79.5639587067659     0.989959571041544    -3.86573970686458    0.989959571041544    -3.86573970686458    0.067864427758438    79.5639587067659     
19.5456724390613     0.068527199674431    79.5717100112318     0.989893164813448    -3.90391086988773    0.989893164813448    -3.90391086988773    0.068527199674431    79.5717100112318     
19.739666951934      0.069196470540881    79.5787331084176     0.989825769221578    -3.94245628163223    0.989825769221578    -3.94245628163223    0.069196470540881    79.5787331084176     
19.9355868972083     0.069872301665869    79.5850272713872     0.989757366461242    -3.98137953828896    0.989757366461242    -3.98137953828896    0.069872301665869    79.5850272713872     
20.1334513851666     0.070554754884664    79.5905917185202     0.989687938392089    -4.02068426851394    0.989687938392089    -4.02068426851394    0.070554754884664    79.5905917185202     
20.3332797157645     0.071243892562585    79.5954256133981     0.989617466531957    -4.06037413365966    0.989617466531957    -4.06037413365966    0.071243892562585    79.5954256133981     
20.5350913805135     0.071939777597826    79.5995280646912     0.989545932050487    -4.10045282800614    0.989545932050487    -4.10045282800614    0.071939777597826    79.5995280646912     
20.7389060643817     0.072642473424244    79.6028981260482     0.989473315762691    -4.14092407899178    0.989473315762691    -4.14092407899178    0.072642473424244    79.6028981260482     
20.9447436477146     0.073352044014095    79.6055347959858     0.989399598122381    -4.18179164744341    0.989399598122381    -4.18179164744341    0.073352044014095    79.6055347959858     
21.1526242081737     0.074068553880738    79.6074370177802     0.989324759215548    -4.22305932780638    0.989324759215548    -4.22305932780638    0.074068553880738    79.6074370177802     
21.3625680226952     0.074792068081277    79.6086036793598     0.989248778753519    -4.26473094837348    0.989248778753519    -4.26473094837348    0.074792068081277    79.6086036793598     
21.5745955694677     0.075522652219164    79.6090336131995     0.989171636066095    -4.30681037151364    0.989171636066095    -4.30681037151364    0.075522652219164    79.6090336131995     
21.7887275299297     0.07626037244674     79.6087255962166     0.989093310094512    -4.34930149389944    0.989093310094512    -4.34930149389944    0.07626037244674     79.6087255962166     
22.004984790787      0.077005295467732    79.6076783496673     0.989013779384343    -4.39220824673423    0.989013779384343    -4.39220824673423    0.077005295467732    79.6076783496673     
22.2233884460498     0.077757488539674    79.6058905390463     0.988933022078212    -4.43553459597776    0.988933022078212    -4.43553459597776    0.077757488539674    79.6058905390463     
22.4439597990904     0.078517019476286    79.6033607739861     0.988851015908416    -4.47928454257127    0.988851015908416    -4.47928454257127    0.078517019476286    79.6033607739861     
22.6667203647212     0.079283956649775    79.6000876081596     0.988767738189435    -4.52346212266092    0.988767738189435    -4.52346212266092    0.079283956649775    79.6000876081596     
22.891691871293      0.080058368993073    79.5960695391837     0.988683165810298    -4.56807140782036    0.988683165810298    -4.56807140782036    0.080058368993073    79.5960695391837     
23.118896262815      0.080840326002009    79.5913050085241     0.988597275226852    -4.61311650527172    0.988597275226852    -4.61311650527172    0.080840326002009    79.5913050085241     
23.3483557010943     0.081629897737399    79.5857924014035     0.988510042453838    -4.65860155810503    0.988510042453838    -4.65860155810503    0.081629897737399    79.5857924014035     
23.5800925678987     0.082427154827063    79.5795300467099     0.988421443056905    -4.70453074549626    0.988421443056905    -4.70453074549626    0.082427154827063    79.5795300467099     
23.8141294671389     0.083232168467766    79.5725162169083     0.988331452144481    -4.75090828292357    0.988331452144481    -4.75090828292357    0.083232168467766    79.5725162169083     
24.050489227074      0.08404501042707     79.5647491279538     0.988240044359448    -4.79773842238143    0.988240044359448    -4.79773842238143    0.08404501042707     79.5647491279538     
24.2891949025376     0.084865753045093    79.5562269392072     0.988147193870774    -4.84502545259316    0.988147193870774    -4.84502545259316    0.084865753045093    79.5562269392072     
24.5302697771871     0.085694469236195    79.5469477533523     0.988052874364955    -4.89277369922122    0.988052874364955    -4.89277369922122    0.085694469236195    79.5469477533523     
24.7737373657748     0.086531232490544    79.5369096163168     0.987957059037299    -4.9409875250749     0.987957059037299    -4.9409875250749     0.086531232490544    79.5369096163168     
25.0196214164409     0.087376116875608    79.526110517194      0.987859720583154    -4.98967133031641    0.987859720583154    -4.98967133031641    0.087376116875608    79.526110517194      
25.2679459130308     0.088229197037522    79.5145483881689     0.987760831188866    -5.03882955266335    0.987760831188866    -5.03882955266335    0.088229197037522    79.5145483881689     
25.5187350774341     0.089090548202364    79.5022211044453     0.987660362522754    -5.08846666758965    0.987660362522754    -5.08846666758965    0.089090548202364    79.5022211044453     
25.7720133719471     0.089960246177312    79.4891264841773     0.987558285725774    -5.13858718852267    0.987558285725774    -5.13858718852267    0.089960246177312    79.4891264841773     
26.0278055016591     0.090838367351684    79.4752622884025     0.987454571402193    -5.18919566703809    0.987454571402193    -5.18919566703809    0.090838367351684    79.4752622884025     
26.286136416862      0.091724988697861    79.4606262209793     0.98734918960997     -5.24029669305085    0.98734918960997     -5.24029669305085    0.091724988697861    79.4606262209793     
26.5470313154844     0.092620187772085    79.4452159285268     0.987242109851136    -5.29189489500371    0.987242109851136    -5.29189489500371    0.092620187772085    79.4452159285268     
26.8105156455488     0.09352404271512     79.4290290003683     0.987133301061864    -5.34399494005116    0.987133301061864    -5.34399494005116    0.09352404271512     79.4290290003683     
27.0766151076543     0.09443663225279     79.4120629684786     0.987022731602555    -5.39660153424075    0.987022731602555    -5.39660153424075    0.09443663225279     79.4120629684786     
27.3453556574833     0.095358035696364    79.3943153074346     0.986910369247628    -5.44971942268967    0.986910369247628    -5.44971942268967    0.095358035696364    79.3943153074346     
27.6167635083333     0.09628833294281     79.3757834343701     0.986796181175239    -5.50335338975789    0.986796181175239    -5.50335338975789    0.09628833294281     79.3757834343701     
27.8908651336738     0.097227604474886    79.3564647089346     0.98668013395685     -5.5575082592167     0.98668013395685     -5.5575082592167     0.097227604474886    79.3564647089346     
28.1676872697285     0.098175931361074    79.3363564332563     0.986562193546535    -5.61218889441254    0.986562193546535    -5.61218889441254    0.098175931361074    79.3363564332563     
28.4472569180831     0.09913339525537     79.3154558519094     0.986442325270301    -5.66740019842698    0.986442325270301    -5.66740019842698    0.09913339525537     79.3154558519094     
28.7296013483192     0.100100078396886    79.2937601518863     0.986320493815085    -5.72314711423081    0.986320493815085    -5.72314711423081    0.100100078396886    79.2937601518863     
29.0147481006742     0.10107606360929     79.2712664625743     0.986196663217705    -5.77943462483385    0.986196663217705    -5.77943462483385    0.10107606360929     79.2712664625743     
29.3027249887278     0.102061434300063    79.247971855738      0.98607079685357     -5.83626775342878    0.98607079685357     -5.83626775342878    0.102061434300063    79.247971855738      
29.5935601021144     0.103056274459569    79.2238733455055     0.985942857425299    -5.89365156352985    0.985942857425299    -5.89365156352985    0.103056274459569    79.2238733455055     
29.8872818092635     0.104060668659939    79.1989678883622     0.985812806951126    -5.9515911591055     0.985812806951126    -5.9515911591055     0.104060668659939    79.1989678883622     
30.1839187601668     0.105074702053752    79.1732523831482     0.98568060675316     -6.0100916847052     0.98568060675316     -6.0100916847052     0.105074702053752    79.1732523831482     
30.4834998891724     0.106098460372502    79.1467236710631     0.985546217445455    -6.06915832557947    0.985546217445455    -6.06915832557947    0.106098460372502    79.1467236710631     
30.7860544178075     0.10713202992487     79.119378535676      0.985409598921984    -6.12879630779379    0.985409598921984    -6.12879630779379    0.10713202992487     79.119378535676      
31.0916118576283     0.108175497594768    79.091213702943      0.985270710344374    -6.18901089833578    0.985270710344374    -6.18901089833578    0.108175497594768    79.091213702943      
31.4002020130989     0.109228950839149    79.0622258412302     0.985129510129479    -6.24980740521452    0.985129510129479    -6.24980740521452    0.109228950839149    79.0622258412302     
31.7118549844985     0.110292477685593    79.0324115613445     0.984985955936849    -6.3111911775532     0.984985955936849    -6.3111911775532     0.110292477685593    79.0324115613445     
32.026601170857      0.111366166729646    79.0017674165714     0.984840004655948    -6.37316760567354    0.984840004655948    -6.37316760567354    0.111366166729646    79.0017674165714     
32.3444712729208     0.11245010713192     78.9702899027203     0.984691612393289    -6.43574212117311    0.984691612393289    -6.43574212117311    0.11245010713192     78.9702899027203     
32.6654962961467     0.113544388614912    78.9379754581775     0.984540734459309    -6.49892019699287    0.984540734459309    -6.49892019699287    0.113544388614912    78.9379754581775     
32.9897075537267     0.114649101459579    78.904820463968      0.984387325355146    -6.56270734747731    0.984387325355146    -6.56270734747731    0.114649101459579    78.904820463968      
33.3171366696424     0.115764336501634    78.8708212438246     0.984231338759247    -6.62710912842534    0.984231338759247    -6.62710912842534    0.115764336501634    78.8708212438246     
33.647815581749      0.11689018512755     78.8359740642666     0.984072727513745    -6.69213113713179    0.984072727513745    -6.69213113713179    0.11689018512755     78.8359740642666     
33.9817765448913     0.118026739270282    78.8002751346877     0.983911443610711    -6.75777901241898    0.983911443610711    -6.75777901241898    0.118026739270282    78.8002751346877     
34.3190521340493     0.119174091404682    78.7637206074524     0.983747438178278    -6.82405843465897    0.983747438178278    -6.82405843465897    0.119174091404682    78.7637206074524     
34.6596752475163     0.120332334542612    78.7263065780039     0.983580661466488    -6.89097512578497    0.983580661466488    -6.89097512578497    0.120332334542612    78.7263065780039     
35.0036791101069     0.121501562227728    78.6880290849793     0.983411062833122    -6.95853484929269    0.983411062833122    -6.95853484929269    0.121501562227728    78.6880290849793     
35.3510972763987     0.122681868529938    78.6488841103392     0.983238590729174    -7.02674341022904    0.983238590729174    -7.02674341022904    0.122681868529938    78.6488841103392     
35.7019636340045     0.123873348039532    78.608867579504      0.983063192684375    -7.09560665517202    0.983063192684375    -7.09560665517202    0.123873348039532    78.608867579504      
36.0563124068785     0.125076095860941    78.5679753615052     0.98288481529236     -7.16513047219591    0.98288481529236     -7.16513047219591    0.125076095860941    78.5679753615052     
36.4141781586538     0.126290207606158    78.5262032691457     0.98270340419581     -7.23532079082604    0.98270340419581     -7.23532079082604    0.126290207606158    78.5262032691457     
36.7755957960144     0.127515779387784    78.4835470591737     0.982518904071344    -7.30618358198048    0.982518904071344    -7.30618358198048    0.127515779387784    78.4835470591737     
37.1406005720994     0.128752907811681    78.4400024324684     0.982331258614297    -7.37772485789785    0.982331258614297    -7.37772485789785    0.128752907811681    78.4400024324684     
37.5092280899424     0.130001689969253    78.3955650342389     0.982140410523344    -7.44995067205301    0.982140410523344    -7.44995067205301    0.130001689969253    78.3955650342389     
37.8815143059438     0.131262223429305    78.3502304542366     0.98194630148492     -7.52286711905708    0.98194630148492     -7.52286711905708    0.131262223429305    78.3502304542366     
38.2574955333779     0.132534606229515    78.3039942269811     0.981748872157553    -7.59648033454464    0.981748872157553    -7.59648033454464    0.132534606229515    78.3039942269811     
38.6372084459352     0.133818936867441    78.2568518320008     0.981548062155972    -7.67079649504443    0.981548062155972    -7.67079649504443    0.133818936867441    78.2568518320008     
39.0206900812997     0.135115314291134    78.2087986940875     0.981343810035149    -7.74582181783618    0.981343810035149    -7.74582181783618    0.135115314291134    78.2087986940875     
39.4079778447614     0.136423837889271    78.1598301835677     0.981136053274112    -7.82156256079028    0.981136053274112    -7.82156256079028    0.136423837889271    78.1598301835677     
39.7991095128648     0.137744607480834    78.1099416165881     0.980924728259666    -7.89802502219176    0.980924728259666    -7.89802502219176    0.137744607480834    78.1099416165881     
40.1941232370939     0.139077723304324    78.0591282554184     0.980709770269963    -7.97521554054692    0.980709770269963    -7.97521554054692    0.139077723304324    78.0591282554184     
40.5930575475934     0.140423286006479    78.00738530877       0.980491113457956    -8.05314049437339    0.980491113457956    -8.05314049437339    0.140423286006479    78.00738530877       
40.995951356927      0.141781396630487    77.9547079321333     0.980268690834639    -8.13180630197076    0.980268690834639    -8.13180630197076    0.141781396630487    77.9547079321333     
41.4028439638729     0.143152156603706    77.9010912281318     0.980042434252297    -8.21121942117407    0.980042434252297    -8.21121942117407    0.143152156603706    77.9010912281318     
41.8137750572573     0.144535667724826    77.8465302468945     0.979812274387489    -8.29138634908735    0.979812274387489    -8.29138634908735    0.144535667724826    77.8465302468945     
42.2287847198254     0.145932032150526    77.7910199864485     0.979578140724021    -8.37231362179821    0.979578140724021    -8.37231362179821    0.145932032150526    77.7910199864485     
42.6479134321514     0.147341352381543    77.7345553931298     0.979339961535738    -8.45400781407117    0.979339961535738    -8.45400781407117    0.147341352381543    77.7345553931298     
43.0712020765867     0.1487637312482      77.6771313620151     0.979097663869256    -8.53647553902141    0.979097663869256    -8.53647553902141    0.1487637312482      77.6771313620151     
43.4986919412481     0.15019927189533     77.6187427373745     0.978851173526528    -8.61972344776587    0.978851173526528    -8.61972344776587    0.15019927189533     77.6187427373745     
43.9304247240445     0.15164807776662     77.5593843131443     0.978600415047409    -8.70375822905362    0.978600415047409    -8.70375822905362    0.15164807776662     77.5593843131443     
44.3664425367446     0.153110252588324    77.4990508334236     0.978345311692039    -8.78858660887178    0.978345311692039    -8.78858660887178    0.153110252588324    77.4990508334236     
44.8067879090844     0.154585900352362    77.4377369929925     0.978085785423183    -8.87421535002971    0.978085785423183    -8.87421535002971    0.154585900352362    77.4377369929925     
45.2515037929157     0.15607512529878     77.3754374378538     0.977821756888511    -8.96065125171878    0.977821756888511    -8.96065125171878    0.15607512529878     77.3754374378538     
45.7006335663954     0.157578031897527    77.3121467657986     0.977553145402784    -9.04790114904645    0.977553145402784    -9.04790114904645    0.157578031897527    77.3121467657986     
46.154221038217      0.159094724829595    77.2478595269967     0.977279868929987    -9.13597191254678    0.977279868929987    -9.13597191254678    0.159094724829595    77.2478595269967     
46.6123104518836     0.160625308967431    77.1825702246128     0.977001844065412    -9.22487044766295    0.977001844065412    -9.22487044766295    0.160625308967431    77.1825702246128     
47.0749464900234     0.162169889354676    77.1162733154476     0.976718986017724    -9.31460369420503    0.976718986017724    -9.31460369420503    0.162169889354676    77.1162733154476     
47.5421742787481     0.163728571185151    77.048963210607      0.976431208590937    -9.40517862577828    0.976431208590937    -9.40517862577828    0.163728571185151    77.048963210607      
48.0140393920549     0.165301459781138    76.9806342761981     0.976138424166425    -9.49660224918491    0.976138424166425    -9.49660224918491    0.165301459781138    76.9806342761981     
48.4905878562714     0.16688866057087     76.9112808340537     0.975840543684886    -9.58888160379562    0.975840543684886    -9.58888160379562    0.16688866057087     76.9112808340537     
48.9718661545452     0.168490279065283    76.840897162485      0.975537476628354    -9.68202376089287    0.975537476628354    -9.68202376089287    0.168490279065283    76.840897162485      
49.4579212313781     0.170106420833951    76.7694774970659     0.975229131002129    -9.7760358229817     0.975229131002129    -9.7760358229817     0.170106420833951    76.7694774970659     
49.9488004972049     0.171737191480231    76.697016031446      0.974915413316836    -9.87092492307128    0.974915413316836    -9.87092492307128    0.171737191480231    76.697016031446      
50.4445518330181     0.173382696615583    76.6235069181961     0.974596228570439    -9.96669822392325    0.974596228570439    -9.96669822392325    0.173382696615583    76.6235069181961     
50.945223595038      0.175043041833036    76.5489442696854     0.974271480230348    -10.0633629172673    0.974271480230348    -10.0633629172673    0.175043041833036    76.5489442696854     
51.4508646194297     0.17671833267982     76.4733221589917     0.973941070215588    -10.1609262229837    0.973941070215588    -10.1609262229837    0.17671833267982     76.4733221589917     
51.9615242270664     0.178408674629104    76.3966346208452     0.973604898879023    -10.2593953882508    0.973604898879023    -10.2593953882508    0.178408674629104    76.3966346208452     
52.4772522283404     0.180114173050839    76.318875652608      0.97326286498967     -10.3587776866571    0.97326286498967     -10.3587776866571    0.180114173050839    76.318875652608      
52.9980989280216     0.181834933181704    76.2400392152877     0.972914865715167    -10.4590804172776    0.972914865715167    -10.4590804172776    0.181834933181704    76.2400392152877     
53.5241151301643     0.183571060094113    76.1601192345882     0.972560796604279    -10.5603109037128    0.972560796604279    -10.5603109037128    0.183571060094113    76.1601192345882     
54.0553521430628     0.185322658664278    76.0791096019971     0.972200551569665    -10.6624764930902    0.972200551569665    -10.6624764930902    0.185322658664278    76.0791096019971     
54.5918617842558     0.187089833539309    75.9970041759119     0.971834022870691    -10.7655845550263    0.971834022870691    -10.7655845550263    0.187089833539309    75.9970041759119     
55.133696385581      0.188872689103334    75.9137967828049     0.971461101096493    -10.8696424805499    0.971461101096493    -10.8696424805499    0.188872689103334    75.9137967828049     
55.6809087982795     0.190671329442608    75.8294812184277     0.971081675149201    -10.9746576809836    0.971081675149201    -10.9746576809836    0.190671329442608    75.8294812184277     
56.2335523981509     0.192485858309617    75.744051249057      0.97069563222738     -11.0806375867852    0.97069563222738     -11.0806375867852    0.192485858309617    75.744051249057      
56.7916810907602     0.194316379086146    75.6575006127818     0.970302857809743    -11.1875896463455    0.970302857809743    -11.1875896463455    0.194316379086146    75.6575006127818     
57.3553493166948     0.196162994745287    75.5698230208322     0.969903235639111    -11.2955213247443    0.969903235639111    -11.2955213247443    0.196162994745287    75.5698230208322     
57.9246120568756     0.198025807812379    75.4810121589547     0.969496647706604    -11.4044401024601    0.969496647706604    -11.4044401024601    0.198025807812379    75.4810121589547     
58.4995248379195     0.199904920324863    75.3910616888284     0.969082974236204    -11.5143534740366    0.969082974236204    -11.5143534740366    0.199904920324863    75.3910616888284     
59.0801437375557     0.201800433791036    75.2999652495288     0.968662093669631    -11.6252689467024    0.968662093669631    -11.6252689467024    0.201800433791036    75.2999652495288     
59.6665253900954     0.203712449147671    75.2077164590375     0.968233882651547    -11.7371940389428    0.968233882651547    -11.7371940389428    0.203712449147671    75.2077164590375     
60.2587269919562     0.205641066716516    75.1143089157995     0.967798216015139    -11.8501362790254    0.967798216015139    -11.8501362790254    0.205641066716516    75.1143089157995     
60.856806307241      0.20758638615962     75.0197362003274     0.967354966768166    -11.9641032034753    0.967354966768166    -11.9641032034753    0.20758638615962     75.0197362003274     
61.4608216733723     0.209548506433509    74.9239918768565     0.96690400607937     -12.0791023555009    0.96690400607937     -12.0791023555009    0.209548506433509    74.9239918768565     
62.0708320067827     0.211527525742158    74.8270694950492     0.966445203265384    -12.1951412833696    0.966445203265384    -12.1951412833696    0.211527525742158    74.8270694950492     
62.6868968086616     0.213523541488767    74.7289625917505     0.96597842577813     -12.31222753873      0.96597842577813     -12.31222753873      0.213523541488767    74.7289625917505     
63.3090761707589     0.21553665022633     74.6296646927956     0.965503539192728    -12.4303686748836    0.965503539192728    -12.4303686748836    0.21553665022633     74.6296646927956     
63.9374307812467     0.217566947606953    74.5291693148712     0.965020407195955    -12.5495722450007    0.965020407195955    -12.5495722450007    0.217566947606953    74.5291693148712     
64.5720219306385     0.21961452832995     74.4274699674292     0.964528891575328    -12.6698458002834    0.964528891575328    -12.6698458002834    0.21961452832995     74.4274699674292     
65.2129115177682     0.221679486088664    74.3245601546571     0.964028852208739    -12.791196888072     0.964028852208739    -12.791196888072     0.221679486088664    74.3245601546571     
65.8601620558268     0.223761913516026    74.2204333775031     0.963520147054812    -12.9136330498954    0.963520147054812    -12.9136330498954    0.223761913516026    74.2204333775031     
66.5138366784612     0.225861902128825    74.115083135758      0.963002632143879    -13.0371618194638    0.963002632143879    -13.0371618194638    0.225861902128825    74.115083135758      
67.1739991459313     0.227979542270683    74.0085029301953     0.962476161569763    -13.1617907206036    0.962476161569763    -13.1617907206036    0.227979542270683    74.0085029301953     
67.8407138513299     0.23011492305373     73.9006862647696     0.961940587482214    -13.2875272651319    0.961940587482214    -13.2875272651319    0.23011492305373     73.9006862647696     
68.5140458268635     0.232268132298968    73.7916266488742     0.961395760080264    -13.4143789506727    0.961395760080264    -13.4143789506727    0.232268132298968    73.7916266488742     
69.1940607501955     0.234439256475288    73.6813175996602     0.96084152760631     -13.5423532584101    0.96084152760631     -13.5423532584101    0.234439256475288    73.6813175996602     
69.8808249508527     0.236628380637181    73.5697526444146     0.960277736341165    -13.6714576507814    0.960277736341165    -13.6714576507814    0.236628380637181    73.5697526444146     
70.5744054166949     0.238835588361095    73.4569253230034     0.959704230599967    -13.801699569106     0.959704230599967    -13.801699569106     0.238835588361095    73.4569253230034     
71.2748698004494     0.241060961680451    73.3428291903753     0.959120852729056    -13.9330864311516    0.959120852729056    -13.9330864311516    0.241060961680451    73.3428291903753     
71.9822864263093     0.243304581019301    73.2274578191301     0.958527443103916    -14.065625628636     0.958527443103916    -14.065625628636     0.243304581019301    73.2274578191301     
72.6967242965986     0.245566525124645    73.1108048021516     0.957923840128092    -14.1993245246635    0.957923840128092    -14.1993245246635    0.245566525124645    73.1108048021516     
73.4182530985025     0.247846870997376    72.9928637553054     0.957309880233217    -14.3341904510951    0.957309880233217    -14.3341904510951    0.247846870997376    72.9928637553054     
74.1469432108644     0.250145693821866    72.8736283202038     0.956685397880204    -14.4702307058524    0.956685397880204    -14.4702307058524    0.250145693821866    72.8736283202038     
74.8828657110515     0.252463066894226    72.7530921670359     0.95605022556164     -14.6074525501552    0.95605022556164     -14.6074525501552    0.252463066894226    72.7530921670359     
75.6260923818872     0.254799061549152    72.631248997466      0.955404193805337    -14.7458632056883    0.955404193805337    -14.7458632056883    0.254799061549152    72.631248997466      
76.376695718653      0.257153747085467    72.5080925476005     0.954747131179263    -14.8854698517024    0.954747131179263    -14.8854698517024    0.257153747085467    72.5080925476005     
77.13474893616       0.259527190690285    72.3836165910222     0.954078864297717    -15.0262796220444    0.954078864297717    -15.0262796220444    0.259527190690285    72.3836165910222     
77.90032597589       0.26191945736185     72.2578149418951     0.953399217828972    -15.1682996021178    0.953399217828972    -15.1682996021178    0.26191945736185     72.2578149418951     
78.6735015132083     0.264330609831035    72.1306814581378     0.952708014504321    -15.3115368257739    0.952708014504321    -15.3115368257739    0.264330609831035    72.1306814581378     
79.4543509646471     0.266760708481494    72.0022100446686     0.952005075128549    -15.4559982721298    0.952005075128549    -15.4559982721298    0.266760708481494    72.0022100446686     
80.2429504952625     0.26920981126854     71.8723946567194     0.951290218592066    -15.6016908623182    0.951290218592066    -15.6016908623182    0.26920981126854     71.8723946567194     
81.0393770260626     0.271677973636693    71.7412293032219     0.950563261884548    -15.7486214561628    0.950563261884548    -15.7486214561628    0.271677973636693    71.7412293032219     
81.8437082415116     0.274165248435955    71.608708050266      0.949824020110244    -15.8967968487834    0.949824020110244    -15.8967968487834    0.274165248435955    71.608708050266      
82.6560225971067     0.276671685836828    71.4748250246263     0.949072306505026    -16.0462237671286    0.949072306505026    -16.0462237671286    0.276671685836828    71.4748250246263     
83.4763993270307     0.279197333244072    71.3395744173655     0.948307932455149    -16.1969088664351    0.948307932455149    -16.1969088664351    0.279197333244072    71.3395744173655     
84.3049184518806     0.281742235209241    71.2029504875054     0.947530707517856    -16.3488587266151    0.947530707517856    -16.3488587266151    0.281742235209241    71.2029504875054     
85.1416607864735     0.284306433342051    71.0649475657721     0.946740439443897    -16.502079848572     0.946740439443897    -16.502079848572     0.284306433342051    71.0649475657721     
85.9867079477283     0.286889966220533    70.9255600584132     0.945936934201873    -16.6565786504408    0.945936934201873    -16.6565786504408    0.286889966220533    70.9255600584132     
86.8401423626277     0.289492869300092    70.7847824510859     0.945119996004703    -16.8123614637596    0.945119996004703    -16.8123614637596    0.289492869300092    70.7847824510859     
87.7020472762581     0.292115174821422    70.6426093128185     0.944289427338026    -16.9694345295645    0.944289427338026    -16.9694345295645    0.292115174821422    70.6426093128185     
88.5725067599286     0.294756911717381    70.4990353000425     0.943445028990788    -17.1278039944161    0.943445028990788    -17.1278039944161    0.294756911717381    70.4990353000425     
89.4516057193723     0.297418105518822    70.3540551606953     0.942586600087972    -17.2874759063516    0.942586600087972    -17.2874759063516    0.297418105518822    70.3540551606953     
90.3394299030279     0.300098778259425    70.2076637383964     0.941713938125509    -17.448456210766     0.941713938125509    -17.448456210766     0.300098778259425    70.2076637383964     
91.2360659104039     0.302798948379616    70.0598559766905     0.940826839007571    -17.610750746224     0.940826839007571    -17.610750746224     0.302798948379616    70.0598559766905     
92.1416012005246     0.305518630629544    69.910626923364      0.939925097086068    -17.7743652401976    0.939925097086068    -17.7743652401976    0.305518630629544    69.910626923364      
93.0561241004626     0.308257835971263    69.7599717348276     0.939008505202695    -17.939305304739     0.939008505202695    -17.939305304739     0.308257835971263    69.7599717348276     
93.9797238139529     0.31101657148008     69.6078856805687     0.938076854733315    -18.1055764320799    0.938076854733315    -18.1055764320799    0.31101657148008     69.6078856805687     
94.9124904300947     0.313794840245191    69.4543641476723     0.937129935634925    -18.2731839901658    0.937129935634925    -18.2731839901658    0.313794840245191    69.4543641476723     
95.8545149321387     0.316592641269659    69.2994026454055     0.936167536495164    -18.4421332181227    0.936167536495164    -18.4421332181227    0.316592641269659    69.2994026454055     
96.8058892063616     0.319409969369757    69.1429968098693     0.935189444584479    -18.612429221657     0.935189444584479    -18.612429221657     0.319409969369757    69.1429968098693     
97.7667060510288     0.32224681507378     68.9851424087156     0.9341954459109      -18.7840769683908    0.9341954459109      -18.7840769683908    0.32224681507378     68.9851424087156     
98.7370591854462     0.325103164520427    68.8258353459222     0.933185325277704    -18.9570812831366    0.933185325277704    -18.9570812831366    0.325103164520427    68.8258353459222     
99.7170432591016     0.327978999356727    68.6650716666361     0.932158866343652    -19.1314468431048    0.932158866343652    -19.1314468431048    0.327978999356727    68.6650716666361     
100.706753860897     0.330874296635743    68.5028475620681     0.931115851686302    -19.3071781730589    0.931115851686302    -19.3071781730589    0.330874296635743    68.5028475620681     
101.706287528472     0.333789028713958    68.3391593744524     0.930056062868017    -19.4842796404034    0.930056062868017    -19.4842796404034    0.333789028713958    68.3391593744524     
102.715741757621     0.336723163148604    68.1740036020578     0.928979280505054    -19.6627554502234    0.928979280505054    -19.6627554502234    0.336723163148604    68.1740036020578     
103.735215011803     0.339676662594891    68.0073769042544     0.927885284339561    -19.8426096402639    0.927885284339561    -19.8426096402639    0.339676662594891    68.0073769042544     
104.764806731746     0.342649484703314    67.8392761066309     0.926773853314649    -20.0238460758604    0.926773853314649    -20.0238460758604    0.342649484703314    67.8392761066309     
105.804617345143     0.345641582017113    67.6696982061617     0.925644765652542    -20.2064684448187    0.925644765652542    -20.2064684448187    0.345641582017113    67.6696982061617     
106.854748276456     0.348652901869968    67.4986403764209     0.924497798935813    -20.3904802522464    0.924497798935813    -20.3904802522464    0.348652901869968    67.4986403764209     
107.915301956799     0.351683386284066    67.3260999728408     0.923332730191797    -20.5758848153414    0.923332730191797    -20.5758848153414    0.351683386284066    67.3260999728408     
108.986381833937     0.354732971868654    67.1520745380096     0.922149335980213    -20.762685258137     0.922149335980213    -20.762685258137     0.354732971868654    67.1520745380096     
110.068092382375     0.35780158971918     66.9765618070099     0.920947392484015    -20.9508845062102    0.920947392484015    -20.9508845062102    0.35780158971918     66.9765618070099     
111.160539113543     0.360889165317124    66.7995597127913     0.919726675603438    -21.1404852813512    0.919726675603438    -21.1404852813512    0.360889165317124    66.7995597127913     
112.263828586097     0.363995618430704    66.6210663915735     0.918486961053397    -21.3314900962044    0.918486961053397    -21.3314900962044    0.363995618430704    66.6210663915735     
113.378068416304     0.36712086301651     66.4410801882807     0.917228024464168    -21.5239012488767    0.917228024464168    -21.5239012488767    0.36712086301651     66.4410801882807     
114.503367288545     0.370264807122273    66.2595996619971     0.91594964148538     -21.7177208175235    0.91594964148538     -21.7177208175235    0.370264807122273    66.2595996619971     
115.639834965914     0.373427352790839    66.0766235914462     0.914651587893369    -21.9129506549122    0.914651587893369    -21.9129506549122    0.373427352790839    66.0766235914462     
116.787582300923     0.376608395965543    65.8921509804846     0.91333363970185     -22.1095923829678    0.91333363970185     -22.1095923829678    0.376608395965543    65.8921509804846     
117.946721246318     0.379807826397079    65.7061810636108     0.911995573276002    -22.3076473873063    0.911995573276002    -22.3076473873063    0.379807826397079    65.7061810636108     
119.117364865996     0.383025527552071    65.518713311479      0.910637165449851    -22.5071168117591    0.910637165449851    -22.5071168117591    0.383025527552071    65.518713311479      
120.299627346037     0.386261376523445    65.3297474364192     0.909258193647074    -22.708001552893     0.909258193647074    -22.708001552893     0.386261376523445    65.3297474364192     
121.493624005836     0.38951524394277     65.1392833979558     0.907858436005092    -22.9103022545304    0.907858436005092    -22.9103022545304    0.38951524394277     65.1392833979558     
122.699471309357     0.39278699389477     64.9473214083184     0.906437671502545    -23.114019302276     0.906437671502545    -23.114019302276     0.39278699389477     64.9473214083184     
123.917286876491     0.396076483834099    64.7538619379434     0.904995680090075    -23.3191528180533    0.904995680090075    -23.3191528180533    0.396076483834099    64.7538619379434     
125.147189494529     0.399383564504604    64.5589057209581     0.903532242824401    -23.525702654657     0.903532242824401    -23.525702654657     0.399383564504604    64.5589057209581     
126.389299129748     0.402708079861204    64.3624537606442     0.902047142005657    -23.7336683903264    0.902047142005657    -23.7336683903264    0.402708079861204    64.3624537606442     
127.643736939112     0.406049866994593    64.1645073348713     0.900540161317951    -23.9430493233468    0.900540161317951    -23.9430493233468    0.406049866994593    64.1645073348713     
128.910625282092     0.409408756058911    63.9650680014993     0.899011085973159    -24.153844466683     0.899011085973159    -24.153844466683     0.409408756058911    63.9650680014993     
130.1900877326       0.412784570202568    63.76413760374       0.897459702857793    -24.3660525426517    0.897459702857793    -24.3660525426517    0.412784570202568    63.76413760374       
131.482249091043     0.416177125502394    63.5617182754758     0.895885800682966    -24.5796719776376    0.895885800682966    -24.5796719776376    0.416177125502394    63.5617182754758     
132.787235396495     0.419586230901339    63.3578124465216     0.89428917013743     -24.7947008968638    0.89428917013743     -24.7947008968638    0.419586230901339    63.3578124465216     
134.105173938992     0.423011688149818    63.1524228478331     0.892669604043494    -25.011137119217     0.892669604043494    -25.011137119217     0.423011688149818    63.1524228478331     
135.436193271948     0.426453291750964    62.9455525166483     0.891026897515818    -25.2289781521377    0.891026897515818    -25.2289781521377    0.426453291750964    62.9455525166483     
136.780423224692     0.429910828909948    62.7372048015564     0.889360848123077    -25.4482211865833    0.889360848123077    -25.4482211865833    0.429910828909948    62.7372048015564     
138.137994915138     0.433384079487533    62.5273833674889     0.887671256052193    -25.6688630920674    0.887671256052193    -25.6688630920674    0.433384079487533    62.5273833674889     
139.509040762567     0.436872815958055    62.3160922006251     0.885957924275268    -25.8909004117855    0.885957924275268    -25.8909004117855    0.436872815958055    62.3160922006251     
140.893694500547     0.440376803372039    62.1033356132033     0.884220658718926    -26.1143293578319    0.884220658718926    -26.1143293578319    0.440376803372039    62.1033356132033     
142.292091189977     0.443895799323622    61.8891182482318     0.882459268436073    -26.3391458065193    0.882459268436073    -26.3391458065193    0.443895799323622    61.8891182482318     
143.704367232262     0.447429553922912    61.6734450840944     0.880673565779872    -26.5653452938007    0.880673565779872    -26.5653452938007    0.447429553922912    61.6734450840944     
145.130660382616     0.450977809773594    61.4563214390359     0.878863366579832    -26.7929230108124    0.878863366579832    -26.7929230108124    0.450977809773594    61.4563214390359     
146.571109763501     0.454540301955818    61.2377529755285     0.877028490319863    -27.0218737995343    0.877028490319863    -27.0218737995343    0.454540301955818    61.2377529755285     
148.025855878194     0.458116758014647    61.0177457045049     0.875168760318181    -27.2521921485832    0.875168760318181    -27.2521921485832    0.458116758014647    61.0177457045049     
149.495040624494     0.461706897954202    60.7963059894536     0.873284003908802    -27.4838721891434    0.873284003908802    -27.4838721891434    0.461706897954202    60.7963059894536     
150.978807308565     0.465310434237683    60.5734405503668     0.871374052624607    -27.7169076910443    0.871374052624607    -27.7169076910443    0.465310434237683    60.5734405503668     
152.477300658908     0.468927071793448    60.349156467534      0.869438742381657    -27.9512920589905    0.869438742381657    -27.9512920589905    0.468927071793448    60.349156467534      
153.990666840486     0.472556508027281    60.1234611851729     0.867477913664696    -28.1870183289556    0.867477913664696    -28.1870183289556    0.472556508027281    60.1234611851729     
155.519053468974     0.476198432841068    59.8963625148889     0.865491411713568    -28.4240791647452    0.865491411713568    -28.4240791647452    0.476198432841068    59.8963625148889     
157.062609625162     0.479852528657954    59.6678686389574     0.863479086710356    -28.6624668547374    0.863479086710356    -28.6624668547374    0.479852528657954    59.6678686389574     
158.621485869494     0.483518470454239    59.4379881134165     0.861440793967079    -28.9021733088113    0.861440793967079    -28.9021733088113    0.483518470454239    59.4379881134165     
160.195834256756     0.487195925798056    59.2067298709674     0.859376394113716    -29.1431900554681    0.859376394113716    -29.1431900554681    0.487195925798056    59.2067298709674     
161.785808350908     0.490884554895032    58.97410322367       0.857285753286296    -29.3855082391555    0.857285753286296    -29.3855082391555    0.490884554895032    58.97410322367       
163.391563240058     0.494584010641024    58.7401178654295     0.855168743314821    -29.6291186178011    0.855168743314821    -29.6291186178011    0.494584010641024    58.7401178654295     
165.013255551596     0.498293938682106    58.5047838742612     0.853025241910885    -29.8740115605656    0.853025241910885    -29.8740115605656    0.498293938682106    58.5047838742612     
166.651043467467     0.50201397748184     58.2681117143328     0.850855132854573    -30.1201770458197    0.850855132854573    -30.1201770458197    0.50201397748184     58.2681117143328     
168.305086739603     0.505743758396047    58.0301122377674     0.848658306180567    -30.3676046593576    0.848658306180567    -30.3676046593576    0.505743758396047    58.0301122377674     
169.975546705503     0.50948290575503     57.7907966862097     0.846434658363016    -30.6162835928469    0.846434658363016    -30.6162835928469    0.50948290575503     57.7907966862097     
171.662586303973     0.513231036953516    57.5501766921383     0.844184092499092    -30.8662026425337    0.844184092499092    -30.8662026425337    0.513231036953516    57.5501766921383     
173.366370091015     0.516987762548205    57.3082642799246     0.841906518490774    -31.117350208197     0.841906518490774    -31.117350208197     0.516987762548205    57.3082642799246     
175.087064255883     0.520752686363148    57.0650718666259     0.83960185322475     -31.3697142923709    0.83960185322475     -31.3697142923709    0.520752686363148    57.0650718666259     
176.82483663729      0.52452540560291     56.8206122625081     0.83727002075001     -31.6232824998344    0.83727002075001     -31.6232824998344    0.52452540560291     56.8206122625081     
178.579856739781     0.528305510973602    56.5748986712919     0.834910952452963    -31.8780420373783    0.834910952452963    -31.8780420373783    0.528305510973602    56.5748986712919     
180.352295750264     0.53209258681181     56.3279446901136     0.832524587229705    -32.1339797138562    0.832524587229705    -32.1339797138562    0.53209258681181     56.3279446901136     
182.142326554711     0.535886211221423    56.0797643091965     0.830110871655157    -32.3910819405232    0.830110871655157    -32.3910819405232    0.535886211221423    56.0797643091965     
183.950123755019     0.539685956218389    55.8303719112257     0.82766976014882     -32.6493347316716    0.82766976014882     -32.6493347316716    0.539685956218389    55.8303719112257     
185.775863686044     0.543491387883339    55.5797822704218     0.825201215136802    -32.908723705566     0.825201215136802    -32.908723705566     0.543491387883339    55.5797822704218     
187.619724432797     0.547302066522135    55.3280105513073     0.822705207209801    -33.1692340856855    0.822705207209801    -33.1692340856855    0.547302066522135    55.3280105513073     
189.481885847818     0.551117546834236    55.0750723071586     0.820181715276821    -33.4308507022778    0.820181715276821    -33.4308507022778    0.551117546834236    55.0750723071586     
191.362529568716     0.554937378088853    54.8209834781451     0.817630726714226    -33.693557994228     0.817630726714226    -33.693557994228     0.554937378088853    54.8209834781451     
193.261839035889     0.558761104308835    54.5657603891434     0.815052237509845    -33.9573400112481    0.815052237509845    -33.9573400112481    0.558761104308835    54.5657603891434     
195.179999510416     0.562588264462175    54.3094197472295     0.812446252401926    -34.2221804163901    0.812446252401926    -34.2221804163901    0.562588264462175    54.3094197472295     
197.117198092126     0.566418392661085    54.0519786388398     0.809812785012474    -34.488062488888     0.809812785012474    -34.488062488888     0.566418392661085    54.0519786388398     
199.073623737851     0.570251018368484    53.7934545266022     0.807151857974833    -34.7549691273291    0.807151857974833    -34.7549691273291    0.570251018368484    53.7934545266022     
201.049467279854     0.574085666611769    53.5338652458329     0.804463503055056    -35.0228828531584    0.804463503055056    -35.0228828531584    0.574085666611769    53.5338652458329     
203.044921444446     0.577921858203751    53.2732290006968     0.801747761266991    -35.2917858145182    0.801747761266991    -35.2917858145182    0.577921858203751    53.2732290006968     
205.060180870782     0.581759109970611    53.0115643600277     0.799004682980534    -35.5616597904274    0.799004682980534    -35.5616597904274    0.581759109970611    53.0115643600277     
207.095442129848     0.585596934986597    52.748890252814      0.796234328022995    -35.8324861952936    0.796234328022995    -35.8324861952936    0.585596934986597    52.748890252814      
209.150903743634     0.589434842815405    52.48522596334       0.793436765773162    -36.1042460837683    0.793436765773162    -36.1042460837683    0.589434842815405    52.48522596334       
211.226766204501     0.593272339757954    52.2205911259885     0.790612075247872    -36.3769201559405    0.790612075247872    -36.3769201559405    0.593272339757954    52.2205911259885     
213.32323199473      0.597108929106332    51.955005719705      0.787760345180814    -36.6504887628666    0.787760345180814    -36.6504887628666    0.597108929106332    51.955005719705      
215.440505606281     0.600944111403692    51.6884900621218     0.784881674093254    -36.9249319124399    0.784881674093254    -36.9249319124399    0.600944111403692    51.6884900621218     
217.578793560735     0.604777384709842    51.4210648033457     0.781976170356553    -37.2002292755946    0.781976170356553    -37.2002292755946    0.604777384709842    51.4210648033457     
219.738304429437     0.608608244872272    51.1527509194083     0.779043952246159    -37.4763601928462    0.779043952246159    -37.4763601928462    0.608608244872272    51.1527509194083     
221.919248853845     0.612436185802258    50.8835697053876     0.77608514798689     -37.7533036811597    0.77608514798689     -37.7533036811597    0.612436185802258    50.8835697053876     
224.12183956607      0.616260699755887    50.6135427681944     0.773099895789311    -38.0310384411508    0.773099895789311    -38.0310384411508    0.616260699755887    50.6135427681944     
226.346291409633     0.620081277619509    50.3426920190393     0.770088343876967    -38.309542864606     0.770088343876967    -38.309542864606     0.620081277619509    50.3426920190393     
228.592821360417     0.623897409199469    50.0710396655717     0.767050650504374    -38.5887950423284    0.767050650504374    -38.5887950423284    0.623897409199469    50.0710396655717     
230.86164854783      0.627708583515629    49.7986082037071     0.763986983965518    -38.8687727722945    0.763986983965518    -38.8687727722945    0.627708583515629    49.7986082037071     
233.152994276183     0.631514289098422    49.5254204091417     0.760897522592738    -39.1494535681219    0.760897522592738    -39.1494535681219    0.631514289098422    49.5254204091417     
235.467082046273     0.635314014289078    49.2514993285587     0.757782454745928    -39.4308146678438    0.757782454745928    -39.4308146678438    0.635314014289078    49.2514993285587     
237.804137577186     0.639107247542545    48.976868270542      0.754641978791799    -39.7128330429742    0.754641978791799    -39.7128330429742    0.639107247542545    48.976868270542      
240.164388828313     0.64289347773287     48.7015507961922     0.75147630307325     -39.99548540787      0.75147630307325     -39.99548540787      0.64289347773287     48.7015507961922     
242.548066021583     0.646672194460514    48.4255707094642     0.748285645868645    -40.2787482293689    0.748285645868645    -40.2787482293689    0.646672194460514    48.4255707094642     
244.955401663924     0.650442888361308    48.1489520472247     0.745070235341013    -40.562597736706     0.745070235341013    -40.562597736706     0.650442888361308    48.1489520472247     
247.386630569938     0.654205051416552    47.8717190690461     0.741830309477047    -40.847009931693     0.741830309477047    -40.847009931693     0.654205051416552    47.8717190690461     
249.841989884808     0.657958177263885    47.5938962467434     0.738566116015962    -41.131960599151     0.738566116015962    -41.131960599151     0.657958177263885    47.5938962467434     
252.321719107426     0.661701761508529    47.3155082536607     0.735277912368099    -41.417425317594     0.735277912368099    -41.417425317594     0.661701761508529    47.3155082536607     
254.826060113756     0.665435302034435    47.0365799537223     0.731965965523377    -41.7033794701432    0.731965965523377    -41.7033794701432    0.665435302034435    47.0365799537223     
257.35525718043      0.669158299314897    46.757136390259      0.72863055194955     -41.9897982556669    0.72863055194955     -41.9897982556669    0.669158299314897    46.757136390259      
259.909557008569     0.67287025672226     46.4772027746165     0.725271957480344    -42.276656700134     0.725271957480344    -42.276656700134     0.67287025672226     46.4772027746165     
262.48920874785      0.676570680836239    46.1968044745626     0.721890477193574    -42.5639296681681    0.721890477193574    -42.5639296681681    0.676570680836239    46.1968044745626     
265.094464020808     0.68025908175042     45.915967002502      0.718486415279236    -42.8515918747911    0.718486415279236    -42.8515918747911    0.68025908175042     45.915967002502      
267.725576947381     0.683934973376522    45.6347160035133     0.715060084897778    -43.1396178973426    0.715060084897778    -43.1396178973426    0.683934973376522    45.6347160035133     
270.382804169693     0.687597873745987    45.35307724322       0.711611808028623    -43.4279821875631    0.711611808028623    -43.4279821875631    0.687597873745987    45.35307724322       
273.066404877092     0.69124730530844     45.0710765955095     0.7081419153091      -43.7166590838262    0.7081419153091      -43.7166590838262    0.69124730530844     45.0710765955095     
275.776640831429     0.694882795226649    44.7887400301132     0.704650745863922    -44.0056228235088    0.704650745863922    -44.0056228235088    0.694882795226649    44.7887400301132     
278.513776392591     0.698503875667509    44.5060936000594     0.701138647125469    -44.2948475554837    0.701138647125469    -44.2948475554837    0.698503875667509    44.5060936000594     
281.278078544285     0.702110084088642    44.223163429021      0.697605974644967    -44.5843073527174    0.697605974644967    -44.5843073527174    0.702110084088642    44.223163429021      
284.069816920087     0.705700963520251    43.9399756985601     0.694053091894887    -44.8739762249653    0.694053091894887    -44.8739762249653    0.705700963520251    43.9399756985601     
286.889263829732     0.709276062841755    43.6565566352963     0.690480370062733    -45.1638281315441    0.690480370062733    -45.1638281315441    0.709276062841755    43.6565566352963     
289.736694285685     0.712834937052881    43.3729324980045     0.686888187836481    -45.4538369941682    0.686888187836481    -45.4538369941682    0.712834937052881    43.3729324980045     
292.61238602996      0.716377147538771    43.0891295646627     0.683276931182027    -45.7439767098353    0.683276931182027    -45.7439767098353    0.716377147538771    43.0891295646627     
295.516619561212     0.719902262328808    42.8051741194604     0.679646993112741    -46.0342211637485    0.679646993112741    -46.0342211637485    0.719902262328808    42.8051741194604     
298.449678162102     0.723409856348673    42.5210924397897     0.675998773451687    -46.324544242251     0.675998773451687    -46.324544242251     0.723409856348673    42.5210924397897     
301.411847926923     0.726899511665475    42.2369107832226     0.672332678586566    -46.6149198457726    0.672332678586566    -46.6149198457726    0.726899511665475    42.2369107832226     
304.403417789507     0.730370817725415    41.9526553745035     0.668649121217912    -46.9053219017573    0.668649121217912    -46.9053219017573    0.730370817725415    41.9526553745035     
307.424679551413     0.733823371583816    41.6683523925619     0.664948520100806    -47.195724377567     0.664948520100806    -47.195724377567     0.733823371583816    41.6683523925619     
310.475927910381     0.737256778127184    41.3840279575612     0.661231299780414    -47.4861012933455    0.661231299780414    -47.4861012933455    0.737256778127184    41.3840279575612     
313.557460489087     0.740670650286916    41.099708118008      0.657497890321846    -47.7764267348191    0.657497890321846    -47.7764267348191    0.740670650286916    41.099708118008      
316.669577864165     0.744064609244538    40.8154188379226     0.653748727034566    -48.0666748660306    0.653748727034566    -48.0666748660306    0.744064609244538    40.8154188379226     
319.812583595531     0.747438284628074    40.5311859840986     0.649984250191898    -48.3568199419814    0.649984250191898    -48.3568199419814    0.747438284628074    40.5311859840986     
322.98678425599      0.750791314699448    40.2470353134548     0.646204904745876    -48.6468363211769    0.646204904745876    -48.6468363211769    0.750791314699448    40.2470353134548     
326.19248946114      0.75412334653256     39.9629924605029     0.64241114003792     -48.9366984780517    0.64241114003792     -48.9366984780517    0.75412334653256     39.9629924605029     
329.430011899575     0.757434036181923    39.6790829249425     0.638603409505777    -49.2263810152627    0.638603409505777    -49.2263810152627    0.757434036181923    39.6790829249425     
332.699667363379     0.760723048841695    39.3953320593912     0.634782170387067    -49.5158586758432    0.634782170387067    -49.5158586758432    0.760723048841695    39.3953320593912     
336.001774778936     0.763990058994873    39.1117650572722     0.630947883419899    -49.8051063551943    0.630947883419899    -49.8051063551943    0.763990058994873    39.1117650572722     
339.336656238033     0.767234750552562    38.8284069408675     0.627101012540968    -50.0940991129054    0.627101012540968    -50.0940991129054    0.767234750552562    38.8284069408675     
342.704637029279     0.770456816983177    38.5452825495509     0.623242024581587    -50.3828121843911    0.623242024581587    -50.3828121843911    0.770456816983177    38.5452825495509     
346.106045669836     0.773655961431478    38.2624165282125     0.619371388962036    -50.6712209923292    0.619371388962036    -50.6712209923292    0.773655961431478    38.2624165282125     
349.541213937459     0.776831896827362    37.9798333158879     0.615489577384677    -50.9593011578904    0.615489577384677    -50.9593011578904    0.776831896827362    37.9798333158879     
353.010476902862     0.779984345984361    37.6975571346009     0.61159706352627     -51.2470285117477    0.61159706352627     -51.2470285117477    0.779984345984361    37.6975571346009     
356.514172962399     0.783113041687748    37.415611978437      0.607694322729907    -51.5343791048492    0.607694322729907    -51.5343791048492    0.783113041687748    37.415611978437      
360.052643871071     0.786217726772295    37.1340216028526     0.603781831696981    -51.8213292189496    0.603781831696981    -51.8213292189496    0.786217726772295    37.1340216028526     
363.626234775865     0.78929815418968     36.8528095142288     0.599860068179597    -52.1078553768896    0.599860068179597    -52.1078553768896    0.78929815418968     36.8528095142288     
367.235294249414     0.792354087065466    36.5719989596893     0.595929510673891    -52.3939343526057    0.595929510673891    -52.3939343526057    0.792354087065466    36.5719989596893     
370.880174324003     0.795385298745836    36.2916129171782     0.591990638114571    -52.679543180872     0.591990638114571    -52.679543180872     0.795385298745836    36.2916129171782     
374.561230525904     0.798391572833986    36.0116740858192     0.588043929571182    -52.9646591667549    0.588043929571182    -52.9646591667549    0.798391572833986    36.0116740858192     
378.278821910054     0.80137270321637     35.7322048765532     0.584089863946376    -53.2492598947801    0.584089863946376    -53.2492598947801    0.80137270321637     35.7322048765532     
382.03331109508      0.804328494078821    35.4532274030711     0.580128919676726    -53.5333232377986    0.580128919676726    -53.5333232377986    0.804328494078821    35.4532274030711     
385.825064298665     0.807258759912659    35.1747634730425     0.576161574436258    -53.8168273655466    0.576161574436258    -53.8168273655466    0.807258759912659    35.1747634730425     
389.654451373275     0.810163325510957    34.8968345796491     0.57218830484325     -54.0997507528942    0.57218830484325     -54.0997507528942    0.810163325510957    34.8968345796491     
393.52184584223      0.813042025955043    34.61946189343       0.568209586170536    -54.3820721877725    0.568209586170536    -54.3820721877725    0.813042025955043    34.61946189343       
397.427624936142     0.815894706591444    34.342666254441      0.564225892059715    -54.6637707787773    0.564225892059715    -54.6637707787773    0.815894706591444    34.342666254441      
401.372169629706     0.818721222999408    34.0664681647368     0.56023769423954     -54.9448259624411    0.56023769423954     -54.9448259624411    0.818721222999408    34.0664681647368     
405.355864678866     0.821521440949234    33.790887781175      0.55624546224888     -55.2252175101738    0.55624546224888     -55.2252175101738    0.821521440949234    33.790887781175      
409.379098658338     0.824295236351552    33.515944908551      0.552249663164483    -55.5049255348605    0.552249663164483    -55.5049255348605    0.824295236351552    33.515944908551      
413.442263999521     0.82704249519781     33.2416589930625     0.548250761333889    -55.783930497121     0.548250761333889    -55.783930497121     0.82704249519781     33.2416589930625     
417.545757028765     0.829763113492177    32.9680491161094     0.544249218113724    -56.0622132112217    0.544249218113724    -56.0622132112217    0.829763113492177    32.9680491161094     
421.689978006038     0.832456997175097    32.6951339884269     0.540245491613649    -56.3397548506425    0.540245491613649    -56.3397548506425    0.832456997175097    32.6951339884269     
425.875331163963     0.835124062038735    32.4229319445583     0.536240036446274    -56.6165369532925    0.536240036446274    -56.6165369532925    0.835124062038735    32.4229319445583     
430.102224747247     0.837764233634581    32.1514609376641     0.532233303483129    -56.8925414263772    0.532233303483129    -56.8925414263772    0.837764233634581    32.1514609376641     
434.371071052508     0.840377447173467    31.8807385346688     0.528225739617071    -57.1677505509127    0.528225739617071    -57.1677505509127    0.840377447173467    31.8807385346688     
438.68228646848      0.842963647418284    31.610781911746      0.524217787531186    -57.4421469858908    0.524217787531186    -57.4421469858908    0.842963647418284    31.610781911746      
443.036291516639     0.845522788569646    31.3416078501411     0.520209885474482    -57.7157137720902    0.520209885474482    -57.7157137720902    0.845522788569646    31.3416078501411     
447.433510892215     0.848054834144842    31.0732327323271     0.516202467044465    -57.9884343355398    0.516202467044465    -57.9884343355398    0.848054834144842    31.0732327323271     
451.874373505619     0.850559756850294    30.8056725384972     0.512195960976806    -58.2602924906306    0.512195960976806    -58.2602924906306    0.850559756850294    30.8056725384972     
456.359312524279     0.853037538447886    30.5389428433872     0.508190790942188    -58.5312724428804    0.508190790942188    -58.5312724428804    0.853037538447886    30.5389428433872     
460.888765414891     0.855488169615428    30.2730588134272     0.504187375350505    -58.801358791353     0.504187375350505    -58.801358791353     0.855488169615428    30.2730588134272     
465.463173986094     0.857911649801559    30.0080352042185     0.500186127162476    -59.0705365307339    0.500186127162476    -59.0705365307339    0.857911649801559    30.0080352042185     
470.082984431559     0.860307987075398    29.7438863583334     0.49618745370881     -59.3387910530645    0.49618745370881     -59.3387910530645    0.860307987075398    29.7438863583334     
474.748647373516     0.862677197971271    29.4806262034319     0.492191756516948    -59.6061081491409    0.492191756516948    -59.6061081491409    0.862677197971271    29.4806262034319     
479.460617906705     0.865019307328773    29.2182682506937     0.488199431145497    -59.8724740095751    0.488199431145497    -59.8724740095751    0.865019307328773    29.2182682506937     
484.219355642766     0.867334348128525    28.9568255935578     0.484210867026353    -60.1378752255299    0.484210867026353    -60.1378752255299    0.867334348128525    28.9568255935578     
489.025324755076     0.869622361323905    28.6963109067656     0.48022644731459     -60.4022987891256    0.48022644731459     -60.4022987891256    0.869622361323905    28.6963109067656     
493.878994024018     0.871883395669054    28.4367364457054     0.476246548746106    -60.6657320935244    0.476246548746106    -60.6657320935244    0.871883395669054    28.4367364457054     
498.78083688271      0.874117507543484    28.1781140460454     0.472271541503025    -60.9281629326996    0.472271541503025    -60.9281629326996    0.874117507543484    28.1781140460454     
503.731331463185     0.876324760773578    27.9204551236557     0.46830178908689     -61.1895795008922    0.46830178908689     -61.1895795008922    0.876324760773578    27.9204551236557     
508.730960643025     0.87850522645125     27.6637706748122     0.464337648199579    -61.4499703917573    0.464337648199579    -61.4499703917573    0.87850522645125     27.6637706748122     
513.780212092465     0.880658982750135    27.4080712766706     0.460379468631905    -61.7093245972147    0.460379468631905    -61.7093245972147    0.880658982750135    27.4080712766706     
518.87957832196      0.882786114739509    27.1533670880104     0.456427593159937    -61.967631505997     0.456427593159937    -61.967631505997     0.882786114739509    27.1533670880104     
524.029556730223     0.884886714196295    26.8996678502377     0.452482357448859    -62.2248809019107    0.452482357448859    -62.2248809019107    0.884886714196295    26.8996678502377     
529.230649652748     0.886960879415384    26.6469828886426     0.448544089964411    -62.4810629618096    0.448544089964411    -62.4810629618096    0.886960879415384    26.6469828886426     
534.483364410799     0.889008715018604    26.3953211138986     0.444613111891773    -62.736168253292     0.444613111891773    -62.736168253292     0.889008715018604    26.3953211138986     
539.788213360903     0.89103033176253     26.144691023805      0.440689737061812    -62.9901877321201    0.440689737061812    -62.9901877321201    0.89103033176253     26.144691023805      
545.145713944824     0.893025846345474    25.8951007052546     0.436774271884603    -63.2431127393756    0.436774271884603    -63.2431127393756    0.893025846345474    25.8951007052546     
550.55638874003      0.894995381213834    25.6465578364297     0.432867015290135    -63.4949349983499    0.432867015290135    -63.4949349983499    0.894995381213834    25.6465578364297     
556.020765510672     0.896939064368143    25.3990696892068     0.428968258676026    -63.7456466111818    0.428968258676026    -63.7456466111818    0.896939064368143    25.3990696892068     
561.53937725906      0.898857029168951    25.152643131774      0.425078285862189    -63.9952400552417    0.425078285862189    -63.9952400552417    0.898857029168951    25.152643131774      
567.112762277654     0.900749414142866    24.9072846314438     0.421197373052298    -64.2437081792735    0.421197373052298    -64.2437081792735    0.900749414142866    24.9072846314438     
572.741464201569     0.902616362788924    24.663000257658      0.41732578880189     -64.4910441992974    0.41732578880189     -64.4910441992974    0.902616362788924    24.663000257658      
578.4260320616       0.904458023385515    24.4197956851765     0.41346379399299     -64.7372416942773    0.41346379399299     -64.7372416942773    0.904458023385515    24.4197956851765     
584.167020337779     0.906274548798112    24.1776761974386     0.409611641815104    -64.9822946015651    0.409611641815104    -64.9822946015651    0.906274548798112    24.1776761974386     
589.964989013456     0.908066096287929    23.936646690094      0.405769577752403    -65.2261972121163    0.405769577752403    -65.2261972121163    0.908066096287929    23.936646690094      
595.820503629924     0.909832827321779    23.6967116746904     0.401937839576976    -65.4689441654936    0.401937839576976    -65.4689441654936    0.909832827321779    23.6967116746904     
601.73413534158      0.911574907383263    23.4578752825139     0.398116657347944    -65.7105304446547    0.398116657347944    -65.7105304446547    0.911574907383263    23.4578752825139     
607.706460971635     0.913292505785488    23.2201412685689     0.394306253416311    -65.9509513705333    0.394306253416311    -65.9509513705333    0.913292505785488    23.2201412685689     
613.738063068384     0.914985795485458    22.9835130156984     0.390506842435347    -66.1902025964155    0.390506842435347    -66.1902025964155    0.914985795485458    22.9835130156984     
619.829529962019     0.916654952900348    22.7479935388254     0.386718631376335    -66.4282801021179    0.386718631376335    -66.4282801021179    0.916654952900348    22.7479935388254     
625.981455822027     0.918300157725734    22.5135854893185     0.382941819549536    -66.6651801879692    0.382941819549536    -66.6651801879692    0.918300157725734    22.5135854893185     
632.194440715136     0.919921592755987    22.2802911594661     0.379176598630141    -66.9008994685992    0.379176598630141    -66.9008994685992    0.919921592755987    22.2802911594661     
638.469090663852     0.921519443706921    22.0481124870568     0.375423152689082    -67.135434866538     0.375423152689082    -67.135434866538     0.921519443706921    22.0481124870568     
644.806017705568     0.923093899040838    21.8170510600558     0.371681658228488    -67.3687836056296    0.371681658228488    -67.3687836056296    0.923093899040838    21.8170510600558     
651.205839952267     0.924645149794089    21.5871081213703     0.367952284221611    -67.6009432042596    0.367952284221611    -67.6009432042596    0.924645149794089    21.5871081213703     
657.669181650807     0.926173389407233    21.3582845736982     0.364235192157057    -67.8319114684013    0.364235192157057    -67.8319114684013    0.926173389407233    21.3582845736982     
664.19667324382      0.927678813557928    21.130580984451      0.360530536087117    -68.0616864844784    0.360530536087117    -68.0616864844784    0.927678813557928    21.130580984451      
670.788951431195     0.929161619996611    20.9039975907455     0.35683846268003     -68.2902666120485    0.35683846268003     -68.2902666120485    0.929161619996611    20.9039975907455     
677.446659232193     0.930622008385078    20.6785343044574     0.353159111275994    -68.5176504763043    0.353159111275994    -68.5176504763043    0.930622008385078    20.6785343044574     
684.170446048161     0.932060180138022    20.454190717329      0.349492613946755    -68.7438369603939    0.349492613946755    -68.7438369603939    0.932060180138022    20.454190717329      
690.960967725879     0.933476338267599    20.2309661061267     0.345839095558579    -68.9688251975594    0.345839095558579    -68.9688251975594    0.933476338267599    20.2309661061267     
697.818886621531     0.934870687231103    20.0088594378383     0.342198673838437    -69.1926145630898    0.342198673838437    -69.1926145630898    0.934870687231103    20.0088594378383     
704.744871665308     0.936243432781772    19.78786937491       0.338571459443242    -69.4152046660878    0.338571459443242    -69.4152046660878    0.936243432781772    19.78786937491       
711.739598426668     0.937594781822787    19.5679942805099     0.334957556031943    -69.6365953410464    0.334957556031943    -69.6365953410464    0.937594781822787    19.5679942805099     
718.803749180215     0.938924942264523    19.349232223819      0.331357060340337    -69.8567866392309    0.331357060340337    -69.8567866392309    0.938924942264523    19.349232223819      
725.938012972267     0.940234122885046    19.131580985339      0.32777006225839     -70.0757788198615    0.32777006225839     -70.0757788198615    0.940234122885046    19.131580985339      
733.143085688051     0.941522533193925    18.9150380622136     0.324196644909938    -70.2935723410915    0.324196644909938    -70.2935723410915    0.941522533193925    18.9150380622136     
740.419670119591     0.942790383299348    18.6996006735605     0.320636884734611    -70.5101678507704    0.320636884734611    -70.5101678507704    0.942790383299348    18.6996006735605     
747.768476034253     0.944037883778577    18.4852657658024     0.317090851571768    -70.7255661769905    0.317090851571768    -70.7255661769905    0.944037883778577    18.4852657658024     
755.190220243981     0.945265245551748    18.2720300180005     0.313558608746368    -70.9397683183993    0.313558608746368    -70.9397683183993    0.945265245551748    18.2720300180005     
762.685626675211     0.946472679759019    18.0598898471788     0.310040213156554    -71.1527754342763    0.310040213156554    -71.1527754342763    0.946472679759019    18.0598898471788     
770.25542643949      0.947660397641065    17.8488414136387     0.306535715362852    -71.3645888343537    0.306535715362852    -71.3645888343537    0.947660397641065    17.8488414136387     
777.900357904783     0.948828610422918    17.6388806262582     0.303045159678811    -71.5752099683744    0.303045159678811    -71.5752099683744    0.948828610422918    17.6388806262582     
785.6211667675       0.94997752920115     17.4300031477721     0.299568584262965    -71.7846404153694    0.299568584262965    -71.7846404153694    0.94997752920115     17.4300031477721     
793.418606125225     0.951107364834357    17.2222044000282     0.296106021211959    -71.9928818726389    0.296106021211959    -71.9928818726389    0.951107364834357    17.2222044000282     
801.293436550184     0.952218327836974    17.0154795692175     0.292657496654734    -72.1999361444178    0.292657496654734    -72.1999361444178    0.952218327836974    17.0154795692175     
809.246426163425     0.953310628276338    16.809823611073      0.289223030847611    -72.4058051302087    0.289223030847611    -72.4058051302087    0.953310628276338    16.809823611073      
817.278350709741     0.954384475673041    16.6052312560347     0.285802638270187    -72.6104908127559    0.285802638270187    -72.6104908127559    0.954384475673041    16.6052312560347     
825.389993633343     0.955440078904484    16.4016970143774     0.282396327721888    -72.8139952456398    0.282396327721888    -72.8139952456398    0.955440078904484    16.4016970143774     
833.582146154272     0.956477646111632    16.199215181298      0.279004102419081    -73.0163205404627    0.279004102419081    -73.0163205404627    0.956477646111632    16.199215181298      
841.85560734558      0.957497384608933    15.9977798419597     0.275625960092642    -73.217468853597     0.275625960092642    -73.217468853597     0.957497384608933    15.9977798419597     
850.211184211269     0.958499500797348    15.7973848764902     0.272261893085847    -73.4174423724636    0.272261893085847    -73.4174423724636    0.958499500797348    15.7973848764902     
858.649691765012     0.95948420008047     15.5980239649309     0.268911888452505    -73.6162433013056    0.268911888452505    -73.6162433013056    0.95948420008047     15.5980239649309     
867.171953109644     0.960451686783666    15.3996905921353     0.265575928055233    -73.813873846418     0.265575928055233    -73.813873846418     0.960451686783666    15.3996905921353     
875.778799517455     0.961402164076221    15.2023780526149     0.26225398866376     -74.0103362007895    0.26225398866376     -74.0103362007895    0.961402164076221    15.2023780526149     
884.471070511268     0.962335833896414    15.0060794553274     0.258946042053186    -74.2056325281134    0.258946042053186    -74.2056325281134    0.962335833896414    15.0060794553274     
893.249613946334     0.963252896879492    14.8107877284111     0.255652055102109    -74.3997649461122    0.255652055102109    -74.3997649461122    0.963252896879492    14.8107877284111     
902.115286093021     0.964153552288484    14.6164956238561     0.252371989890534    -74.5927355091236    0.252371989890534    -74.5927355091236    0.964153552288484    14.6164956238561     
911.068951720349     0.965037997947795    14.4231957221171     0.249105803797465    -74.7845461898853    0.249105803797465    -74.7845461898853    0.965037997947795    14.4231957221171     
920.111484180334     0.965906430179542    14.2308804366639     0.245853449598157    -74.9751988604505    0.245853449598157    -74.9751988604505    0.965906430179542    14.2308804366639     
929.243765493175     0.966759043742563    14.0395420184662     0.242614875560908    -75.164695272163     0.242614875560908    -75.164695272163     0.966759043742563    14.0395420184662     
938.46668643329      0.967596031774048    13.8491725604142     0.239390025543336    -75.35303703461      0.239390025543336    -75.35303703461      0.967596031774048    13.8491725604142     
947.781146616203     0.968417585733724    13.6597640016739     0.236178839088104    -75.5402255934626    0.236178839088104    -75.5402255934626    0.968417585733724    13.6597640016739     
957.188054586292     0.969223895350554    13.4713081319729     0.232981251518001    -75.7262622071116    0.232981251518001    -75.7262622071116    0.969223895350554    13.4713081319729     
966.68832790541      0.970015148571876    13.28379659582       0.229797194030343    -75.9111479219857    0.229797194030343    -75.9111479219857    0.970015148571876    13.28379659582       
976.282893242388     0.970791531514926    13.0972208966534     0.226626593790637    -76.0948835464418    0.226626593790637    -76.0948835464418    0.970791531514926    13.0972208966534     
985.97268646342      0.971553228420682    12.9115724009215     0.223469374025459    -76.2774696230916    0.223469374025459    -76.2774696230916    0.971553228420682    12.9115724009215     
995.758652723348     0.972300421609977    12.726842342092      0.220325454114523    -76.4589063994277    0.220325454114523    -76.4589063994277    0.972300421609977    12.726842342092      
1005.64174655786     0.973033291441806    12.5430218245891     0.217194749681842    -76.6391937965902    0.217194749681842    -76.6391937965902    0.973033291441806    12.5430218245891     
1015.62293197659     0.973752016273791    12.3601018276617     0.214077172686036    -76.8183313761013    0.214077172686036    -76.8183313761013    0.973752016273791    12.3601018276617     
1025.70318255714     0.974456772424698    12.1780732091783     0.210972631509654    -76.9963183043773    0.210972631509654    -76.9963183043773    0.974456772424698    12.1780732091783     
1035.88348154007     0.975147734139004    11.99692670935       0.207881031047565    -77.1731533148064    0.207881031047565    -77.1731533148064    0.975147734139004    11.99692670935       
1046.1648219248      0.975825073553401    11.816652954383      0.204802272794333    -77.3488346671597    0.204802272794333    -77.3488346671597    0.975825073553401    11.816652954383      
1056.54820656642     0.976488960665204    11.6372424600572     0.201736254930587    -77.5233601040753    0.201736254930587    -77.5233601040753    0.976488960665204    11.6372424600572     
1067.03464827357     0.977139563302602    11.4586856352343     0.198682872408352    -77.6967268043278    0.198682872408352    -77.6967268043278    0.977139563302602    11.4586856352343     
1077.62516990722     0.977777047096678    11.2809727852933     0.195642017035321    -77.868931332565     0.195642017035321    -77.868931332565     0.977777047096678    11.2809727852933     
1088.32080448042     0.978401575455154    11.1040941154944     0.192613577558082    -78.0399695851547    0.192613577558082    -78.0399695851547    0.978401575455154    11.1040941154944     
1099.12259525905     0.979013309537792    10.9280397342718     0.189597439744245    -78.2098367317463    0.189597439744245    -78.2098367317463    0.979013309537792    10.9280397342718     
1110.03159586363     0.979612408233399    10.7527996564548     0.186593486463513    -78.3785271521052    0.186593486463513    -78.3785271521052    0.979612408233399    10.7527996564548     
1121.04887037205     0.980199028138369    10.5783638064194     0.183601597767663    -78.5460343677234    0.183601597767663    -78.5460343677234    0.980199028138369    10.5783638064194     
1132.17549342339     0.980773323536723    10.4047220211675     0.180621650969452    -78.7123509676575    0.180621650969452    -78.7123509676575    0.980773323536723    10.4047220211675     
1143.4125503227      0.981335446381571    10.2318640533387     0.177653520720437    -78.877468527969     0.177653520720437    -78.877468527969     0.981335446381571    10.2318640533387     
1154.76113714692     0.981885546277946    10.0597795741516     0.174697079087766    -79.0413775240727    0.174697079087766    -79.0413775240727    0.981885546277946    10.0597795741516     
1166.22236085174     0.982423770466972    9.88845817627569     0.17175219562987     -79.204067235211     0.17175219562987     -79.204067235211     0.982423770466972    9.88845817627569     
1177.7973393796      0.982950263811284    9.71788937663801     0.168818737471176    -79.3655256401665    0.168818737471176    -79.3655256401665    0.982950263811284    9.71788937663801     
1189.48720176873     0.983465168781666    9.54806261915918     0.16589656937578     -79.5257393032216    0.16589656937578     -79.5257393032216    0.983465168781666    9.54806261915918     
1201.29308826329     0.983968625444863    9.37896727742514     0.162985553820145    -79.6846932492327    0.162985553820145    -79.6846932492327    0.983968625444863    9.37896727742514     
1213.21615042458     0.984460771452479    9.21059265729297     0.160085551064871    -79.8423708265442    0.160085551064871    -79.8423708265442    0.984460771452479    9.21059265729297     
1225.25755124334     0.984941742030959    9.04292799943038     0.157196419225542    -79.9987535562902    0.157196419225542    -79.9987535562902    0.984941742030959    9.04292799943038     
1237.41846525323     0.985411669972573    8.87596248179274     0.154318014342724    -80.1538209664341    0.154318014342724    -80.1538209664341    0.985411669972573    8.87596248179274     
1249.7000786454      0.985870685627354    8.70968522203644     0.151450190451156    -80.3075504086619    0.151450190451156    -80.3075504086619    0.985870685627354    8.70968522203644     
1262.10358938414     0.986318916895973    8.54408527986934     0.148592799648198    -80.459916855981     0.148592799648198    -80.459916855981     0.986318916895973    8.54408527986934     
1274.63020732378     0.986756489223467    8.37915165934051     0.145745692161613    -80.6108926785595    0.145745692161613    -80.6108926785595    0.986756489223467    8.37915165934051     
1287.28115432668     0.987183525593793    8.21487331106974     0.14290871641675     -80.7604473949779    0.14290871641675     -80.7604473949779    0.987183525593793    8.21487331106974     
1300.05766438242     0.987600146525176    8.05123913441741     0.140081719103254    -80.9085473956391    0.140081719103254    -80.9085473956391    0.987600146525176    8.05123913441741     
1312.96098372815     0.988006470066175    7.88823797959632     0.13726454524137     -81.0551556345835    0.13726454524137     -81.0551556345835    0.988006470066175    7.88823797959632     
1325.99237097018     0.988402611792467    7.72585864972566     0.134457038247999    -81.2002312853643    0.134457038247999    -81.2002312853643    0.988402611792467    7.72585864972566     
1339.15309720671     0.988788684804262    7.56408990282979     0.13165904000264     -81.343729355947     0.13165904000264     -81.343729355947     0.988788684804262    7.56408990282979     
1352.44444615183     0.989164799724356    7.40292045378098     0.128870390913376    -81.4856002567748    0.128870390913376    -81.4856002567748    0.989164799724356    7.40292045378098     
1365.86771426075     0.98953106469674     7.24233897618875     0.126090929983108    -81.6257893151666    0.126090929983108    -81.6257893151666    0.98953106469674     7.24233897618875     
1379.42421085623     0.989887585385764    7.08233410423573     0.123320494876258    -81.7642362280512    0.123320494876258    -81.7642362280512    0.989887585385764    7.08233410423573     
1393.11525825632     0.99023446497579     6.92289443446267     0.12055892198619     -81.9008744436537    0.12055892198619     -81.9008744436537    0.99023446497579     6.92289443446267     
1406.94219190333     0.990571804171316    6.76400852750211     0.117806046503676    -82.035630461084     0.117806046503676    -82.035630461084     0.990571804171316    6.76400852750211     
1420.90636049406     0.990899701197534    6.60566490976236     0.11506170248674     -82.1684230347707    0.11506170248674     -82.1684230347707    0.990899701197534    6.60566490976236     
1435.00912611142     0.991218251801279    6.44785207506438     0.112325722932313    -82.2991622682552    0.112325722932313    -82.2991622682552    0.991218251801279    6.44785207506438     
1449.25186435723     0.991527549252344    6.29055848623029     0.109597939850204    -82.4277485789214    0.109597939850204    -82.4277485789214    0.991527549252344    6.29055848623029     
1463.63596448643     0.991827684345134    6.13377257662648     0.106878184339947    -82.5540715116395    0.106878184339947    -82.5540715116395    0.991827684345134    6.13377257662648     
1478.16282954255     0.992118745400617    5.97748275166244     0.104166286671289    -82.6780083749113    0.104166286671289    -82.6780083749113    0.992118745400617    5.97748275166244     
1492.83387649465     0.992400818268543    5.82167739024519     0.101462076369091    -82.7994226676922    0.101462076369091    -82.7994226676922    0.992400818268543    5.82167739024519     
1507.65053637541     0.99267398632992     5.66634484619175     0.098765382303726    -82.9181622583763    0.098765382303726    -82.9181622583763    0.99267398632992     5.66634484619175     
1522.61425442084     0.992938330499695    5.51147344960089     0.096076032788184    -83.0340572691223    0.096076032788184    -83.0340572691223    0.992938330499695    5.51147344960089     
1537.72649021116     0.993193929229629    5.35705150818417     0.093393855683384    -83.1469176083113    0.093393855683384    -83.1469176083113    0.993193929229629    5.35705150818417     
1552.98871781321     0.993440858511331    5.20306730855939     0.090718678513571    -83.256530080878     0.090718678513571    -83.256530080878     0.993440858511331    5.20306730855939     
1568.40242592421     0.993679191879442    5.04950911750516     0.088050328594027    -83.3626549897667    0.088050328594027    -83.3626549897667    0.993679191879442    5.04950911750516     
1583.96911801701     0.993909000414917    4.89636518318079     0.085388633173982    -83.4650221207787    0.085388633173982    -83.4650221207787    0.993909000414917    4.89636518318079     
1599.69031248669     0.994130352748416    4.74362373630956     0.082733419598159    -83.563325976219     0.082733419598159    -83.563325976219     0.994130352748416    4.74362373630956     
1615.56754279869     0.994343315063752    4.59127299132995     0.080084515491476    -83.6572200881061    0.080084515491476    -83.6572200881061    0.994343315063752    4.59127299132995     
1631.60235763842     0.994547951101389    4.43930114751243     0.077441748972399    -83.7463101967218    0.077441748972399    -83.7463101967218    0.994547951101389    4.43930114751243     
1647.79632106223     0.994744322161972    4.28769639004651     0.074804948902139    -83.830146021361     0.074804948902139    -83.830146021361     0.994744322161972    4.28769639004651     
1664.15101265008     0.994932487109868    4.13644689109669     0.072173945178808    -83.9082112723778    0.072173945178808    -83.9082112723778    0.994932487109868    4.13644689109669     
1680.66802765952     0.995112502376684    3.98554081082997     0.069548569088384    -83.9799114500376    0.069548569088384    -83.9799114500376    0.995112502376684    3.98554081082997     
1697.34897718137     0.995284421964769    3.83496629841561     0.066928653727968    -84.0445588364074    0.066928653727968    -84.0445588364074    0.995284421964769    3.83496629841561     
1714.19548829681     0.995448297450664    3.68471149299849     0.064314034521715    -84.101353897349     0.064314034521715    -84.101353897349     0.995448297450664    3.68471149299849     
1731.2092042361      0.995604177988495    3.53476452464698     0.061704549856612    -84.1493620519495    0.061704549856612    -84.1493620519495    0.995604177988495    3.53476452464698     
1748.39178453891     0.995752110313283    3.38511351527739     0.059100041874702    -84.1874844059671    0.059100041874702    -84.1874844059671    0.995752110313283    3.38511351527739     
1765.74490521612     0.995892138744168    3.23574657955519     0.056500357471535    -84.2144205384678    0.056500357471535    -84.2144205384678    0.995892138744168    3.23574657955519     
1783.27025891336     0.996024305187525    3.08665182577485     0.053905349569561    -84.2286207075175    0.053905349569561    -84.2286207075175    0.996024305187525    3.08665182577485     
1800.96955507607     0.996148649139962    2.93781735671958     0.051314878762521    -84.2282237945305    0.051314878762521    -84.2282237945305    0.996148649139962    2.93781735671958     
1818.84452011628     0.996265207691188    2.78923127050136     0.048728815467031    -84.2109757693029    0.048728815467031    -84.2109757693029    0.996265207691188    2.78923127050136     
1836.89689758097     0.996374015526735    2.64088166138424     0.04614704277784     -84.1741211588186    0.04614704277784     -84.1741211588186    0.996374015526735    2.64088166138424     
1855.12844832217     0.996475104930534    2.49275662058944     0.0435694603149      -84.1142565000276    0.0435694603149      -84.1142565000276    0.996475104930534    2.49275662058944     
1873.54095066869     0.996568505787319    2.34484423708664     0.0409959894935      -84.0271293075101    0.0409959894935      -84.0271293075101    0.996568505787319    2.34484423708664     
1892.1362005996      0.996654245584871    2.19713259836988     0.038426580876522    -83.9073574131549    0.038426580876522    -83.9073574131549    0.996654245584871    2.19713259836988     
1910.9160119194      0.996732349416065    2.04960979122082     0.035861224640775    -83.74802937305      0.035861224640775    -83.74802937305      0.996732349416065    2.04960979122082     
1929.88221643494     0.996802839980743    1.90226390246034     0.033299965816927    -83.5401228483434    0.033299965816927    -83.5401228483434    0.996802839980743    1.90226390246034     
1949.0366641341      0.99686573758738     1.75508301968984     0.030742927053738    -83.2716366137189    0.030742927053738    -83.2716366137189    0.99686573758738     1.75508301968984     
1968.38122336626     0.996921060154559    1.60805523202211     0.028190343625436    -82.9262576798754    0.028190343625436    -82.9262576798754    0.996921060154559    1.60805523202211     
1987.9177810245      0.996968823212226    1.46116863080548     0.025642619103064    -82.4812460758494    0.025642619103064    -82.4812460758494    0.996968823212226    1.46116863080548     
2007.64824272967     0.997009039902737    1.31441131033966     0.023100417419075    -81.9039469428875    0.023100417419075    -81.9039469428875    0.997009039902737    1.31441131033966     
2027.5745330163      0.997041720981694    1.16777136858695     0.020564822323424    -81.1457733060837    0.020564822323424    -81.1457733060837    0.997041720981694    1.16777136858695     
2047.69859552026     0.997066874818546    1.02123690787847     0.018037629337657    -80.1312493885553    0.018037629337657    -80.1312493885553    0.997066874818546    1.02123690787847     
2068.02239316839     0.997084507396982    0.874796035616768    0.015521917889893    -78.7367083091232    0.015521917889893    -78.7367083091232    0.997084507396982    0.874796035616768    
2088.54790836995     0.997094622315082    0.72843686497683     0.013023271896698    -76.7453858114161    0.013023271896698    -76.7453858114161    0.997094622315082    0.72843686497683     
2109.27714320998     0.997097220785252    0.58214751560625     0.010552683085268    -73.7426545385965    0.010552683085268    -73.7426545385965    0.997097220785252    0.58214751560625     
2130.2121196446      0.99709230163393     0.435916114325006    0.008134518689215    -68.8384159063839    0.008134518689215    -68.8384159063839    0.99709230163393     0.435916114325006    
2151.35487969823     0.997079861301045    0.289730795827741    0.005832946943975    -59.8136594226212    0.005832946943975    -59.8136594226212    0.997079861301045    0.289730795827741    
2172.70748566278     0.99705989383928     0.143579703387892    0.003860762356686    -40.3285439533631    0.003860762356686    -40.3285439533631    0.99705989383928     0.143579703387892    
2194.27202029878     0.997032390913075    -0.002549010433643   0.002967941552141    0.856331076872691    0.002967941552141    0.856331076872691    0.997032390913075    -0.002549010433643   
2216.05058703856     0.996997341797427    -0.148667183074842   0.003965900907854    40.7148689995226     0.003965900907854    40.7148689995226     0.996997341797427    -0.148667183074842   
2238.04531019143     0.996954733376453    -0.294786641252372   0.005971932553243    59.1935623943024     0.005971932553243    59.1935623943024     0.996954733376453    -0.294786641252372   
2260.25833515086     0.996904550141743    -0.440919200234215   0.008283646408509    67.8368332315585     0.008283646408509    67.8368332315585     0.996904550141743    -0.440919200234215   
2282.69182860375     0.996846774190494    -0.587076663103228   0.010705138986455    72.5759861663239     0.010705138986455    72.5759861663239     0.996846774190494    -0.587076663103228   
2305.3479787418      0.996781385223428    -0.733270820010079   0.013176442294458    75.4949395731965     0.013176442294458    75.4949395731965     0.996781385223428    -0.733270820010079   
2328.22899547491     0.996708360542512    -0.879513447416374   0.015674488874949    77.438265497522      0.015674488874949    77.438265497522      0.996708360542512    -0.879513447416374   
2351.33711064677     0.996627675048473    -1.02581630732363    0.018188779050429    78.8026691302706     0.018188779050429    78.8026691302706     0.996627675048473    -1.02581630732363    
2374.67457825254     0.996539301238124    -1.17219114648972    0.020713944725837    79.7968500861952     0.020713944725837    79.7968500861952     0.996539301238124    -1.17219114648972    
2398.24367465869     0.996443209201496    -1.3186496956297     0.023247011626347    80.5404462239471     0.023247011626347    80.5404462239471     0.996443209201496    -1.3186496956297     
2422.04669882509     0.996339366618807    -1.46520366860086    0.025786239328009    81.1067486380563     0.025786239328009    81.1067486380563     0.996339366618807    -1.46520366860086    
2446.0859725292      0.996227738757248    -1.61186476157043    0.028330574260486    81.5430797868409     0.028330574260486    81.5430797868409     0.996227738757248    -1.61186476157043    
2470.36384059258     0.996108288467616    -1.75864465216396    0.030879369250296    81.8813227707644     0.030879369250296    81.8813227707644     0.996108288467616    -1.75864465216396    
2494.88267110958     0.995980976180807    -1.90555499859501    0.033432229752576    82.1437254527169     0.033432229752576    82.1437254527169     0.995980976180807    -1.90555499859501    
2519.64485567834     0.995845759904153    -2.05260743877215    0.035988924786666    82.3462752850817     0.035988924786666    82.3462752850817     0.995845759904153    -2.05260743877215    
2544.65280963405     0.995702595217657    -2.19981358938527    0.03854933293389     82.500751310582      0.03854933293389     82.500751310582      0.995702595217657    -2.19981358938527    
2569.90897228459     0.995551435270092    -2.34718504496691    0.041113408301248    82.6160200957928     0.041113408301248    82.6160200957928     0.995551435270092    -2.34718504496691    
2595.41580714842     0.995392230775023    -2.49473337692952    0.043681158344032    82.6988812936534     0.043681158344032    82.6988812936534     0.995392230775023    -2.49473337692952    
2621.17580219487     0.995224930006727    -2.64247013257632    0.046252628992166    82.7546351875229     0.046252628992166    82.7546351875229     0.995224930006727    -2.64247013257632    
2647.19147008688     0.995049478796054    -2.79040683408503    0.048827894418844    82.7874731917199     0.048827894418844    82.7874731917199     0.995049478796054    -2.79040683408503    
2673.465348426       0.994865820526235    -2.93855497746232    0.051407049842501    82.800752485613      0.051407049842501    82.800752485613      0.994865820526235    -2.93855497746232    
2700.00000000001     0.994673896128646    -3.08692603146944    0.053990206359893    82.7971929599553     0.053990206359893    82.7971929599553     0.994673896128646    -3.08692603146944    
