# MHz S MA R 50      
!Freq                MagS11               AngS11               MagS21               AngS21               MagS12               AngS12               MagS22               AngS22               
1                    0.202099847794621    58.0338106511203     0.909314828798629    -10.8683202268544    0.909314828798629    -10.8683202268544    0.202099847794621    58.0338106511203     
1.00692569863907     0.203283573375996    58.0690220247165     0.909006027274449    -10.9407627237602    0.909006027274449    -10.9407627237602    0.203283573375996    58.0690220247165     
1.01389936257978     0.204475022999786    58.1032767144276     0.908694123194146    -11.0136608671873    0.908694123194146    -11.0136608671873    0.204475022999786    58.1032767144276     
1.02092132401536     0.205674228587066    58.1365733500811     0.908379082158024    -11.0870170166988    0.908379082158024    -11.0870170166988    0.205674228587066    58.1365733500811     
1.02799191743969     0.206881221937374    58.1689105819556     0.908060869427087    -11.1608335342576    0.908060869427087    -11.1608335342576    0.206881221937374    58.1689105819556     
1.03511147966328     0.208096034722659    58.2002870805477     0.907739449921281    -11.2351127840093    0.907739449921281    -11.2351127840093    0.208096034722659    58.2002870805477     
1.04228034982927     0.20931869848112     58.2307015363452     0.907414788217798    -11.3098571320591    0.907414788217798    -11.3098571320591    0.20931869848112     58.2307015363452     
1.04949886942961     0.210549244610914    58.2601526596094     0.907086848549357    -11.3850689462453    0.907086848549357    -11.3850689462453    0.210549244610914    58.2601526596094     
1.05676738232133     0.211787704363756    58.2886391801677     0.906755594802573    -11.4607505959058    0.906755594802573    -11.4607505959058    0.211787704363756    58.2886391801677     
1.06408623474289     0.213034108838397    58.3161598472126     0.90642099051638     -11.5369044516416    0.90642099051638     -11.5369044516416    0.213034108838397    58.3161598472126     
1.0714557753307      0.214288488973972    58.3427134291113     0.906082998880439    -11.6135328850725    0.906082998880439    -11.6135328850725    0.214288488973972    58.3427134291113     
1.07887635513573     0.215550875543246    58.3682987132245     0.905741582733658    -11.6906382685902    0.905741582733658    -11.6906382685902    0.215550875543246    58.3682987132245     
1.08634832764023     0.216821299145714    58.3929145057316     0.905396704562735    -11.7682229751046    0.905396704562735    -11.7682229751046    0.216821299145714    58.3929145057316     
1.09387204877452     0.218099790200591    58.4165596314696     0.905048326500736    -11.8462893777841    0.905048326500736    -11.8462893777841    0.218099790200591    58.4165596314696     
1.10144787693404     0.219386378939671    58.4392329337771     0.904696410325736    -11.9248398497922    0.904696410325736    -11.9248398497922    0.219386378939671    58.4392329337771     
1.10907617299633     0.220681095400067    58.460933274351      0.904340917459556    -12.0038767640171    0.904340917459556    -12.0038767640171    0.220681095400067    58.460933274351      
1.11675730033828     0.221983969416817    58.48165953311       0.903981808966491    -12.0834024927966    0.903981808966491    -12.0834024927966    0.221983969416817    58.48165953311       
1.1244916248534      0.223295030615357    58.5014106080708     0.90361904555213     -12.1634194076362    0.90361904555213     -12.1634194076362    0.223295030615357    58.5014106080708     
1.1322795149693      0.224614308403878    58.5201854152312     0.90325258756223     -12.2439298789228    0.90325258756223     -12.2439298789228    0.224614308403878    58.5201854152312     
1.14012134166517     0.225941831965549    58.5379828884643     0.902882394981691    -12.3249362756317    0.902882394981691    -12.3249362756317    0.225941831965549    58.5379828884643     
1.14801747848952     0.2272776302506      58.5548019794238     0.902508427433526    -12.406440965028     0.902508427433526    -12.406440965028     0.2272776302506      58.5548019794238     
1.15596830157792     0.228621731968285    58.5706416574563     0.902130644177954    -12.4884463123623    0.902130644177954    -12.4884463123623    0.228621731968285    58.5706416574563     
1.16397418967097     0.229974165578699    58.5855009095277     0.901749004111531    -12.5709546805595    0.901749004111531    -12.5709546805595    0.229974165578699    58.5855009095277     
1.17203552413229     0.231334959284483    58.5993787401564     0.901363465766396    -12.6539684299028    0.901363465766396    -12.6539684299028    0.231334959284483    58.5993787401564     
1.18015268896671     0.232704141022377    58.6122741713577     0.900973987309547    -12.7374899177111    0.900973987309547    -12.7374899177111    0.232704141022377    58.6122741713577     
1.18832607083859     0.234081738454634    58.6241862426004     0.900580526542209    -12.8215214980089    0.900580526542209    -12.8215214980089    0.234081738454634    58.6241862426004     
1.19655605909017     0.235467778960331    58.6351140107707     0.900183040899294    -12.9060655211929    0.900183040899294    -12.9060655211929    0.235467778960331    58.6351140107707     
1.20484304576018     0.236862289626491    58.6450565501506     0.899781487448918    -12.9911243336884    0.899781487448918    -12.9911243336884    0.236862289626491    58.6450565501506     
1.2131874256025      0.238265297239124    58.6540129524018     0.899375822892053    -13.0767002776032    0.899375822892053    -13.0767002776032    0.238265297239124    58.6540129524018     
1.22158959610493     0.239676828274102    58.6619823265651     0.898966003562198    -13.1627956903725    0.898966003562198    -13.1627956903725    0.239676828274102    58.6619823265651     
1.23004995750818     0.241096908887881    58.6689637990676     0.898551985425184    -13.2494129043977    0.898551985425184    -13.2494129043977    0.241096908887881    58.6689637990676     
1.23856891282489     0.242525564908129    58.6749565137417     0.898133724079077    -13.3365542466797    0.898133724079077    -13.3365542466797    0.242525564908129    58.6749565137417     
1.24714686785883     0.243962821824179    58.6799596318548     0.897711174754162    -13.4242220384444    0.897711174754162    -13.4242220384444    0.243962821824179    58.6799596318548     
1.25578423122429     0.245408704777358    58.6839723321497     0.897284292312997    -13.5124185947626    0.897284292312997    -13.5124185947626    0.245408704777358    58.6839723321497     
1.26448141436544     0.246863238551167    58.6869938108963     0.89685303125063     -13.6011462241616    0.89685303125063     -13.6011462241616    0.246863238551167    58.6869938108963     
1.27323883157605     0.248326447561347    58.6890232819541     0.896417345694877    -13.6904072282321    0.896417345694877    -13.6904072282321    0.248326447561347    58.6890232819541     
1.28205690001911     0.24979835584577     58.6900599768452     0.895977189406719    -13.7802039012267    0.895977189406719    -13.7802039012267    0.24979835584577     58.6900599768452     
1.29093603974678     0.251278987054218    58.6901031448399     0.895532515780793    -13.8705385296517    0.895532515780793    -13.8705385296517    0.251278987054218    58.6901031448399     
1.29987667372038     0.252768364438016    58.6891520530513     0.895083277846044    -13.9614133918527    0.895083277846044    -13.9614133918527    0.252768364438016    58.6891520530513     
1.30887922783053     0.254266510839522    58.687205986543      0.89462942826642     -14.052830757593     0.89462942826642     -14.052830757593     0.254266510839522    58.687205986543      
1.31794413091742     0.255773448681472    58.6842642484475     0.894170919341758    -14.1447928876241    0.894170919341758    -14.1447928876241    0.255773448681472    58.6842642484475     
1.32707181479129     0.257289199956206    58.680326160094      0.893707703008742    -14.2373020332503    0.893707703008742    -14.2373020332503    0.257289199956206    58.680326160094      
1.33626271425294     0.258813786214734    58.6753910611515     0.893239730842002    -14.3303604358852    0.893239730842002    -14.3303604358852    0.258813786214734    58.6753910611515     
1.34551726711449     0.260347228555678    58.6694583097784     0.892766954055356    -14.4239703266023    0.892766954055356    -14.4239703266023    0.260347228555678    58.6694583097784     
1.35483591422019     0.261889547614069    58.6625272827872     0.892289323503175    -14.5181339256769    0.892289323503175    -14.5181339256769    0.261889547614069    58.6625272827872     
1.36421909946747     0.263440763550005    58.6545973758183     0.891806789681844    -14.6128534421215    0.891806789681844    -14.6128534421215    0.263440763550005    58.6545973758183     
1.37366726982805     0.265000896037189    58.6456680035265     0.891319302731444    -14.7081310732146    0.891319302731444    -14.7081310732146    0.265000896037189    58.6456680035265     
1.38318087536923     0.266569964251299    58.6357385997779     0.890826812437503    -14.8039690040207    0.890826812437503    -14.8039690040207    0.266569964251299    58.6357385997779     
1.39276036927537     0.268147986858258    58.6248086178596     0.890329268232897    -14.9003694069044    0.890329268232897    -14.9003694069044    0.268147986858258    58.6248086178596     
1.40240620786941     0.269734982002346    58.6128775306979     0.889826619199955    -14.9973344410359    0.889826619199955    -14.9973344410359    0.269734982002346    58.6128775306979     
1.41211885063468     0.27133096729419     58.5999448310922     0.889318814072679    -15.0948662518906    0.889318814072679    -15.0948662518906    0.27133096729419     58.5999448310922     
1.42189876023673     0.272935959798616    58.586010031956      0.888805801239078    -15.1929669707397    0.888805801239078    -15.1929669707397    0.272935959798616    58.586010031956      
1.43174640254539     0.274549976022361    58.5710726665723     0.888287528743726    -15.2916387141337    0.888287528743726    -15.2916387141337    0.274549976022361    58.5710726665723     
1.441662246657       0.276173031901697    58.5551322888587     0.88776394429049     -15.3908835833807    0.88776394429049     -15.3908835833807    0.276173031901697    58.5551322888587     
1.45164676491667     0.277805142789853    58.5381884736455     0.88723499524532     -15.4907036640127    0.88723499524532     -15.4907036640127    0.277805142789853    58.5381884736455     
1.46170043294087     0.279446323444397    58.5202408169627     0.886700628639356    -15.59110102525      0.886700628639356    -15.59110102525      0.279446323444397    58.5202408169627     
1.47182372964002     0.281096588014402    58.5012889363413     0.886160791172056    -15.6920777194522    0.886160791172056    -15.6920777194522    0.281096588014402    58.5012889363413     
1.48201713724134     0.282755950027578    58.4813324711234     0.885615429214645    -15.7936357815676    0.885615429214645    -15.7936357815676    0.282755950027578    58.4813324711234     
1.49228114131181     0.284424422377212    58.4603710827849     0.885064488813623    -15.8957772285701    0.885064488813623    -15.8957772285701    0.284424422377212    58.4603710827849     
1.50261623078131     0.286102017309013    58.4384044552706     0.884507915694508    -15.9985040588915    0.884507915694508    -15.9985040588915    0.286102017309013    58.4384044552706     
1.51302289796588     0.287788746407872    58.4154322953364     0.883945655265823    -16.1018182518465    0.883945655265823    -16.1018182518465    0.287788746407872    58.4154322953364     
1.52350163859121     0.289484620584432    58.3914543329087     0.883377652623115    -16.2057217670471    0.883377652623115    -16.2057217670471    0.289484620584432    58.3914543329087     
1.53405295181622     0.291189650061625    58.3664703214493     0.882803852553373    -16.310216543814     0.882803852553373    -16.310216543814     0.291189650061625    58.3664703214493     
1.54467734025688     0.29290384436104     58.3404800383353     0.88222419953946     -16.4153045005767    0.88222419953946     -16.4153045005767    0.29290384436104     58.3404800383353     
1.5553753100101      0.294627212289218    58.3134832852483     0.88163863776486     -16.5209875342688    0.88163863776486     -16.5209875342688    0.294627212289218    58.3134832852483     
1.56614737067788     0.296359761923818    58.2854798885745     0.881047111118604    -16.6272675197138    0.881047111118604    -16.6272675197138    0.296359761923818    58.2854798885745     
1.57699403539157     0.298101500599697    58.2564696998175     0.880449563200353    -16.7341463090054    0.880449563200353    -16.7341463090054    0.298101500599697    58.2564696998175     
1.58791582083631     0.299852434894888    58.2264525960187     0.879845937325795    -16.8416257308794    0.879845937325795    -16.8416257308794    0.299852434894888    58.2264525960187     
1.59891324727563     0.301612570616465    58.1954284801931     0.879236176532142    -16.9497075900782    0.879236176532142    -16.9497075900782    0.301612570616465    58.1954284801931     
1.60998683857628     0.303381912786352    58.1633972817711     0.878620223583942    -17.0583936667092    0.878620223583942    -17.0583936667092    0.303381912786352    58.1633972817711     
1.62113712223314     0.305160465626988    58.1303589570544     0.87799802097906     -17.1676857155936    0.87799802097906     -17.1676857155936    0.305160465626988    58.1303589570544     
1.63236462939433     0.30694823254697     58.0963134896806     0.877369510954906    -17.2775854656117    0.877369510954906    -17.2775854656117    0.30694823254697     58.0963134896806     
1.6436698948866      0.308745216126558    58.0612608910994     0.876734635494878    -17.3880946190373    0.876734635494878    -17.3880946190373    0.308745216126558    58.0612608910994     
1.6550534572407      0.310551418103139    58.0252012010584     0.876093336335074    -17.4992148508673    0.876093336335074    -17.4992148508673    0.310551418103139    58.0252012010584     
1.6665158587171      0.312366839356597    57.9881344881        0.87544555497118     -17.610947808144     0.87544555497118     -17.610947808144     0.312366839356597    57.9881344881        
1.67805764533181     0.314191479894623    57.9500608500669     0.874791232665664    -17.72329510927      0.874791232665664    -17.72329510927      0.314191479894623    57.9500608500669     
1.68967936688237     0.316025338837963    57.9109804146203     0.874130310455183    -17.836258343317     0.874130310455183    -17.836258343317     0.316025338837963    57.9109804146203     
1.70138157697405     0.317868414405581    57.8708933397654     0.873462729158216    -17.9498390693266    0.873462729158216    -17.9498390693266    0.317868414405581    57.8708933397654     
1.71316483304624     0.319720703899822    57.8297998143878     0.87278842938301     -18.0640388156066    0.87278842938301     -18.0640388156066    0.319720703899822    57.8297998143878     
1.72502969639898     0.321582203691445    57.7877000588004     0.8721073515357      -18.178859079018     0.8721073515357      -18.178859079018     0.321582203691445    57.7877000588004     
1.73697673221969     0.323452909204688    57.7445943252986     0.871419435828771    -18.2943013242583    0.871419435828771    -18.2943013242583    0.323452909204688    57.7445943252986     
1.74900650961012     0.325332814902239    57.7004828987256     0.870724622289705    -18.4103669831365    0.870724622289705    -18.4103669831365    0.325332814902239    57.7004828987256     
1.76111960161345     0.3272219142702      57.6553660970463     0.87002285076994     -18.5270574538426    0.87002285076994     -18.5270574538426    0.3272219142702      57.6553660970463     
1.77331658524159     0.329120199803013    57.6092442719317     0.869314060954078    -18.6443741002111    0.869314060954078    -18.6443741002111    0.329120199803013    57.6092442719317     
1.78559804150264     0.331027662988366    57.5621178093501     0.868598192369369    -18.7623182509787    0.868598192369369    -18.7623182509787    0.331027662988366    57.5621178093501     
1.79796455542861     0.332944294292076    57.5139871301697     0.867875184395463    -18.8808911990355    0.867875184395463    -18.8808911990355    0.332944294292076    57.5139871301697     
1.81041671610324     0.334870083142974    57.4648526907668     0.86714497627444     -19.000094200671     0.86714497627444     -19.000094200671     0.334870083142974    57.4648526907668     
1.82295511669011     0.336805017917768    57.4147149836457     0.866407507121117    -19.1199284748147    0.866407507121117    -19.1199284748147    0.336805017917768    57.4147149836457     
1.83558035446086     0.338749085925929    57.3635745380639     0.86566271593363     -19.2403952022708    0.86566271593363     -19.2403952022708    0.338749085925929    57.3635745380639     
1.84829303082365     0.340702273394569    57.3114319206667     0.864910541604327    -19.3614955249483    0.864910541604327    -19.3614955249483    0.340702273394569    57.3114319206667     
1.86109375135183     0.342664565453348    57.2582877361301     0.864150922930906    -19.4832305450855    0.864150922930906    -19.4832305450855    0.342664565453348    57.2582877361301     
1.87398312581276     0.34463594611939     57.2041426278101     0.863383798627859    -19.6056013244699    0.863383798627859    -19.6056013244699    0.34463594611939     57.2041426278101     
1.88696176819684     0.346616398282256    57.1489972783997     0.862609107338249    -19.7286088836536    0.862609107338249    -19.7286088836536    0.346616398282256    57.1489972783997     
1.90003029674682     0.348605903688923    57.0928524105945     0.861826787645691    -19.8522542011639    0.861826787645691    -19.8522542011639    0.348605903688923    57.0928524105945     
1.9131893339872      0.350604442928835    57.0357087877626     0.8610367780867      -19.9765382127098    0.8610367780867      -19.9765382127098    0.350604442928835    57.0357087877626     
1.92643950675388     0.352611995419001    56.9775672146231     0.860239017163326    -20.1014618103843    0.860239017163326    -20.1014618103843    0.352611995419001    56.9775672146231     
1.93978144622406     0.354628539389142    56.9184285379315     0.859433443356048    -20.2270258418627    0.859433443356048    -20.2270258418627    0.354628539389142    56.9184285379315     
1.95321578794627     0.356654051866942    56.8582936471684     0.858619995137011    -20.3532311095981    0.858619995137011    -20.3532311095981    0.356654051866942    56.8582936471684     
1.96674317187066     0.358688508663348    56.7971634752374     0.857798610983556    -20.4800783700125    0.857798610983556    -20.4800783700125    0.358688508663348    56.7971634752374     
1.98036424237949     0.360731884357963    56.735038999167      0.856969229392028    -20.6075683326849    0.856969229392028    -20.6075683326849    0.360731884357963    56.735038999167      
1.9940796483178      0.362784152284554    56.6719212408173     0.856131788891903    -20.7357016595375    0.856131788891903    -20.7357016595375    0.362784152284554    56.6719212408173     
2.00789004302436     0.364845284516654    56.6078112675936     0.855286228060242    -20.8644789640177    0.855286228060242    -20.8644789640177    0.364845284516654    56.6078112675936     
2.02179608436274     0.366915251853282    56.5427101931624     0.854432485536419    -20.9939008102793    0.854432485536419    -20.9939008102793    0.366915251853282    56.5427101931624     
2.03579843475269     0.368994023804784    56.476619178174      0.853570500037164    -21.12396771236      0.853570500037164    -21.12396771236      0.368994023804784    56.476619178174      
2.04989776120168     0.371081568578826    56.4095394309877     0.852700210371917    -21.2546801333589    0.852700210371917    -21.2546801333589    0.371081568578826    56.4095394309877     
2.06409473533667     0.373177853066512    56.341472208402      0.851821555458485    -21.3860384846108    0.851821555458485    -21.3860384846108    0.373177853066512    56.341472208402      
2.07839003343611     0.37528284282867     56.2724188163866     0.850934474339022    -21.5180431248602    0.850934474339022    -21.5180431248602    0.37528284282867     56.2724188163866     
2.09278433646214     0.377396502082299    56.2023806108197     0.850038906196272    -21.6506943594341    0.850038906196272    -21.6506943594341    0.377396502082299    56.2023806108197     
2.10727833009304     0.379518793687204    56.1313589982261     0.849134790370181    -21.7839924394145    0.849134790370181    -21.7839924394145    0.379518793687204    56.1313589982261     
2.12187270475591     0.381649679132792    56.0593554365187     0.848222066374762    -21.9179375608105    0.848222066374762    -21.9179375608105    0.381649679132792    56.0593554365187     
2.13656815565952     0.383789118525104    55.9863714357419     0.847300673915291    -22.0525298637305    0.847300673915291    -22.0525298637305    0.383789118525104    55.9863714357419     
2.15136538282746     0.385937070574013    55.9124085588165     0.8463705529058      -22.1877694315544    0.8463705529058      -22.1877694315544    0.385937070574013    55.9124085588165     
2.16626509113145     0.388093492580676    55.8374684222862     0.845431643486852    -22.3236562901067    0.845431643486852    -22.3236562901067    0.388093492580676    55.8374684222862     
2.18126799032497     0.390258340425196    55.761552697065      0.84448388604367     -22.4601904068319    0.84448388604367     -22.4601904068319    0.390258340425196    55.761552697065      
2.19637479507702     0.392431568554551    55.6846631091833     0.843527221224526    -22.59737168997      0.843527221224526    -22.59737168997      0.392431568554551    55.6846631091833     
2.21158622500617     0.39461312997074     55.6068014405379     0.8425615899594      -22.7351999877342    0.8425615899594      -22.7351999877342    0.39461312997074     55.6068014405379     
2.22690300471489     0.396802976219225    55.5279695296381     0.841586933478992    -22.8736750874908    0.841586933478992    -22.8736750874908    0.396802976219225    55.5279695296381     
2.24232586382399     0.399001057377655    55.4481692723517     0.840603193334022    -23.0127967149434    0.840603193334022    -23.0127967149434    0.399001057377655    55.4481692723517     
2.25785553700743     0.401207322044851    55.3674026226514     0.839610311414741    -23.1525645333175    0.839610311414741    -23.1525645333175    0.401207322044851    55.3674026226514     
2.2734927640273      0.403421717330108    55.2856715933584     0.838608229970832    -23.2929781425502    0.838608229970832    -23.2929781425502    0.403421717330108    55.2856715933584     
2.28923828976906     0.405644188842822    55.2029782568837     0.837596891631514    -23.4340370784839    0.837596891631514    -23.4340370784839    0.405644188842822    55.2029782568837     
2.30509286427703     0.407874680682428    55.1193247459669     0.83657623942598     -23.575740812064     0.83657623942598     -23.575740812064     0.407874680682428    55.1193247459669     
2.32105724279009     0.410113135428683    55.0347132544129     0.835546216804068    -23.718088748541     0.835546216804068    -23.718088748541     0.410113135428683    55.0347132544129     
2.33713218577768     0.412359494132298    54.9491460378236     0.834506767657218    -23.861080226679     0.834506767657218    -23.861080226679     0.412359494132298    54.9491460378236     
2.35331845897606     0.414613696305932    54.8626254143272     0.833457836339698    -24.0047145179682    0.833457836339698    -24.0047145179682    0.414613696305932    54.8626254143272     
2.36961683342469     0.416875679915574    54.7751537653016     0.832399367690101    -24.1489908258455    0.832399367690101    -24.1489908258455    0.416875679915574    54.7751537653016     
2.38602808550306     0.419145381372299    54.6867335360932     0.831331307053051    -24.2939082849202    0.831331307053051    -24.2939082849202    0.419145381372299    54.6867335360932     
2.40255299696762     0.421422735524426    54.597367236732      0.83025360030122     -24.4394659602072    0.83025360030122     -24.4394659602072    0.421422735524426    54.597367236732      
2.41919235498901     0.42370767565011     54.5070574426371     0.829166193857538    -24.5856628463682    0.829166193857538    -24.5856628463682    0.42370767565011     54.5070574426371     
2.43594695218961     0.426000133450335    54.4158067953192     0.828069034717666    -24.7324978669609    0.828069034717666    -24.7324978669609    0.426000133450335    54.4158067953192     
2.45281758668124     0.428300039042379    54.3236180030739     0.826962070472693    -24.8799698736967    0.826962070472693    -24.8799698736967    0.428300039042379    54.3236180030739     
2.46980506210321     0.430607320953689    54.230493841668      0.825845249332071    -25.028077645707     0.825845249332071    -25.028077645707     0.430607320953689    54.230493841668      
2.48691018766059     0.432921906116256    54.1364371550191     0.824718520146703    -25.1768198888192    0.824718520146703    -25.1768198888192    0.432921906116256    54.1364371550191     
2.50413377816277     0.435243719861467    54.0414508558634     0.823581832432335    -25.3261952348445    0.823581832432335    -25.3261952348445    0.435243719861467    54.0414508558634     
2.52147665406224     0.437572685915429    53.9455379264177     0.822435136393082    -25.4762022408735    0.822435136393082    -25.4762022408735    0.437572685915429    53.9455379264177     
2.53893964149373     0.439908726394814    53.8487014190289     0.821278382945154    -25.6268393885855    0.821278382945154    -25.6268393885855    0.439908726394814    53.8487014190289     
2.55652357231351     0.442251761803197    53.750944456816      0.820111523740778    -25.7781050835672    0.820111523740778    -25.7781050835672    0.442251761803197    53.750944456816      
2.57422928413904     0.444601711027972    53.652270234298      0.818934511192276    -25.9299976546468    0.818934511192276    -25.9299976546468    0.444601711027972    53.652270234298      
2.59205762038886     0.446958491337747    53.5526820180132     0.81774729849635     -26.0825153532369    0.81774729849635     -26.0825153532369    0.446958491337747    53.5526820180132     
2.61000943032278     0.449322018380345    53.4521831471243     0.816549839658445    -26.2356563526944    0.816549839658445    -26.2356563526944    0.449322018380345    53.4521831471243     
2.62808556908233     0.451692206181334    53.3507770340129     0.815342089517332    -26.3894187476915    0.815342089517332    -26.3894187476915    0.451692206181334    53.3507770340129     
2.64628689773149     0.454068967143165    53.2484671648593     0.814124003769778    -26.5438005536036    0.814124003769778    -26.5438005536036    0.454068967143165    53.2484671648593     
2.6646142832977      0.456452212044875    53.1452571002095     0.812895538995351    -26.6987997059095    0.812895538995351    -26.6987997059095    0.456452212044875    53.1452571002095     
2.68306859881319     0.458841850042416    53.0411504755268     0.811656652681322    -26.8544140596096    0.811656652681322    -26.8544140596096    0.458841850042416    53.0411504755268     
2.70165072335652     0.461237788669578    52.9361510017299     0.810407303247728    -27.0106413886591    0.810407303247728    -27.0106413886591    0.461237788669578    52.9361510017299     
2.72036154209452     0.463639933839553    52.8302624657141     0.809147450072402    -27.1674793854179    0.809147450072402    -27.1674793854179    0.463639933839553    52.8302624657141     
2.73920194632439     0.466048189847112    52.7234887308583     0.807877053516196    -27.3249256601173    0.807877053516196    -27.3249256601173    0.466048189847112    52.7234887308583     
2.75817283351619     0.468462459371463    52.6158337375122     0.806596074948208    -27.4829777403459    0.806596074948208    -27.4829777403459    0.468462459371463    52.6158337375122     
2.7772751073556      0.470882643479736    52.5073015034707     0.805304476771056    -27.6416330705523    0.805304476771056    -27.6416330705523    0.470882643479736    52.5073015034707     
2.79650967778694     0.473308641631156    52.3978961244257     0.804002222446198    -27.8008890115678    0.804002222446198    -27.8008890115678    0.473308641631156    52.3978961244257     
2.81587746105654     0.4757403516819      52.2876217744023     0.802689276519293    -27.9607428401495    0.802689276519293    -27.9607428401495    0.4757403516819      52.2876217744023     
2.83537937975637     0.478177669890603    52.1764827061766     0.801365604645509    -28.1211917485392    0.801365604645509    -28.1211917485392    0.478177669890603    52.1764827061766     
2.855016362868       0.480620490924628    52.0644832516705     0.800031173614905    -28.2822328440499    0.800031173614905    -28.2822328440499    0.480620490924628    52.0644832516705     
2.87478934580684     0.483068707866975    51.9516278223307     0.798685951377698    -28.4438631486666    0.798685951377698    -28.4438631486666    0.483068707866975    51.9516278223307     
2.89469927046672     0.485522212223955    51.8379209094835     0.797329907069592    -28.6060795986732    0.797329907069592    -28.6060795986732    0.485522212223955    51.8379209094835     
2.91474708526471     0.487980893933576    51.7233670846694     0.795963011036964    -28.7688790443006    0.795963011036964    -28.7688790443006    0.487980893933576    51.7233670846694     
2.93493374518637     0.490444641374647    51.6079709999566     0.794585234862031    -28.9322582493968    0.794585234862031    -28.9322582493968    0.490444641374647    51.6079709999566     
2.95526021183117     0.492913341376652    51.4917373882305     0.793196551387936    -29.096213891122     0.793196551387936    -29.096213891122     0.492913341376652    51.4917373882305     
2.97572745345835     0.495386879230339    51.3746710634619     0.791796934743688    -29.2607425596659    0.791796934743688    -29.2607425596659    0.495386879230339    51.3746710634619     
2.99633644503302     0.49786513869909     51.2567769209501     0.790386360369036    -29.4258407579907    0.790386360369036    -29.4258407579907    0.49786513869909     51.2567769209501     
3.01708816827258     0.500348002031058    51.1380599375423     0.788964805039162    -29.5915049015996    0.788964805039162    -29.5915049015996    0.500348002031058    51.1380599375423     
3.03798361169355     0.502835349972031    51.0185251718291     0.787532246889281    -29.7577313183286    0.787532246889281    -29.7577313183286    0.502835349972031    51.0185251718291     
3.05902377065857     0.505327061779118    50.8981777643139     0.786088665438986    -29.9245162481667    0.786088665438986    -29.9245162481667    0.505327061779118    50.8981777643139     
3.08020964742391     0.507823015235194    50.777022937556      0.784634041616494    -30.0918558431028    0.784634041616494    -30.0918558431028    0.507823015235194    50.777022937556      
3.10154225118713     0.510323086664106    50.6550659962904     0.783168357782618    -30.2597461669959    0.783168357782618    -30.2597461669959    0.510323086664106    50.6550659962904     
3.1230225981352      0.512827150946717    50.5323123275162     0.781691597754568    -30.4281831954789    0.781691597754568    -30.4281831954789    0.512827150946717    50.5323123275162     
3.1446517114929      0.515335081537682    50.4087674005621     0.78020374682948     -30.5971628158849    0.78020374682948     -30.5971628158849    0.515335081537682    50.4087674005621     
3.16643062157154     0.517846750483053    50.2844367671222     0.778704791807676    -30.7666808272046    0.778704791807676    -30.7666808272046    0.517846750483053    50.2844367671222     
3.18836036581807     0.520362028438704    50.1593260612616     0.777194721015686    -30.9367329400748    0.777194721015686    -30.9367329400748    0.520362028438704    50.1593260612616     
3.21044198886449     0.522880784689454    50.0334409993993     0.775673524328941    -31.1073147767895    0.775673524328941    -31.1073147767895    0.522880784689454    50.0334409993993     
3.23267654257759     0.525402887169127    49.9067873802545     0.774141193194144    -31.2784218713494    0.774141193194144    -31.2784218713494    0.525402887169127    49.9067873802545     
3.25506508610907     0.52792820248129     49.7793710847689     0.772597720651354    -31.4500496695353    0.772597720651354    -31.4500496695353    0.52792820248129     49.7793710847689     
3.27760868594603     0.530456595920857    49.6511980759969     0.771043101355636    -31.6221935290148    0.771043101355636    -31.6221935290148    0.530456595920857    49.6511980759969     
3.3003084159617      0.532987931496467    49.5222743989653     0.769477331598423    -31.7948487194794    0.769477331598423    -31.7948487194794    0.532987931496467    49.5222743989653     
3.32316535746664     0.535522071953672    49.3926061805027     0.767900409328438    -31.9680104228145    0.767900409328438    -31.9680104228145    0.535522071953672    49.3926061805027     
3.34618059926026     0.53805887879889     49.2621996290379     0.766312334172203    -32.1416737332981    0.766312334172203    -32.1416737332981    0.53805887879889     49.2621996290379     
3.36935523768264     0.54059821232419     49.1310610343657     0.764713107454141    -32.3158336578351    0.764713107454141    -32.3158336578351    0.54059821232419     49.1310610343657     
3.39269037666681     0.54313993163283     48.9991967673828     0.763102732216209    -32.4904851162216    0.763102732216209    -32.4904851162216    0.54313993163283     48.9991967673828     
3.41618712779128     0.545683894665583    48.8666132797903     0.761481213237075    -32.6656229414428    0.761481213237075    -32.6656229414428    0.545683894665583    48.8666132797903     
3.43984661033304     0.54822995822787     48.7333171037629     0.7598485570508      -32.8412418800047    0.7598485570508      -32.8412418800047    0.54822995822787     48.7333171037629     
3.46366995132084     0.550777978017629    48.5993148515869     0.758204771965013    -33.0173365922979    0.758204771965013    -33.0173365922979    0.550777978017629    48.5993148515869     
3.4876582855889      0.553327808653959    48.4646132152656     0.756549868078564    -33.193901652995     0.756549868078564    -33.193901652995     0.553327808653959    48.4646132152656     
3.51181275583095     0.555879303706546    48.3292189660888     0.754883857298627    -33.3709315514837    0.754883857298627    -33.3709315514837    0.555879303706546    48.3292189660888     
3.53613451265468     0.558432315725808    48.1931389541716     0.753206753357253    -33.5484206923313    0.753206753357253    -33.5484206923313    0.558432315725808    48.1931389541716     
3.56062471463655     0.560986696273797    48.0563801079584     0.751518571827323    -33.7263633957848    0.751518571827323    -33.7263633957848    0.560986696273797    48.0563801079584     
3.58528452837695     0.563542295955835    47.9189494336926     0.749819330137909    -33.9047538983058    0.749819330137909    -33.9047538983058    0.563542295955835    47.9189494336926     
3.61011512855582     0.566098964452863    47.7808540148539     0.748109047589028    -34.0835863531381    0.748109047589028    -34.0835863531381    0.566098964452863    47.7808540148539     
3.63511769798855     0.568656550554534    47.6421010115582     0.746387745365733    -34.2628548309137    0.746387745365733    -34.2628548309137    0.568656550554534    47.6421010115582     
3.66029342768237     0.571214902192927    47.5026976599288     0.744655446551586    -34.4425533202866    0.744655446551586    -34.4425533202866    0.571214902192927    47.5026976599288     
3.68564351689307     0.573773866477063    47.3626512714262     0.74291217614142     -34.6226757286106    0.74291217614142     -34.6226757286106    0.573773866477063    47.3626512714262     
3.71116917318213     0.576333289727979    47.2219692321502     0.741157961053464    -34.8032158826434    0.741157961053464    -34.8032158826434    0.576333289727979    47.2219692321502     
3.7368716124742      0.578893017514555    47.0806590021031     0.739392830140704    -34.9841675292913    0.739392830140704    -34.9841675292913    0.578893017514555    47.0806590021031     
3.7627520591151      0.58145289468992     46.9387281144205     0.737616814201567    -35.1655243363855    0.737616814201567    -35.1655243363855    0.58145289468992     46.9387281144205     
3.78881174593007     0.584012765428532    46.7961841745671     0.73582994598985     -35.3472798934955    0.73582994598985     -35.3472798934955    0.584012765428532    46.7961841745671     
3.81505191428256     0.586572473263859    46.6530348594976     0.734032260223915    -35.529427712776     0.734032260223915    -35.529427712776     0.586572473263859    46.6530348594976     
3.8414738141333      0.58913186112662     46.5092879167862     0.732223793595079    -35.7119612298473    0.732223793595079    -35.7119612298473    0.58913186112662     46.5092879167862     
3.86807870409987     0.591690771383686    46.3649511637163     0.730404584775264    -35.8948738047143    0.730404584775264    -35.8948738047143    0.591690771383686    46.3649511637163     
3.89486785151668     0.59424904587746     46.2200324863422     0.728574674423824    -36.0781587227152    0.728574674423824    -36.0781587227152    0.59424904587746     46.2200324863422     
3.92184253249529     0.596806525965838    46.0745398385132     0.726734105193573    -36.2618091955074    0.726734105193573    -36.2618091955074    0.596806525965838    46.0745398385132     
3.94900403198525     0.599363052562712    45.9284812408643     0.724882921735994    -36.4458183620876    0.724882921735994    -36.4458183620876    0.599363052562712    45.9284812408643     
3.97635364383525     0.601918466178917    45.7818647797749     0.723021170705576    -36.6301792898437    0.723021170705576    -36.6301792898437    0.601918466178917    45.7818647797749     
4.00389267085483     0.604472606963715    45.6346986062932     0.721148900763391    -36.8148849756428    0.721148900763391    -36.8148849756428    0.604472606963715    45.6346986062932     
4.03162242487636     0.607025314746704    45.4869909350271     0.719266162579686    -36.9999283469502    0.719266162579686    -36.9999283469502    0.607025314746704    45.4869909350271     
4.05954422681758     0.609576429080187    45.3387500430032     0.717373008835718    -37.185302262984     0.717373008835718    -37.185302262984     0.609576429080187    45.3387500430032     
4.0876594067445      0.612125789281935    45.189984268493      0.715469494224661    -37.3709995159004    0.715469494224661    -37.3709995159004    0.612125789281935    45.189984268493      
4.11596930393478     0.614673234478341    45.0407020098077     0.713555675451602    -37.5570128320119    0.713555675451602    -37.5570128320119    0.614673234478341    45.0407020098077     
4.1444752669415      0.61721860364798     44.8909117240587     0.711631611232682    -37.7433348730395    0.711631611232682    -37.7433348730395    0.61721860364798     44.8909117240587     
4.17317865365743     0.619761735665436    44.7406219258916     0.709697362293307    -37.929958237392     0.709697362293307    -37.929958237392     0.619761735665436    44.7406219258916     
4.20208083137966     0.622302469345522    44.5898411861842     0.707752991365443    -38.1168754614818    0.707752991365443    -38.1168754614818    0.622302469345522    44.5898411861842     
4.23118317687482     0.624840643487752    44.4385781307164     0.705798563183998    -38.3040790210681    0.705798563183998    -38.3040790210681    0.624840643487752    44.4385781307164     
4.26048707644456     0.627376096921066    44.286841438812      0.70383414448228     -38.4915613326304    0.70383414448228     -38.4915613326304    0.627376096921066    44.286841438812      
4.28999392599168     0.629908668548833    44.1346398419467     0.701859803986497    -38.6793147547732    0.701859803986497    -38.6793147547732    0.629908668548833    44.1346398419467     
4.31970513108655     0.63243819739403     43.9819821223315     0.699875612409377    -38.8673315896587    0.699875612409377    -38.8673315896587    0.63243819739403     43.9819821223315     
4.3496221070341      0.634964522644616    43.828877111465      0.697881642442751    -39.0556040844686    0.697881642442751    -39.0556040844686    0.634964522644616    43.828877111465      
4.37974627894126     0.637487483699082    43.6753336886586     0.695877968749314    -39.244124432894     0.695877968749314    -39.244124432894     0.637487483699082    43.6753336886586     
4.41007908178481     0.640006920212084    43.5213607795359     0.693864667953334    -39.4328847766517    0.693864667953334    -39.4328847766517    0.640006920212084    43.5213607795359     
4.44062196047972     0.642522672140217    43.3669673545041     0.691841818630472    -39.6218772070277    0.691841818630472    -39.6218772070277    0.642522672140217    43.3669673545041     
4.47137636994805     0.645034579787851    43.2121624271988     0.689809501296641    -39.811093766449     0.689809501296641    -39.811093766449     0.645034579787851    43.2121624271988     
4.50234377518818     0.647542483852978    43.0569550529076     0.687767798395912    -40.0005264500753    0.687767798395912    -40.0005264500753    0.647542483852978    43.0569550529076     
4.53352565134463     0.650046225473111    42.9013543269639     0.68571679428747     -40.1901672074212    0.68571679428747     -40.1901672074212    0.650046225473111    42.9013543269639     
4.56492348377834     0.652545646271158    42.7453693831211     0.683656575231645    -40.3800079439996    0.683656575231645    -40.3800079439996    0.652545646271158    42.7453693831211     
4.59653876813741     0.655040588401212    42.5890093919029     0.681587229374994    -40.5700405229863    0.681587229374994    -40.5700405229863    0.655040588401212    42.5890093919029     
4.62837301042835     0.657530894594325    42.4322835589298     0.679508846734423    -40.7602567669116    0.679508846734423    -40.7602567669116    0.657530894594325    42.4322835589298     
4.66042772708778     0.660016408204113    42.2752011232272     0.677421519180414    -40.9506484593684    0.677421519180414    -40.9506484593684    0.660016408204113    42.2752011232272     
4.69270444505477     0.662496973252274    42.1177713555104     0.675325340419283    -41.1412073467449    0.675325340419283    -41.1412073467449    0.662496973252274    42.1177713555104     
4.72520470184345     0.664972434473917    41.9600035564511     0.673220405974556    -41.3319251399745    0.673220405974556    -41.3319251399745    0.664972434473917    41.9600035564511     
4.75793004561634     0.667442637362685    41.8019070549255     0.671106813167415    -41.5227935163057    0.671106813167415    -41.5227935163057    0.667442637362685    41.8019070549255     
4.79088203525807     0.669907428215689    41.6434912062432     0.668984661096224    -41.7138041210907    0.668984661096224    -41.7138041210907    0.669907428215689    41.6434912062432     
4.82406224044961     0.672366654178125    41.4847653903616     0.666854050615174    -41.9049485695888    0.666854050615174    -41.9049485695888    0.672366654178125    41.4847653903616     
4.85747224174309     0.674820163287686    41.3257390100802     0.664715084312031    -42.0962184487897    0.664715084312031    -42.0962184487897    0.674820163287686    41.3257390100802     
4.89111363063706     0.677267804518573    41.1664214892245     0.66256786648503     -42.2876053192481    0.66256786648503     -42.2876053192481    0.677267804518573    41.1664214892245     
4.9249880096523      0.679709427825226    41.0068222708123     0.660412503118859    -42.4791007169347    0.660412503118859    -42.4791007169347    0.679709427825226    41.0068222708123     
4.9590969924082      0.682144884185642    40.846950815208      0.658249101859846    -42.6706961551008    0.658249101859846    -42.6706961551008    0.682144884185642    40.846950815208      
4.99344220369954     0.684574025644327    40.6868165982648     0.656077771990241    -42.8623831261546    0.656077771990241    -42.8623831261546    0.684574025644327    40.6868165982648     
5.02802527957399     0.686996705354767    40.5264291094554     0.653898624401731    -43.0541531035482    0.653898624401731    -43.0541531035482    0.686996705354767    40.5264291094554     
5.06284786740995     0.689412777621491    40.3657978499926     0.651711771568103    -43.2459975436766    0.651711771568103    -43.2459975436766    0.689412777621491    40.3657978499926     
5.0979116259951      0.691822097941606    40.2049323309404     0.649517327517139    -43.4379078877844    0.649517327517139    -43.4379078877844    0.691822097941606    40.2049323309404     
5.13321822560536     0.69422452304584     40.0438420713175     0.647315407801698    -43.6298755638815    0.647315407801698    -43.6298755638815    0.69422452304584     40.0438420713175     
5.1687693480845      0.696619910939024    39.8825365961937     0.645106129470055    -43.8218919886657    0.645106129470055    -43.8218919886657    0.696619910939024    39.8825365961937     
5.2045666869242      0.69900812094003     39.7210254347793     0.642889611035504    -44.0139485694521    0.642889611035504    -44.0139485694521    0.69900812094003     39.7210254347793     
5.24061194734479     0.701389013721094    39.5593181185091     0.640665972445196    -44.2060367061082    0.640665972445196    -44.2060367061082    0.701389013721094    39.5593181185091     
5.27690684637642     0.703762451346515    39.3974241791252     0.638435335048313    -44.3981477929901    0.638435335048313    -44.3981477929901    0.703762451346515    39.3974241791252     
5.31345311294088     0.706128297310721    39.2353531467535     0.636197821563506    -44.5902732208855    0.636197821563506    -44.5902732208855    0.706128297310721    39.2353531467535     
5.35025248793394     0.70848641657565     39.0731145479802     0.633953556045725    -44.7824043789561    0.633953556045725    -44.7824043789561    0.70848641657565     39.0731145479802     
5.38730672430832     0.710836675607457    38.9107179039269     0.631702663852308    -44.9745326566825    0.631702663852308    -44.9745326566825    0.710836675607457    38.9107179039269     
5.42461758715712     0.713178942412475    38.7481727283257     0.629445271608558    -45.1666494458074    0.629445271608558    -45.1666494458074    0.713178942412475    38.7481727283257     
5.46218685379798     0.715513086572457    38.5854885255965     0.627181507172605    -45.3587461422792    0.627181507172605    -45.3587461422792    0.715513086572457    38.5854885255965     
5.50001631385768     0.717838979279032    38.4226747889259     0.624911499599774    -45.5508141481911    0.624911499599774    -45.5508141481911    0.717838979279032    38.4226747889259     
5.53810776935744     0.720156493367408    38.2597409983493     0.622635379106332    -45.7428448737197    0.622635379106332    -45.7428448737197    0.720156493367408    38.2597409983493     
5.57646303479871     0.722465503349245    38.0966966188378     0.620353277032731    -45.9348297390575    0.620353277032731    -45.9348297390575    0.722465503349245    38.0966966188378     
5.61508393724965     0.724765885444685    37.9335510983927     0.618065325806336    -46.1267601763373    0.618065325806336    -46.1267601763373    0.724765885444685    37.9335510983927     
5.65397231643214     0.72705751761362     37.77031386614       0.615771658903647    -46.3186276315586    0.615771658903647    -46.3186276315586    0.72705751761362     37.77031386614       
5.6931300248094      0.729340279585961    37.6069943304432     0.613472410812107    -46.5104235664932    0.613472410812107    -46.5104235664932    0.729340279585961    37.6069943304432     
5.73255892767428     0.731614052891178    37.4436018770127     0.611167716991398    -46.7021394605967    0.611167716991398    -46.7021394605967    0.731614052891178    37.4436018770127     
5.77226090323807     0.733878720886819    37.280145867035      0.608857713834386    -46.8937668128983    0.608857713834386    -46.8937668128983    0.733878720886819    37.280145867035      
5.81223784271999     0.736134168786189    37.1166356353062     0.606542538627675    -47.0852971438872    0.606542538627675    -47.0852971438872    0.736134168786189    37.1166356353062     
5.85249165043728     0.738380283685078    36.9530804883803     0.604222329511776    -47.2767219973849    0.604222329511776    -47.2767219973849    0.738380283685078    36.9530804883803     
5.89302424389589     0.74061695458755     36.7894897027283     0.60189722544095     -47.4680329424045    0.60189722544095     -47.4680329424045    0.74061695458755     36.7894897027283     
5.93383755388186     0.74284407243077     36.6258725229129     0.599567366142764    -47.6592215749973    0.599567366142764    -47.6592215749973    0.74284407243077     36.6258725229129     
5.97493352455325     0.745061530108872    36.4622381597757     0.597232892077365    -47.850279520084     0.597232892077365    -47.850279520084     0.745061530108872    36.4622381597757     
6.01631411353279     0.747269222495843    36.2985957886429     0.594893944396469    -48.0411984332702    0.594893944396469    -48.0411984332702    0.747269222495843    36.2985957886429     
6.05798129200112     0.74946704646743     36.1349545475431     0.592550664902168    -48.2319700026475    0.592550664902168    -48.2319700026475    0.74946704646743     36.1349545475431     
6.09993704479065     0.751654900922036    35.9713235354472     0.590203196005519    -48.4225859505738    0.590203196005519    -48.4225859505738    0.751654900922036    35.9713235354472     
6.14218337048018     0.753832686800612    35.8077118105229     0.587851680684958    -48.6130380354388    0.587851680684958    -48.6130380354388    0.753832686800612    35.8077118105229     
6.18472228149005     0.756000307105531    35.6441283884117     0.5854962624446      -48.8033180534064    0.5854962624446      -48.8033180534064    0.756000307105531    35.6441283884117     
6.227555804178       0.758157666918449    35.4805822405229     0.58313708527237     -48.9934178401405    0.58313708527237     -48.9934178401405    0.758157666918449    35.4805822405229     
6.27068597893574     0.76030467341714     35.3170822923502     0.580774293598118    -49.183329272509     0.580774293598118    -49.183329272509     0.76030467341714     35.3170822923502     
6.3141148602861      0.762441235891282    35.1536374218098     0.578408032251606    -49.3730442702643    0.578408032251606    -49.3730442702643    0.762441235891282    35.1536374218098     
6.35784451698092     0.764567265757229    34.9902564576011     0.576038446420503    -49.5625547977034    0.576038446420503    -49.5625547977034    0.764567265757229    34.9902564576011     
6.40187703209961     0.766682676571717    34.8269481775914     0.57366568160836     -49.7518528653021    0.57366568160836     -49.7518528653021    0.766682676571717    34.8269481775914     
6.44621450314833     0.768787384044568    34.6637213072218     0.571289883592615    -49.9409305313292    0.571289883592615    -49.9409305313292    0.768787384044568    34.6637213072218     
6.49085904215995     0.770881306050319    34.5005845179416     0.568911198382628    -50.1297799034321    0.568911198382628    -50.1297799034321    0.770881306050319    34.5005845179416     
6.53581277579464     0.772964362638815    34.3375464256663     0.566529772177807    -50.3183931401978    0.566529772177807    -50.3183931401978    0.772964362638815    34.3375464256663     
6.58107784544119     0.775036476044769    34.1746155892623     0.56414575132582     -50.5067624526879    0.56414575132582     -50.5067624526879    0.775036476044769    34.1746155892623     
6.62665640731898     0.777097570696286    34.0118005090576     0.561759282280966    -50.6948801059481    0.561759282280966    -50.6948801059481    0.777097570696286    34.0118005090576     
6.67255063258075     0.779147573222327    33.849109625382      0.559370511562639    -50.8827384204867    0.559370511562639    -50.8827384204867    0.779147573222327    33.849109625382      
6.71876270741595     0.781186412459166    33.6865513171331     0.556979585714035    -51.0703297737285    0.556979585714035    -51.0703297737285    0.781186412459166    33.6865513171331     
6.76529483315495     0.783214019455808    33.5241339003726     0.554586651261015    -51.2576466014381    0.554586651261015    -51.2576466014381    0.783214019455808    33.5241339003726     
6.81214922637385     0.785230327478366    33.3618656269516     0.552191854671217    -51.4446813991136    0.552191854671217    -51.4446813991136    0.785230327478366    33.3618656269516     
6.8593281190001      0.787235272013458    33.1997546831651     0.549795342313418    -51.6314267233517    0.549795342313418    -51.6314267233517    0.787235272013458    33.1997546831651     
6.9068337584188      0.789228790770543    33.0378091884376     0.547397260417159    -51.8178751931811    0.547397260417159    -51.8178751931811    0.789228790770543    33.0378091884376     
6.95466840757978     0.791210823683297    32.8760371940395     0.544997755032693    -52.0040194913657    0.544997755032693    -52.0040194913657    0.791210823683297    32.8760371940395     
7.00283434510535     0.793181312909972    32.7144466818338     0.542596971991226    -52.1898523656769    0.542596971991226    -52.1898523656769    0.793181312909972    32.7144466818338     
7.05133386539889     0.79514020283277     32.5530455630553     0.540195056865535    -52.3753666301333    0.540195056865535    -52.3753666301333    0.79514020283277     32.5530455630553     
7.10016927875412     0.797087440056242    32.391841677123      0.537792154930915    -52.560555166208     0.537792154930915    -52.560555166208     0.797087440056242    32.391841677123      
7.14934291146517     0.799022973404731    32.2308427904816     0.535388411126543    -52.7454109240049    0.535388411126543    -52.7454109240049    0.799022973404731    32.2308427904816     
7.19885710593736     0.800946753918849    32.0700565954791     0.532983970017246    -52.9299269234012    0.532983970017246    -52.9299269234012    0.800946753918849    32.0700565954791     
7.24871422079882     0.802858734851005    31.9094907092774     0.530578975755688    -53.1140962551553    0.530578975755688    -53.1140962551553    0.802858734851005    31.9094907092774     
7.29891663101283     0.804758871660032    31.7491526727931     0.528173572045018    -53.2979120819841    0.528173572045018    -53.2979120819841    0.804758871660032    31.7491526727931     
7.34946672799093     0.806647122004873    31.5890499496759     0.525767902101963    -53.4813676396044    0.525767902101963    -53.4813676396044    0.806647122004873    31.5890499496759     
7.40036691970689     0.80852344573737     31.4291899253183     0.523362108620452    -53.6644562377411    0.523362108620452    -53.6644562377411    0.80852344573737     31.4291899253183     
7.45161963081133     0.810387804894174    31.2695799059004     0.520956333735693    -53.8471712611007    0.520956333735693    -53.8471712611007    0.810387804894174    31.2695799059004     
7.50322730274732     0.81224016368777     31.1102271174696     0.518550718988809    -54.0295061703111    0.518550718988809    -54.0295061703111    0.81224016368777     31.1102271174696     
7.55519239386661     0.814080488496666    30.9511387050527     0.516145405291991    -54.2114545028269    0.516145405291991    -54.2114545028269    0.814080488496666    30.9511387050527     
7.60751737954673     0.81590874785472     30.7923217318044     0.513740532894221    -54.3930098737993    0.513740532894221    -54.3930098737993    0.81590874785472     30.7923217318044     
7.66020475230897     0.817724912439652    30.633783178191      0.511336241347566    -54.5741659769113    0.511336241347566    -54.5741659769113    0.817724912439652    30.633783178191      
7.71325702193705     0.819528955060757    30.4755299412062     0.508932669474025    -54.7549165851794    0.508932669474025    -54.7549165851794    0.819528955060757    30.4755299412062     
7.76667671559669     0.82132085064583     30.3175688336233     0.506529955333019    -54.9352555517194    0.506529955333019    -54.9352555517194    0.82132085064583     30.3175688336233     
7.82046637795601     0.823100576227286    30.1599065832846     0.504128236189472    -55.1151768104757    0.504128236189472    -55.1151768104757    0.823100576227286    30.1599065832846     
7.87462857130672     0.824868110927597    30.0025498324194     0.501727648482502    -55.2946743769195    0.501727648482502    -55.2946743769195    0.824868110927597    30.0025498324194     
7.92916587568622     0.826623435943927    29.845505137003      0.49932832779478     -55.4737423487095    0.49932832779478     -55.4737423487095    0.826623435943927    29.845505137003      
7.98408088900043     0.828366534532091    29.6887789661475     0.496930408822514    -55.6523749063177    0.496930408822514    -55.6523749063177    0.828366534532091    29.6887789661475     
8.03937622714762     0.830097391989815    29.5323777015267     0.494534025346094    -55.830566313622     0.494534025346094    -55.830566313622     0.830097391989815    29.5323777015267     
8.09505452414296     0.831815995639312    29.3763076368375     0.492139310201412    -56.0083109184625    0.492139310201412    -56.0083109184625    0.831815995639312    29.3763076368375     
8.15111843224403     0.833522334809209    29.2205749772939     0.48974639525186     -56.1856031531648    0.48974639525186     -56.1856031531648    0.833522334809209    29.2205749772939     
8.20757062207714     0.835216400815842    29.0651858391563     0.487355411361014    -56.3624375350277    0.487355411361014    -56.3624375350277    0.835216400815842    29.0651858391563     
8.26441378276454     0.83689818694394     28.9101462492939     0.484966488365994    -56.5388086667787    0.484966488365994    -56.5388086667787    0.83689818694394     28.9101462492939     
8.32165062205256     0.838567688426701    28.7554621447821     0.482579755051547    -56.7147112369922    0.482579755051547    -56.7147112369922    0.838567688426701    28.7554621447821     
8.37928386644054     0.840224902425308    28.6011393725337     0.480195339124841    -56.8901400204767    0.480195339124841    -56.8901400204767    0.840224902425308    28.6011393725337     
8.43731626131074     0.8418698280079      28.4471836889607     0.477813367190941    -57.0650898786287    0.477813367190941    -57.0650898786287    0.8418698280079      28.4471836889607     
8.49575057105912     0.84350246612799     28.2936007596739     0.475433964729039    -57.2395557597505    0.475433964729039    -57.2395557597505    0.84350246612799     28.2936007596739     
8.554589579227       0.845122819602402    28.140396159211      0.473057256069377    -57.4135326993381    0.473057256069377    -57.4135326993381    0.845122819602402    28.140396159211      
8.61383608863367     0.846730893088699    27.9875753707996     0.470683364370923    -57.5870158203348    0.470683364370923    -57.5870158203348    0.846730893088699    27.9875753707996     
8.67349292150991     0.848326693062145    27.8351437861529     0.468312411599752    -57.7600003333523    0.468312411599752    -57.7600003333523    0.848326693062145    27.8351437861529     
8.7335629196324      0.849910227792236    27.6831067052955     0.465944518508182    -57.9324815368599    0.465944518508182    -57.9324815368599    0.849910227792236    27.6831067052955     
8.79404894445915     0.851481507318801    27.5314693364214     0.463579804614622    -58.1044548173442    0.463579804614622    -58.1044548173442    0.851481507318801    27.5314693364214     
8.85495387726572     0.853040543427677    27.3802367957853     0.46121838818417     -58.2759156494323    0.46121838818417     -58.2759156494323    0.853040543427677    27.3802367957853     
8.91628061928254     0.854587349626043    27.2294141076212     0.458860386209942    -58.4468595959896    0.458860386209942    -58.4468595959896    0.854587349626043    27.2294141076212     
8.97803209183309     0.856121941117358    27.079006204094      0.456505914395137    -58.6172823081837    0.456505914395137    -58.6172823081837    0.856121941117358    27.079006204094      
9.04021123647304     0.857644334775974    26.9290179252804     0.45415508713584     -58.7871795255196    0.45415508713584     -58.7871795255196    0.857644334775974    26.9290179252804     
9.1028210151304      0.859154549121429    26.7794540191796     0.451808017504546    -58.9565470758435    0.451808017504546    -58.9565470758435    0.859154549121429    26.7794540191796     
9.16586441024661     0.860652604292429    26.6303191417532     0.449464817234439    -59.1253808753189    0.449464817234439    -59.1253808753189    0.860652604292429    26.6303191417532     
9.22934442491857     0.86213852202058     26.4816178569921     0.447125596704385    -59.2936769283741    0.447125596704385    -59.2936769283741    0.86213852202058     26.4816178569921     
9.29326408304175     0.863612325603822    26.3333546370156     0.44479046492465     -59.4614313276193    0.44479046492465     -59.4614313276193    0.863612325603822    26.3333546370156     
9.3576264294542      0.865074039879665    26.1855338621936     0.442459529523351    -59.6286402537379    0.442459529523351    -59.6286402537379    0.865074039879665    26.1855338621936     
9.42243453008162     0.866523691198168    26.0381598213002     0.440132896733632    -59.7952999753482    0.440132896733632    -59.7952999753482    0.866523691198168    26.0381598213002     
9.48769147208335     0.867961307394756    25.891236711691      0.437810671381534    -59.9614068488406    0.437810671381534    -59.9614068488406    0.867961307394756    25.891236711691      
9.55340036399949     0.869386917762831    25.7447686395094     0.435492956874608    -60.1269573181862    0.435492956874608    -60.1269573181862    0.869386917762831    25.7447686395094     
9.61956433589894     0.870800553026242    25.5987596199156     0.433179855191198    -60.2919479147207    0.433179855191198    -60.2919479147207    0.870800553026242    25.5987596199156     
9.68618653952855     0.872202245311596    25.4532135773443     0.430871466870461    -60.4563752569027    0.430871466870461    -60.4563752569027    0.872202245311596    25.4532135773443     
9.75327014846315     0.873592028120464    25.3081343457844     0.428567891003037    -60.6202360500461    0.428567891003037    -60.6202360500461    0.873592028120464    25.3081343457844     
9.82081835825686     0.874969936301468    25.1635256690845     0.426269225222466    -60.7835270860294    0.426269225222466    -60.7835270860294    0.874969936301468    25.1635256690845     
9.88883438659521     0.876336006022292    25.0193912012818     0.423975565697228    -60.9462452429803    0.423975565697228    -60.9462452429803    0.876336006022292    25.0193912012818     
9.95732147344846     0.877690274741629    24.8757345069531     0.421687007123482    -61.1083874849382    0.421687007123482    -61.1083874849382    0.877690274741629    24.8757345069531     
10.0262828812259     0.879032781181053    24.7325590615905     0.419403642718486    -61.2699508614913    0.419403642718486    -61.2699508614913    0.879032781181053    24.7325590615905     
10.0957218949314     0.880363565296891    24.5898682519969     0.417125564214635    -61.4309325073949    0.417125564214635    -61.4309325073949    0.880363565296891    24.5898682519969     
10.1656418223196     0.881682668252054    24.4476653767043     0.414852861854195    -61.5913296421659    0.414852861854195    -61.5913296421659    0.881682668252054    24.4476653767043     
10.2360459940537     0.882990132387866    24.3059536464128     0.41258562438463     -61.751139569656     0.41258562438463     -61.751139569656     0.882990132387866    24.3059536464128     
10.3069377638642     0.884286001195934    24.1647361844494     0.410323939054607    -61.9103596776063    0.410323939054607    -61.9103596776063    0.884286001195934    24.1647361844494     
10.3783205087084     0.885570319290012    24.0240160272483     0.408067891610585    -62.0689874371792    0.408067891610585    -62.0689874371792    0.885570319290012    24.0240160272483     
10.4501976289314     0.886843132377944    23.8837961248476     0.405817566294043    -62.2270204024739    0.405817566294043    -62.2270204024739    0.886843132377944    23.8837961248476     
10.5225725484281     0.888104487233641    23.7440793414077     0.403573045839294    -62.3844562100199    0.403573045839294    -62.3844562100199    0.888104487233641    23.7440793414077     
10.5954487148063     0.889354431669157    23.6048684557452     0.401334411471906    -62.5412925782552    0.401334411471906    -62.5412925782552    0.889354431669157    23.6048684557452     
10.6688295995508     0.890593014506838    23.466166161886      0.3991017429077      -62.6975273069854    0.3991017429077      -62.6975273069854    0.890593014506838    23.466166161886      
10.7427186981889     0.891820285551576    23.3279750696356     0.396875118352308    -62.8531582768238    0.396875118352308    -62.8531582768238    0.891820285551576    23.3279750696356     
10.8171195304568     0.893036295563188    23.1902977051636     0.394654614501316    -63.0081834486194    0.394654614501316    -63.0081834486194    0.893036295563188    23.1902977051636     
10.8920356404676     0.894241096228919    23.0531365116064     0.39244030654095     -63.1626008628645    0.39244030654095     -63.1626008628645    0.894241096228919    23.0531365116064     
10.9674705968795     0.895434740136076    22.9164938496846     0.390232268149282    -63.3164086390891    0.390232268149282    -63.3164086390891    0.895434740136076    22.9164938496846     
11.0434279930664     0.896617280744838    22.780371998334      0.388030571497997    -63.46960497524      0.388030571497997    -63.46960497524      0.896617280744838    22.780371998334      
11.1199114472886     0.897788772361217    22.6447731553519     0.385835287254654    -63.622188147045     0.385835287254654    -63.622188147045     0.897788772361217    22.6447731553519     
11.1969246028657     0.898949270110187    22.5096994380566     0.38364648458546     -63.7741565073642    0.38364648458546     -63.7741565073642    0.898949270110187    22.5096994380566     
11.2744711283496     0.900098829909027    22.3751528839604     0.381464231158552    -63.9255084855275    0.381464231158552    -63.9255084855275    0.900098829909027    22.3751528839604     
11.3525547176995     0.901237508440833    22.241135451454      0.379288593147733    -64.0762425866585    0.379288593147733    -64.0762425866585    0.901237508440833    22.241135451454      
11.4311790904578     0.902365363128262    22.107649020504      0.377119635236707    -64.2263573909888    0.377119635236707    -64.2263573909888    0.902365363128262    22.107649020504      
11.5103479919276     0.903482452107473    21.9746953933615     0.374957420623763    -64.3758515531576    0.374957420623763    -64.3758515531576    0.903482452107473    21.9746953933615     
11.5900651933505     0.904588834202312    21.8422762952814     0.3728020110269      -64.5247238015021    0.3728020110269      -64.5247238015021    0.904588834202312    21.8422762952814     
11.6703344920869     0.905684568898724    21.710393375252      0.370653466689412    -64.6729729373373    0.370653466689412    -64.6729729373373    0.905684568898724    21.710393375252      
11.7511597117962     0.906769716319408    21.5790482067344     0.368511846385855    -64.8205978342243    0.368511846385855    -64.8205978342243    0.906769716319408    21.5790482067344     
11.8325447026197     0.907844337198729    21.4482422884129     0.366377207428483    -64.9675974372305    0.366377207428483    -64.9675974372305    0.907844337198729    21.4482422884129     
11.9144933413634     0.908908492857893    21.3179770449502     0.364249605674022    -65.1139707621805    0.364249605674022    -65.1139707621805    0.908908492857893    21.3179770449502     
11.9970095316829     0.909962245180372    21.188253827756      0.362129095530896    -65.2597168948978    0.362129095530896    -65.2597168948978    0.909962245180372    21.188253827756      
12.0800972042694     0.911005656587626    21.0590739157597     0.360015729966778    -65.4048349904383    0.360015729966778    -65.4048349904383    0.911005656587626    21.0590739157597     
12.1637603170369     0.912038790015091    20.9304385161917     0.357909560516536    -65.5493242723179    0.357909560516536    -65.5493242723179    0.912038790015091    20.9304385161917     
12.2480028553106     0.913061708888465    20.8023487653715     0.355810637290514    -65.6931840317316    0.355810637290514    -65.6931840317316    0.913061708888465    20.8023487653715     
12.332828832017      0.914074477100267    20.6748057295025     0.353719008983183    -65.8364136267646    0.353719008983183    -65.8364136267646    0.914074477100267    20.6748057295025     
12.4182422878748     0.915077158986717    20.5478104054719     0.351634722882082    -65.9790124816017    0.351634722882082    -65.9790124816017    0.915077158986717    20.5478104054719     
12.5042472915876     0.916069819304907    20.4213637216573     0.349557824877112    -66.1209800857255    0.349557824877112    -66.1209800857255    0.916069819304907    20.4213637216573     
12.5908479400375     0.917052523210284    20.2954665387364     0.34748835947012     -66.2623159931141    0.34748835947012     -66.2623159931141    0.917052523210284    20.2954665387364     
12.6780483584806     0.918025336234438    20.1701196505033     0.345426369784782    -66.4030198214301    0.345426369784782    -66.4030198214301    0.918025336234438    20.1701196505033     
12.765852700743      0.918988324263217    20.0453237846879     0.343371897576772    -66.5430912512079    0.343371897576772    -66.5430912512079    0.918988324263217    20.0453237846879     
12.8542651494191     0.919941553515165    19.9210796037781     0.341324983244193    -66.6825300250372    0.341324983244193    -66.6825300250372    0.919941553515165    19.9210796037781     
12.9432899160707     0.920885090520254    19.797387705848      0.339285665838293    -66.8213359467393    0.339285665838293    -66.8213359467393    0.920885090520254    19.797387705848      
13.0329312414276     0.921819002098994    19.6742486253849     0.337253983074407    -66.9595088805458    0.337253983074407    -66.9595088805458    0.921819002098994    19.6742486253849     
13.1231933955895     0.92274335534182     19.5516628341236     0.335229971343152    -67.0970487502694    0.335229971343152    -67.0970487502694    0.92274335534182     19.5516628341236     
13.2140806782296     0.923658217588848    19.429630741878      0.333213665721849    -67.233955538476     0.333213665721849    -67.233955538476     0.923658217588848    19.429630741878      
13.3055974187994     0.92456365640995     19.3081526973771     0.331205099986157    -67.3702292856529    0.331205099986157    -67.3702292856529    0.92456365640995     19.3081526973771     
13.3977479767348     0.92545973958516     19.1872289891034     0.329204306621931    -67.5058700893756    0.329204306621931    -67.5058700893756    0.92545973958516     19.1872289891034     
13.4905367416639     0.926346535085438    19.0668598461279     0.327211316837255    -67.640878103475     0.327211316837255    -67.640878103475     0.926346535085438    19.0668598461279     
13.583968133616      0.92722411105375     18.9470454389505     0.325226160574675    -67.7752535372004    0.325226160574675    -67.7752535372004    0.92722411105375     18.9470454389505     
13.6780466032321     0.928092535786502    18.8277858803371     0.323248866523615    -67.9089966543866    0.323248866523615    -67.9089966543866    0.928092535786502    18.8277858803371     
13.7727766319773     0.928951877715314    18.7090812261586     0.321279462132945    -68.042107772616     0.321279462132945    -68.042107772616     0.928951877715314    18.7090812261586     
13.8681627323536     0.92980220538913     18.5909314762286     0.319317973623714    -68.1745872623843    0.319317973623714    -68.1745872623843    0.92980220538913     18.5909314762286     
13.9642094481155     0.930643587456677    18.4733365751401     0.317364426002031    -68.3064355462655    0.317364426002031    -68.3064355462655    0.930643587456677    18.4733365751401     
14.060921354486      0.93147609264926     18.3562964131023     0.315418843072087    -68.4376530980764    0.315418843072087    -68.4376530980764    0.93147609264926     18.3562964131023     
14.1583030583749     0.932299789763905    18.239810826774      0.313481247449297    -68.5682404420453    0.313481247449297    -68.5682404420453    0.932299789763905    18.239810826774      
14.2563591985978     0.933114747646835    18.1238796000973     0.311551660573564    -68.6981981519784    0.311551660573564    -68.6981981519784    0.933114747646835    18.1238796000973     
14.3550944460977     0.933921035177301    18.0085024651279     0.309630102722665    -68.8275268504309    0.309630102722665    -68.8275268504309    0.933921035177301    18.0085024651279     
14.4545135041668     0.934718721251738    17.8936791028635     0.307716593025726    -68.9562272078782    0.307716593025726    -68.9562272078782    0.934718721251738    17.8936791028635     
14.554621108671      0.935507874768268    17.7794091440709     0.305811149476793    -69.0842999418892    0.305811149476793    -69.0842999418892    0.935507874768268    17.7794091440709     
14.6554220282756     0.936288564611547    17.6656921701072     0.303913788948484    -69.2117458163046    0.303913788948484    -69.2117458163046    0.936288564611547    17.6656921701072     
14.7569210646718     0.937060859637935    17.5525277137415     0.302024527205741    -69.3385656404135    0.302024527205741    -69.3385656404135    0.937060859637935    17.5525277137415     
14.8591230528063     0.937824828661011    17.439915259971      0.300143378919612    -69.4647602681375    0.300143378919612    -69.4647602681375    0.937824828661011    17.439915259971      
14.9620328611109     0.938580540437424    17.3278542468341     0.298270357681126    -69.590330597215     0.298270357681126    -69.590330597215     0.938580540437424    17.3278542468341     
15.0656553917349     0.939328063653064    17.2163440662196     0.296405476015206    -69.7152775683893    0.296405476015206    -69.7152775683893    0.939328063653064    17.2163440662196     
15.1699955807781     0.940067466909577    17.1053840646725     0.29454874539463     -69.8396021646022    0.29454874539463     -69.8396021646022    0.940067466909577    17.1053840646725     
15.2750583985266     0.940798818711196    16.9949735441947     0.292700176254033    -69.9633054101891    0.292700176254033    -69.9633054101891    0.940798818711196    16.9949735441947     
15.3808488496891     0.941522187451908    16.8851117630416     0.290859778003932    -70.086388370079     0.290859778003932    -70.086388370079     0.941522187451908    16.8851117630416     
15.4873719736351     0.942237641402928    16.7757979365146     0.289027559044786    -70.2088521489992    0.289027559044786    -70.2088521489992    0.942237641402928    16.7757979365146     
15.5946328446357     0.942945248700513    16.6670312377475     0.287203526781065    -70.3306978906836    0.287203526781065    -70.3306978906836    0.942945248700513    16.6670312377475     
15.7026365721046     0.94364507733408     16.5588107984893     0.28538768763533     -70.4519267770864    0.28538768763533     -70.4519267770864    0.94364507733408     16.5588107984893     
15.8113883008419     0.944337195134641    16.4511357098808     0.283580047062319    -70.5725400275996    0.283580047062319    -70.5725400275996    0.944337195134641    16.4511357098808     
15.9208932112789     0.945021669763556    16.344005023226      0.281780609563035    -70.6925388982762    0.281780609563035    -70.6925388982762    0.945021669763556    16.344005023226      
16.031156519725      0.945698568701587    16.2374177507586     0.279989378698815    -70.8119246810579    0.279989378698815    -70.8119246810579    0.945698568701587    16.2374177507586     
16.1421834786164     0.946367959238257    16.1313728664022     0.278206357105396    -70.930698703008     0.278206357105396    -70.930698703008     0.946367959238257    16.1313728664022     
16.2539793767659     0.94702990846153     16.0258693065243     0.276431546506949    -71.0488623255512    0.276431546506949    -71.0488623255512    0.94702990846153     16.0258693065243     
16.3665495396151     0.947684483247754    15.9209059706858     0.274664947730104    -71.1664169437151    0.274664947730104    -71.1664169437151    0.947684483247754    15.9209059706858     
16.4798993294879     0.948331750251944    15.8164817223826     0.272906560717927    -71.2833639853824    0.272906560717927    -71.2833639853824    0.948331750251944    15.8164817223826     
16.5940341458462     0.948971775898316    15.7125953897824     0.271156384543869    -71.3997049105435    0.271156384543869    -71.3997049105435    0.948971775898316    15.7125953897824     
16.7089594255468     0.949604626371137    15.6092457664542     0.269414417425677    -71.5154412105597    0.269414417425677    -71.5154412105597    0.949604626371137    15.6092457664542     
16.8246806431006     0.950230367605854    15.5064316120918     0.267680656739251    -71.6305744074289    0.267680656739251    -71.6305744074289    0.950230367605854    15.5064316120918     
16.9412033109334     0.950849065280495    15.4041516532311     0.265955099032454    -71.7451060530587    0.265955099032454    -71.7451060530587    0.950849065280495    15.4041516532311     
17.0585329796481     0.951460784807357    15.3024045839591     0.264237740038876    -71.8590377285456    0.264237740038876    -71.8590377285456    0.951460784807357    15.3024045839591     
17.1766752382898     0.95206559132497     15.2011890666189     0.262528574691514    -71.9723710434602    0.262528574691514    -71.9723710434602    0.95206559132497     15.2011890666189     
17.2956357146114     0.952663549690316    15.1005037325049     0.260827597136421    -72.0851076351386    0.260827597136421    -72.0851076351386    0.952663549690316    15.1005037325049     
17.415420075342      0.953254724471336    15.000347182553      0.25913480074625     -72.1972491679797    0.25913480074625     -72.1972491679797    0.953254724471336    15.000347182553      
17.5360340264567     0.953839179939682    14.900717988023      0.25745017813377     -72.3087973327507    0.25745017813377     -72.3087973327507    0.953839179939682    14.900717988023      
17.6574833134484     0.954416980063736    14.8016146911745     0.255773721165257    -72.419753845896     0.255773721165257    -72.419753845896     0.954416980063736    14.8016146911745     
17.7797737216018     0.954988188501876    14.7030358059345     0.254105420973851    -72.5301204488557    0.254105420973851    -72.5301204488557    0.954988188501876    14.7030358059345     
17.9029110762685     0.955552868596001    14.6049798185594     0.252445267972803    -72.6398989073884    0.252445267972803    -72.6398989073884    0.955552868596001    14.6049798185594     
18.0269012431448     0.956111083365303    14.5074451882877     0.250793251868638    -72.7490910109024    0.250793251868638    -72.7490910109024    0.956111083365303    14.5074451882877     
18.1517501285511     0.956662895500266    14.4104303479882     0.249149361674248    -72.857698571791     0.249149361674248    -72.857698571791     0.956662895500266    14.4104303479882     
18.2774636797132     0.957208367356918    14.3139337047977     0.247513585721869    -72.9657234247775    0.247513585721869    -72.9657234247775    0.957208367356918    14.3139337047977     
18.4040478850455     0.957747560951324    14.217953640753      0.245885911675978    -73.0731674262649    0.245885911675978    -73.0731674262649    0.957747560951324    14.217953640753      
18.5315087744364     0.958280537954283    14.1224885134161     0.24426632654609     -73.1800324536928    0.24426632654609     -73.1800324536928    0.958280537954283    14.1224885134161     
18.6598524195354     0.958807359686273    14.0275366564898     0.242654816699447    -73.2863204049008    0.242654816699447    -73.2863204049008    0.958807359686273    14.0275366564898     
18.7890849340427     0.959328087112614    13.9330963804282     0.241051367873616    -73.392033197499     0.241051367873616    -73.392033197499     0.959328087112614    13.9330963804282     
18.9192124739998     0.959842780838846    13.8391659730371     0.239455965188978    -73.4971727682456    0.239455965188978    -73.4971727682456    0.959842780838846    13.8391659730371     
19.0502412380833     0.960351501106314    13.7457437000702     0.2378685931611      -73.6017410724292    0.2378685931611      -73.6017410724292    0.960351501106314    13.7457437000702     
19.1821774678999     0.960854307787981    13.6528278058136     0.236289235713014    -73.7057400832614    0.236289235713014    -73.7057400832614    0.960854307787981    13.6528278058136     
19.3150274482837     0.961351260384427    13.5604165136666     0.23471787618737     -73.8091717912721    0.23471787618737     -73.8091717912721    0.961351260384427    13.5604165136666     
19.4487975075959     0.961842418020064    13.4685080267122     0.233154497358487    -73.9120382037145    0.233154497358487    -73.9120382037145    0.961842418020064    13.4685080267122     
19.5834940180259     0.96232783943954     13.3771005282821     0.231599081444284    -74.0143413439751    0.231599081444284    -74.0143413439751    0.96232783943954     13.3771005282821     
19.7191233958948     0.962807583004342    13.2861921825113     0.230051610118093    -74.1160832509923    0.230051610118093    -74.1160832509923    0.962807583004342    13.2861921825113     
19.8556921019614     0.963281706689584    13.195781134889      0.228512064520355    -74.2172659786782    0.228512064520355    -74.2172659786782    0.963281706689584    13.195781134889      
19.9932066417298     0.963750268080989    13.1058655127982     0.226980425270198    -74.3178915953506    0.226980425270198    -74.3178915953506    0.963750268080989    13.1058655127982     
20.1316735657591     0.964213324372038    13.0164434260502     0.2254566724769      -74.4179621831701    0.2254566724769      -74.4179621831701    0.964213324372038    13.0164434260502     
20.2710994699757     0.964670932361315    12.9275129674103     0.223940785751213    -74.5174798375826    0.223940785751213    -74.5174798375826    0.964670932361315    12.9275129674103     
20.4114909959874     0.965123148450013    12.839072213116      0.222432744216581    -74.616446666771     0.222432744216581    -74.616446666771     0.965123148450013    12.839072213116      
20.5528548313998     0.965570028639612    12.7511192233893     0.220932526520228    -74.71486479111      0.220932526520228    -74.71486479111      0.965570028639612    12.7511192233893     
20.6951977101346     0.966011628529729    12.6636520429388     0.219440110844117    -74.8127363426307    0.219440110844117    -74.8127363426307    0.966011628529729    12.6636520429388     
20.838526412751      0.966448003316126    12.5766687014565     0.21795547491579     -74.9100634644887    0.21795547491579     -74.9100634644887    0.966448003316126    12.5766687014565     
20.9828477667681     0.966879207788878    12.4901672141061     0.216478596019076    -75.0068483104408    0.216478596019076    -75.0068483104408    0.966879207788878    12.4901672141061     
21.1281686469902     0.967305296330692    12.4041455820049     0.215009451004673    -75.1030930443255    0.215009451004673    -75.1030930443255    0.967305296330692    12.4041455820049     
21.2744959758348     0.967726322915389    12.3186017926962     0.213548016300608    -75.1987998395524    0.213548016300608    -75.1987998395524    0.967726322915389    12.3186017926962     
21.4218367236615     0.968142341106516    12.2335338206178     0.212094267922559    -75.2939708785949    0.212094267922559    -75.2939708785949    0.968142341106516    12.2335338206178     
21.570197909105      0.96855340405612     12.1489396275588     0.210648181484056    -75.3886083524922    0.210648181484056    -75.3886083524922    0.96855340405612     12.1489396275588     
21.7195865994086     0.968959564503648    12.0648171631137     0.209209732206546    -75.4827144603532    0.209209732206546    -75.4827144603532    0.968959564503648    12.0648171631137     
21.8700099107613     0.969360874774998    11.9811643651253     0.207778894929338    -75.5762914088708    0.207778894929338    -75.5762914088708    0.969360874774998    11.9811643651253     
22.0214750086368     0.969757386781687    11.8979791601232     0.20635564411941     -75.6693414118378    0.20635564411941     -75.6693414118378    0.969757386781687    11.8979791601232     
22.1739891081345     0.970149152020164    11.8152594637539     0.204939953881091    -75.7618666896719    0.204939953881091    -75.7618666896719    0.970149152020164    11.8152594637539     
22.3275594743234     0.970536221571242    11.7330031812034     0.203531797965613    -75.8538694689441    0.203531797965613    -75.8538694689441    0.970536221571242    11.7330031812034     
22.4821934225886     0.970918646099654    11.6512082076143     0.202131149780531    -75.9453519819139    0.202131149780531    -75.9453519819139    0.970918646099654    11.6512082076143     
22.6378983189787     0.97129647585373     11.569872428494      0.200737982399013    -76.0363164660693    0.200737982399013    -76.0363164660693    0.97129647585373     11.569872428494      
22.7946815805579     0.971669760665188    11.4889937201177     0.19935226856901     -76.1267651636728    0.19935226856901     -76.1267651636728    0.971669760665188    11.4889937201177     
22.9525506757585     0.972038549949051    11.4085699499231     0.197973980722276    -76.2167003213122    0.197973980722276    -76.2167003213122    0.972038549949051    11.4085699499231     
23.1115131247368     0.97240289270365     11.3285989768988     0.196603090983285    -76.3061241894567    0.196603090983285    -76.3061241894567    0.97240289270365     11.3285989768988     
23.2715764997317     0.972762837510756    11.2490786519666     0.195239571178002    -76.395039022018     0.195239571178002    -76.395039022018     0.972762837510756    11.2490786519666     
23.4327484254249     0.973118432535812    11.1700068183553     0.193883392842523    -76.4834470759174    0.193883392842523    -76.4834470759174    0.973118432535812    11.1700068183553     
23.5950365793046     0.973469725528257    11.09138131197       0.192534527231605    -76.5713506106557    0.192534527231605    -76.5713506106557    0.973469725528257    11.09138131197       
23.7584486920308     0.97381676382195     11.0131999617531     0.191192945327053    -76.6587518878902    0.191192945327053    -76.6587518878902    0.97381676382195     11.0131999617531     
23.9229925478036     0.974159594335706    10.9354605900388     0.189858617845979    -76.7456531710146    0.189858617845979    -76.7456531710146    0.974159594335706    10.9354605900388     
24.0886759847344     0.974498263573897    10.8581610129028     0.188531515248948    -76.8320567247448    0.188531515248948    -76.8320567247448    0.974498263573897    10.8581610129028     
24.255506895219      0.974832817627164    10.7812990405035     0.187211607747984    -76.9179648147075    0.187211607747984    -76.9179648147075    0.974832817627164    10.7812990405035     
24.4234932263132     0.975163302173205    10.7048724774177     0.185898865314461    -77.0033797070356    0.185898865314461    -77.0033797070356    0.975163302173205    10.7048724774177     
24.592642980112      0.975489762477654    10.6288791229702     0.184593257686859    -77.0883036679648    0.184593257686859    -77.0883036679648    0.975489762477654    10.6288791229702     
24.7629642141306     0.97581224339503     10.5533167715565     0.183294754378406    -77.1727389634374    0.183294754378406    -77.1727389634374    0.97581224339503     10.5533167715565     
24.9344650416877     0.976130789369776    10.4781832129602     0.182003324684592    -77.2566878587069    0.182003324684592    -77.2566878587069    0.976130789369776    10.4781832129602     
25.1071536322929     0.97644544443737     10.4034762326633     0.18071893769056     -77.3401526179491    0.18071893769056     -77.3401526179491    0.97644544443737     10.4034762326633     
25.2810382120351     0.976756252225506    10.3291936121509     0.179441562278372    -77.4231355038756    0.179441562278372    -77.4231355038756    0.976756252225506    10.3291936121509     
25.4561270639745     0.977063255955347    10.2553331292099     0.178171167134168    -77.5056387773511    0.178171167134168    -77.5056387773511    0.977063255955347    10.2553331292099     
25.6324285285375     0.977366498442851    10.1818925582221     0.176907720755185    -77.5876646970136    0.176907720755185    -77.5876646970136    0.977366498442851    10.1818925582221     
25.8099510039137     0.977666022100162    10.1088696704504     0.175651191456669    -77.6692155188993    0.175651191456669    -77.6692155188993    0.977666022100162    10.1088696704504     
25.988702946456      0.977961868937053    10.0362622343201     0.174401547378672    -77.7502934960693    0.174401547378672    -77.7502934960693    0.977961868937053    10.0362622343201     
26.1686928710835     0.978254080562445    9.96406801569434     0.173158756492718    -77.8309008782394    0.173158756492718    -77.8309008782394    0.978254080562445    9.96406801569434     
26.3499293516871     0.978542698185982    9.89228477814346     0.171922786608367    -77.911039911414     0.171922786608367    -77.911039911414     0.978542698185982    9.89228477814346     
26.5324210215377     0.978827762619654    9.82091028320912     0.170693605379649    -77.9907128375209    0.170693605379649    -77.9907128375209    0.978827762619654    9.82091028320912     
26.7161765736978     0.979109314279482    9.74994229066299     0.169471180311402    -78.0699218940503    0.169471180311402    -78.0699218940503    0.979109314279482    9.74994229066299     
26.9012047614355     0.979387393187259    9.67937855875925     0.168255478765475    -78.1486693136952    0.168255478765475    -78.1486693136952    0.979387393187259    9.67937855875925     
27.0875143986412     0.979662038972326    9.60921684448259     0.167046467966835    -78.226957323994     0.167046467966835    -78.226957323994     0.979662038972326    9.60921684448259     
27.2751143602477     0.979933290873416    9.53945490378988     0.165844115009555    -78.3047881469765    0.165844115009555    -78.3047881469765    0.979933290873416    9.53945490378988     
27.464013582653      0.980201187740527    9.47009049184805     0.164648386862696    -78.3821639988093    0.164648386862696    -78.3821639988093    0.980201187740527    9.47009049184805     
27.6542210641458     0.980465768036853    9.40112136326483     0.163459250376072    -78.459087089446     0.163459250376072    -78.459087089446     0.980465768036853    9.40112136326483     
27.8457458653343     0.980727069840744    9.33254527231631     0.162276672285914    -78.5355596222758    0.162276672285914    -78.5355596222758    0.980727069840744    9.33254527231631     
28.0385971095778     0.98098513084772     9.26435997316733     0.161100619220424    -78.6115837937767    0.161100619220424    -78.6115837937767    0.98098513084772     9.26435997316733     
28.2327839834211     0.98123998837251     9.19656322008949     0.159931057705225    -78.687161793167     0.159931057705225    -78.687161793167     0.98123998837251     9.19656322008949     
28.4283157370323     0.981491679351144    9.12915276767131     0.1587679541687      -78.7622958020596    0.1587679541687      -78.7622958020596    0.981491679351144    9.12915276767131     
28.6252016846433     0.981740240343059    9.06212637102557     0.157611274947234    -78.8369879941169    0.157611274947234    -78.8369879941169    0.981740240343059    9.06212637102557     
28.8234512049938     0.981985707533261    8.99548178599133     0.156460986290351    -78.9112405347054    0.156460986290351    -78.9112405347054    0.981985707533261    8.99548178599133     
29.0230737417776     0.982228116734498    8.92921676933109     0.155317054365744    -78.9850555805521    0.155317054365744    -78.9850555805521    0.982228116734498    8.92921676933109     
29.2240788040927     0.982467503389484    8.86332907892289     0.154179445264216    -79.0584352793995    0.154179445264216    -79.0584352793995    0.982467503389484    8.86332907892289     
29.4264759668943     0.982703902573126    8.79781647394872     0.153048125004515    -79.1313817696627    0.153048125004515    -79.1313817696627    0.982703902573126    8.79781647394872     
29.6302748714509     0.982937348994803    8.73267671507699     0.151923059538055    -79.2038971800843    0.151923059538055    -79.2038971800843    0.982937348994803    8.73267671507699     
29.8354852258035     0.983167877000656    8.66790756464259     0.150804214753581    -79.2759836293902    0.150804214753581    -79.2759836293902    0.983167877000656    8.66790756464259     
30.0421168052279     0.983395520575903    8.60350678682024     0.149691556481692    -79.3476432259438    0.149691556481692    -79.3476432259438    0.983395520575903    8.60350678682024     
30.2501794527007     0.98362031334718     8.53947214779506     0.148585050499298    -79.4188780674007    0.148585050499298    -79.4188780674007    0.98362031334718     8.53947214779506     
30.4596830793679     0.983842288584901    8.47580141592865     0.147484662533978    -79.4896902403604    0.147484662533978    -79.4896902403604    0.983842288584901    8.47580141592865     
30.6706376650172     0.98406147920564     8.41249236191968     0.146390358268238    -79.5600818200192    0.146390358268238    -79.5600818200192    0.98406147920564     8.41249236191968     
30.8830532585533     0.984277917774523    8.34954275896235     0.145302103343681    -79.6300548698183    0.145302103343681    -79.6300548698183    0.984277917774523    8.34954275896235     
31.0969399784765     0.984491636507654    8.2869503828989      0.144219863365095    -79.6996114410938    0.144219863365095    -79.6996114410938    0.984491636507654    8.2869503828989      
31.3123080133647     0.984702667274533    8.22471301236968     0.143143603904441    -79.7687535727205    0.143143603904441    -79.7687535727205    0.984702667274533    8.22471301236968     
31.529167622359      0.984911041600513    8.16282842895743     0.142073290504758    -79.8374832907576    0.142073290504758    -79.8374832907576    0.984911041600513    8.16282842895743     
31.7475291356523     0.98511679066925     8.10129441732961     0.141008888683987    -79.9058026080878    0.141008888683987    -79.9058026080878    0.98511679066925     8.10129441732961     
31.967402954981      0.98531994532518     8.04010876537516     0.139950363938692    -79.973713524057     0.139950363938692    -79.973713524057     0.98531994532518     8.04010876537516     
32.1887995541209     0.985520536075997    7.9792692643386      0.138897681747718    -80.0412180241077    0.138897681747718    -80.0412180241077    0.985520536075997    7.9792692643386      
32.4117294793863     0.985718593095143    7.91877370894996     0.137850807575756    -80.1083180794115    0.137850807575756    -80.1083180794115    0.985718593095143    7.91877370894996     
32.6362033501316     0.985914146224314    7.85861989755124     0.136809706876821    -80.1750156464957    0.136809706876821    -80.1750156464957    0.985914146224314    7.85861989755124     
32.8622318592581     0.986107224975961    7.79880563221853     0.135774345097653    -80.2413126668671    0.135774345097653    -80.2413126668671    0.986107224975961    7.79880563221853     
33.0898257737226     0.986297858535813    7.73932871888189     0.13474468768105     -80.3072110666309    0.13474468768105     -80.3072110666309    0.986297858535813    7.73932871888189     
33.3189959350508     0.986486075765386    7.68018696744032     0.133720700069103    -80.3727127561051    0.133720700069103    -80.3727127561051    0.986486075765386    7.68018696744032     
33.5497532598534     0.98667190520452     7.62137819187461     0.132702347706363    -80.4378196294284    0.132702347706363    -80.4378196294284    0.98667190520452     7.62137819187461     
33.7821087403464     0.986855375073899    7.56290021035516     0.131689596042932    -80.5025335641654    0.131689596042932    -80.5025335641654    0.986855375073899    7.56290021035516     
34.0160734448744     0.987036513277589    7.50475084534864     0.13068241053748     -80.5668564209024    0.13068241053748     -80.5668564209024    0.987036513277589    7.50475084534864     
34.2516585184381     0.987215347405568    7.44692792371917     0.129680756660187    -80.6307900428401    0.129680756660187    -80.6307900428401    0.987215347405568    7.44692792371917     
34.4888751832252     0.987391904736261    7.38942927682762     0.128684599895599    -80.6943362553775    0.128684599895599    -80.6943362553775    0.987391904736261    7.38942927682762     
34.7277347391448     0.987566212239078    7.33225274062781     0.127693905745441    -80.7574968656896    0.127693905745441    -80.7574968656896    0.987566212239078    7.33225274062781     
34.9682485643657     0.987738296576945    7.27539615575843     0.126708639731328    -80.8202736622979    0.126708639731328    -80.8202736622979    0.987738296576945    7.27539615575843     
35.2104281158587     0.987908184108844    7.2188573676331      0.125728767397424    -80.8826684146324    0.125728767397424    -80.8826684146324    0.987908184108844    7.2188573676331      
35.4542849299418     0.988075900892339    7.16263422652696     0.124754254313033    -80.944682872585     0.124754254313033    -80.944682872585     0.988075900892339    7.16263422652696     
35.6998306228304     0.988241472686107    7.10672458766021     0.12378506607511     -81.0063187660551    0.12378506607511     -81.0063187660551    0.988241472686107    7.10672458766021     
35.94707689119       0.988404924952463    7.05112631127896     0.122821168310716    -81.0675778044846    0.122821168310716    -81.0675778044846    0.988404924952463    7.05112631127896     
36.1960355126939     0.988566282859885    6.99583726273266     0.121862526679408    -81.1284616763843    0.121862526679408    -81.1284616763843    0.988566282859885    6.99583726273266     
36.446718346584      0.988725571285525    6.94085531255001     0.120909106875555    -81.1889720488485    0.120909106875555    -81.1889720488485    0.988725571285525    6.94085531255001     
36.6991373342355     0.988882814817729    6.8861783365105      0.119960874630599    -81.2491105670601    0.119960874630599    -81.2491105670601    0.988882814817729    6.8861783365105      
36.9533044997263     0.98903803775853     6.83180421571427     0.119017795715252    -81.3088788537833    0.119017795715252    -81.3088788537833    0.98903803775853     6.83180421571427     
37.2092319504093     0.989191264126161    6.77773083664932     0.118079835941629    -81.3682785088446    0.118079835941629    -81.3682785088446    0.989191264126161    6.77773083664932     
37.4669318774892     0.989342517657537    6.72395609125529     0.117146961165322    -81.4273111086006    0.117146961165322    -81.4273111086006    0.989342517657537    6.72395609125529     
37.7264165566033     0.989491821810744    6.67047787698585     0.116219137287415    -81.4859782053937    0.116219137287415    -81.4859782053937    0.989491821810744    6.67047787698585     
37.9876983484064     0.989639199767512    6.61729409686737     0.115296330256439    -81.5442813269922    0.115296330256439    -81.5442813269922    0.989639199767512    6.61729409686737     
38.2507896991594     0.989784674435684    6.56440265955615     0.114378506070269    -81.602221976017     0.114378506070269    -81.602221976017     0.989784674435684    6.56440265955615     
38.5157031413223     0.989928268451673    6.51180147939247     0.113465630777975    -81.6598016293524    0.113465630777975    -81.6598016293524    0.989928268451673    6.51180147939247     
38.7824512941511     0.990070004182914    6.45948847645265     0.112557670481594    -81.7170217375409    0.112557670481594    -81.7170217375409    0.990070004182914    6.45948847645265     
39.0510468642988     0.990209903730292    6.40746157659866     0.111654591337875    -81.7738837241609    0.111654591337875    -81.7738837241609    0.990209903730292    6.40746157659866     
39.3215026464212     0.990347988930583    6.3557187115255      0.110756359559946    -81.8303889851872    0.110756359559946    -81.8303889851872    0.990347988930583    6.3557187115255      
39.5938315237858     0.990484281358858    6.30425781880637     0.109862941418951    -81.8865388883318    0.109862941418951    -81.8865388883318    0.990484281358858    6.30425781880637     
39.8680464688857     0.990618802330899    6.25307684193499     0.108974303245611    -81.9423347723672    0.108974303245611    -81.9423347723672    0.990618802330899    6.25307684193499     
40.1441605440577     0.990751572905581    6.20217373036726     0.108090411431754    -81.9977779464273    0.108090411431754    -81.9977779464273    0.990751572905581    6.20217373036726     
40.4221869021044     0.99088261388726     6.15154643955856     0.107211232431788    -82.0528696892888    0.107211232431788    -82.0528696892888    0.99088261388726     6.15154643955856     
40.7021387869206     0.991011945828142    6.10119293100161     0.106336732764118    -82.1076112486283    0.106336732764118    -82.1076112486283    0.991011945828142    6.10119293100161     
40.9840295341245     0.991139589030631    6.05111117225982     0.105466879012527    -82.1620038402586    0.105466879012527    -82.1620038402586    0.991139589030631    6.05111117225982     
41.2678725716927     0.991265563549681    6.00129913700016     0.104601637827503    -82.216048647338     0.104601637827503    -82.216048647338     0.991265563549681    6.00129913700016     
41.5536814205998     0.991389889195116    5.95175480502346     0.103740975927513    -82.2697468195565    0.103740975927513    -82.2697468195565    0.991389889195116    5.95175480502346     
41.8414696954629     0.991512585533948    5.90247616229333     0.102884860100245    -82.3230994722922    0.102884860100245    -82.3230994722922    0.991512585533948    5.90247616229333     
42.1312511051895     0.991633671892679    5.85346120096209     0.102033257203797    -82.3761076857433    0.102033257203797    -82.3761076857433    0.991633671892679    5.85346120096209     
42.4230394536311     0.991753167359582    5.80470791939607     0.101186134167824    -82.4287725040283    0.101186134167824    -82.4287725040283    0.991753167359582    5.80470791939607     
42.7168486402404     0.991871090786978    5.75621432219868     0.100343457994635    -82.4810949342553    0.100343457994635    -82.4810949342553    0.991871090786978    5.75621432219868     
43.0126926607335     0.991987460793489    5.70797842023078     0.09950519576026     -82.533075945562     0.09950519576026     -82.533075945562     0.991987460793489    5.70797842023078     
43.3105856077568     0.992102295766276    5.65999823063095     0.098671314615464    -82.5847164681187    0.098671314615464    -82.5847164681187    0.992102295766276    5.65999823063095     
43.6105416715579     0.992215613863274    5.61227177683278     0.097841781786733    -82.6360173920982    0.097841781786733    -82.6360173920982    0.992215613863274    5.61227177683278     
43.9125751406618     0.992327433015389    5.56479708858113     0.097016564577201    -82.6869795666085    0.097016564577201    -82.6869795666085    0.992327433015389    5.56479708858113     
44.2167004025516     0.992437770928704    5.51757220194615     0.096195630367557    -82.7376037985865    0.096195630367557    -82.7376037985865    0.992437770928704    5.51757220194615     
44.5229319443538     0.992546645086645    5.47059515933616     0.095378946616897    -82.7878908516526    0.095378946616897    -82.7878908516526    0.992546645086645    5.47059515933616     
44.8312843535283     0.992654072752156    5.42386400950916     0.094566480863557    -82.8378414449208    0.094566480863557    -82.8378414449208    0.992654072752156    5.42386400950916     
45.1417723185633     0.992760070969834    5.37737680758204     0.093758200725887    -82.8874562517672    0.093758200725887    -82.8874562517672    0.992760070969834    5.37737680758204     
45.4544106296753     0.992864656568059    5.33113161503911     0.09295407390301     -82.9367358985499    0.09295407390301     -82.9367358985499    0.992864656568059    5.33113161503911     
45.769214179513      0.992967846161109    5.2851264997384      0.092154068175526    -82.9856809632824    0.092154068175526    -82.9856809632824    0.992967846161109    5.2851264997384      
46.0861979638675     0.993069656151253    5.23935953591682     0.091358151406197    -83.0342919742543    0.091358151406197    -83.0342919742543    0.993069656151253    5.23935953591682     
46.4053770823858     0.993170102730829    5.1938288041943      0.090566291540589    -83.0825694086001    0.090566291540589    -83.0825694086001    0.993170102730829    5.1938288041943      
46.7267667392909     0.993269201884305    5.14853239157591     0.089778456607682    -83.1305136908112    0.089778456607682    -83.1305136908112    0.993269201884305    5.14853239157591     
47.0503822441054     0.993366969390319    5.10346839145267     0.088994614720447    -83.1781251911905    0.088994614720447    -83.1781251911905    0.993366969390319    5.10346839145267     
47.3762390123812     0.993463420823713    5.05863490360173     0.088214734076398    -83.2254042242441    0.088214734076398    -83.2254042242441    0.993463420823713    5.05863490360173     
47.7043525664336     0.993558571557532    5.01403003418427     0.087438782958097    -83.2723510470099    0.087438782958097    -83.2723510470099    0.993558571557532    5.01403003418427     
48.0347385360808     0.993652436765018    4.969651895743       0.08666672973365     -83.3189658573183    0.08666672973365     -83.3189658573183    0.993652436765018    4.969651895743       
48.3674126593883     0.993745031421588    4.9254986071974      0.085898542857144    -83.3652487919822    0.085898542857144    -83.3652487919822    0.993745031421588    4.9254986071974      
48.7023907834188     0.99383637030678     4.88156829383896     0.085134190869089    -83.411199924912     0.085134190869089    -83.411199924912     0.99383637030678     4.88156829383896     
49.0396888649871     0.993926468006199    4.83785908732433     0.084373642396803    -83.4568192651537    0.084373642396803    -83.4568192651537    0.993926468006199    4.83785908732433     
49.3793229714198     0.994015338913431    4.79436912566748     0.083616866154779    -83.5021067548443    0.083616866154779    -83.5021067548443    0.994015338913431    4.79436912566748     
49.7213092813213     0.994102997231946    4.75109655323084     0.082863830945031    -83.5470622670812    0.082863830945031    -83.5470622670812    0.994102997231946    4.75109655323084     
50.0656640853438     0.994189456976981    4.70803952071552     0.082114505657404    -83.5916856037019    0.082114505657404    -83.5916856037019    0.994189456976981    4.70803952071552     
50.4124037869639     0.994274731977406    4.66519618514978     0.081368859269856    -83.6359764929678    0.081368859269856    -83.6359764929678    0.994274731977406    4.66519618514978     
50.7615449032636     0.994358835877571    4.6225647098772      0.080626860848728    -83.6799345871492    0.080626860848728    -83.6799345871492    0.994358835877571    4.6225647098772      
51.1131040657173     0.994441782139134    4.58014326454311     0.079888479548972    -83.7235594600046    0.079888479548972    -83.7235594600046    0.994441782139134    4.58014326454311     
51.467098020984      0.994523584042868    4.53793002508069     0.079153684614368    -83.76685060415      0.079153684614368    -83.76685060415      0.994523584042868    4.53793002508069     
51.8235436317049     0.994604254690464    4.49592317369534     0.078422445377711    -83.809807428312     0.078422445377711    -83.809807428312     0.994604254690464    4.49592317369534     
52.1824578773068     0.994683807006293    4.45412089884889     0.077694731260972    -83.8524292544587    0.077694731260972    -83.8524292544587    0.994683807006293    4.45412089884889     
52.5438578548111     0.994762253739168    4.41252139524174     0.076970511775444    -83.8947153148027    0.076970511775444    -83.8947153148027    0.994762253739168    4.41252139524174     
52.9077607796478     0.994839607464081    4.37112286379544     0.07624975652186     -83.9366647486672    0.07624975652186     -83.9366647486672    0.994839607464081    4.37112286379544     
53.2741839864757     0.99491588058392     4.32992351163307     0.075532435190493    -83.9782765992109    0.075532435190493    -83.9782765992109    0.99491588058392     4.32992351163307     
53.6431449300085     0.994991085331172    4.28892155205975     0.074818517561231    -84.0195498100015    0.074818517561231    -84.0195498100015    0.994991085331172    4.28892155205975     
54.0146611858458     0.995065233769606    4.24811520454134     0.074107973503638    -84.060483221432     0.074107973503638    -84.060483221432     0.995065233769606    4.24811520454134     
54.3887504513105     0.995138337795928    4.20750269468346     0.07340077297699     -84.1010755669678    0.07340077297699     -84.1010755669678    0.995138337795928    4.20750269468346     
54.765430546292      0.995210409141444    4.16708225420814     0.072696886030289    -84.1413254692202    0.072696886030289    -84.1413254692202    0.995210409141444    4.16708225420814     
55.1447194140946     0.99528145937367     4.12685212093133     0.071996282802274    -84.1812314358314    0.071996282802274    -84.1812314358314    0.99528145937367     4.12685212093133     
55.5266351222928     0.995351499897952    4.08681053873817     0.071298933521389    -84.2207918551645    0.071298933521389    -84.2207918551645    0.995351499897952    4.08681053873817     
55.9111958635915     0.995420541959051    4.04695575755857     0.070604808505762    -84.2600049917859    0.070604808505762    -84.2600049917859    0.995420541959051    4.04695575755857     
56.2984199566928     0.995488596642718    4.00728603334139     0.069913878163141    -84.2988689817274    0.069913878163141    -84.2988689817274    0.995488596642718    4.00728603334139     
56.6883258471688     0.99555567487725     3.96779962802795     0.06922611299083     -84.3373818275189    0.06922611299083     -84.3373818275189    0.99555567487725     3.96779962802795     
57.0809321083398     0.995621787435022    3.92849480952527     0.06854148357561     -84.3755413929731    0.06854148357561     -84.3755413929731    0.995621787435022    3.92849480952527     
57.4762574421595     0.995686944934006    3.88936985167804     0.067859960593631    -84.4133453977138    0.067859960593631    -84.4133453977138    0.995686944934006    3.88936985167804     
57.8743206801056     0.995751157839273    3.85042303424032     0.067181514810306    -84.450791411428     0.067181514810306    -84.450791411428     0.995751157839273    3.85042303424032     
58.275140784077      0.995814436464473    3.8116526428462      0.066506117080176    -84.4878768478288    0.066506117080176    -84.4878768478288    0.995814436464473    3.8116526428462      
58.678736847297      0.995876790973297    3.7730569689802      0.065833738346778    -84.5245989583091    0.065833738346778    -84.5245989583091    0.995876790973297    3.7730569689802      
59.0851280952227     0.995938231380926    3.73463430994696     0.065164349642487    -84.560954825271     0.065164349642487    -84.560954825271     0.995938231380926    3.73463430994696     
59.4943338864612     0.995998767555453    3.69638296883985     0.064497922088349    -84.5969413551083    0.064497922088349    -84.5969413551083    0.995998767555453    3.69638296883985     
59.9063737136911     0.996058409219298    3.65830125450959     0.063834426893907    -84.6325552708223    0.063834426893907    -84.6325552708223    0.996058409219298    3.65830125450959     
60.3212672045918     0.996117165950596    3.62038748153214     0.063173835357016    -84.6677931042485    0.063173835357016    -84.6677931042485    0.996117165950596    3.62038748153214     
60.7390341227777     0.996175047184573    3.58263997017566     0.062516118863642    -84.70265118787      0.062516118863642    -84.70265118787      0.996175047184573    3.58263997017566     
61.1596943687404     0.996232062214901    3.54505704636727     0.061861248887653    -84.7371256461916    0.061861248887653    -84.7371256461916    0.996232062214901    3.54505704636727     
61.583267980796      0.996288220195032    3.50763704165915     0.061209196990611    -84.7712123866471    0.061209196990611    -84.7712123866471    0.996288220195032    3.50763704165915     
62.0097751360402     0.996343530139527    3.47037829319421     0.06055993482154     -84.8049070900102    0.06055993482154     -84.8049070900102    0.996343530139527    3.47037829319421     
62.439236151309      0.996398000925349    3.43327914367105     0.059913434116704    -84.8382052002768    0.059913434116704    -84.8382052002768    0.996398000925349    3.43327914367105     
62.8716714841468     0.996451641293156    3.39633794130858     0.059269666699361    -84.8711019139855    0.059269666699361    -84.8711019139855    0.996451641293156    3.39633794130858     
63.3071017337807     0.996504459848561    3.35955303981008     0.058628604479525    -84.9035921689383    0.058628604479525    -84.9035921689383    0.996504459848561    3.35955303981008     
63.745547642102      0.996556465063392    3.32292279832685     0.05799021945372     -84.935670632283     0.05799021945372     -84.935670632283     0.996556465063392    3.32292279832685     
64.1870300946537     0.996607665276914    3.28644558142151     0.057354483704725    -84.9673316879145    0.057354483704725    -84.9673316879145    0.996607665276914    3.28644558142151     
64.6315701216264     0.996658068697049    3.25011975903019     0.056721369401315    -84.9985694231497    0.056721369401315    -84.9985694231497    0.996658068697049    3.25011975903019     
65.0791888988588     0.996707683401578    3.21394370642547     0.056090848798013    -85.0293776146254    0.056090848798013    -85.0293776146254    0.996707683401578    3.21394370642547     
65.5299077488475     0.99675651733931     3.17791580417785     0.055462894234826    -85.059749713368     0.055462894234826    -85.059749713368     0.99675651733931     3.17791580417785     
65.9837481417621     0.996804578331259    3.14203443811718     0.054837478136985    -85.089678828977     0.054837478136985    -85.089678828977     0.996804578331259    3.14203443811718     
66.4407316964684     0.99685187407178     3.10629799929385     0.054214573014689    -85.1191577128591    0.054214573014689    -85.1191577128591    0.99685187407178     3.10629799929385     
66.9008801815576     0.996898412129704    3.07070488393931     0.053594151462849    -85.1481787404491    0.053594151462849    -85.1481787404491    0.996898412129704    3.07070488393931     
67.3642155163837     0.996944199949447    3.03525349342653     0.052976186160835    -85.1767338923417    0.052976186160835    -85.1767338923417    0.996944199949447    3.03525349342653     
67.8307597721077     0.996989244852108    2.99994223422961     0.052360649872223    -85.2048147342597    0.052360649872223    -85.2048147342597    0.996989244852108    2.99994223422961     
68.3005351727485     0.997033554036544    2.96476951788372     0.051747515444561    -85.2324123957705    0.051747515444561    -85.2324123957705    0.997033554036544    2.96476951788372     
68.7735640962423     0.997077134580432    2.92973376094393     0.051136755809122    -85.2595175476628    0.051136755809122    -85.2595175476628    0.997077134580432    2.92973376094393     
69.2498690755078     0.997119993441318    2.89483338494447     0.050528343980686    -85.2861203778798    0.050528343980686    -85.2861203778798    0.997119993441318    2.89483338494447     
69.7294727995199     0.997162137457642    2.86006681635692     0.049922253057315    -85.3122105659057    0.049922253057315    -85.3122105659057    0.997162137457642    2.86006681635692     
70.2123981143908     0.997203573349746    2.82543248654882     0.049318456220154    -85.3377772554831    0.049318456220154    -85.3377772554831    0.997203573349746    2.82543248654882     
70.6986680244575     0.997244307720876    2.79092883174136     0.048716926733237    -85.3628090255383    0.048716926733237    -85.3628090255383    0.997244307720876    2.79092883174136     
71.1883056933787     0.997284347058156    2.7565542929671      0.048117637943309    -85.3872938591723    0.048117637943309    -85.3872938591723    0.997284347058156    2.7565542929671      
71.6813344452372     0.99732369773355     2.72230731602744     0.047520563279673    -85.4112191105677    0.047520563279673    -85.4112191105677    0.99732369773355     2.72230731602744     
72.1777777656514     0.99736236600481     2.68818635144957     0.046925676254046    -85.4345714696463    0.046925676254046    -85.4345714696463    0.99736236600481     2.68818635144957     
72.6776593028942     0.997400358016402    2.65418985444347     0.046332950460453    -85.4573369242967    0.046332950460453    -85.4573369242967    0.997400358016402    2.65418985444347     
73.1810028690192     0.997437679800421    2.62031628485836     0.045742359575126    -85.4795007199767    0.045742359575126    -85.4795007199767    0.997437679800421    2.62031628485836     
73.687832440995      0.997474337277492    2.58656410713907     0.045153877356456    -85.5010473164731    0.045153877356456    -85.5010473164731    0.997474337277492    2.58656410713907     
74.1981721618477     0.997510336257643    2.55293179028214     0.04456747764495     -85.5219603415856    0.04456747764495     -85.5219603415856    0.997510336257643    2.55293179028214     
74.7120463418107     0.997545682441171    2.51941780779181     0.043983134363249    -85.5422225414743    0.043983134363249    -85.5422225414743    0.997545682441171    2.51941780779181     
75.2294794594825     0.9975803814195      2.48602063763546     0.043400821516162    -85.5618157273911    0.043400821516162    -85.5618157273911    0.9975803814195      2.48602063763546     
75.7504961629931     0.997614438676005    2.45273876219914     0.04282051319076     -85.5807207184802    0.04282051319076     -85.5807207184802    0.997614438676005    2.45273876219914     
76.2751212711781     0.997647859586828    2.41957066824287     0.042242183556508    -85.5989172803085    0.042242183556508    -85.5989172803085    0.997647859586828    2.41957066824287     
76.803379774761      0.997680649421688    2.38651484685559     0.041665806865449    -85.6163840587489    0.041665806865449    -85.6163840587489    0.997680649421688    2.38651484685559     
77.3352968375431     0.997712813344658    2.35356979341005     0.041091357452458    -85.6330985088022    0.041091357452458    -85.6330985088022    0.997712813344658    2.35356979341005     
77.8708977976031     0.997744356414939    2.32073400751745     0.04051880973554     -85.6490368178997    0.04051880973554     -85.6490368178997    0.997744356414939    2.32073400751745     
78.4102081685032     0.997775283587615    2.28800599298194     0.039948138216215    -85.6641738231821    0.039948138216215    -85.6641738231821    0.997775283587615    2.28800599298194     
78.9532536405052     0.997805599714391    2.25538425775497     0.039379317479974    -85.6784829221956    0.039379317479974    -85.6784829221956    0.997805599714391    2.25538425775497     
79.5000600817935     0.997835309544311    2.22286731388949     0.038812322196821    -85.6919359763867    0.038812322196821    -85.6919359763867    0.997835309544311    2.22286731388949     
80.0506535397081     0.997864417724477    2.19045367749385     0.038247127121908    -85.7045032067104    0.038247127121908    -85.7045032067104    0.997864417724477    2.19045367749385     
80.6050602419848     0.997892928800731    2.15814186868581     0.037683707096278    -85.7161530805886    0.037683707096278    -85.7161530805886    0.997892928800731    2.15814186868581     
81.163306598005      0.997920847218337    2.1259304115462      0.037122037047722    -85.7268521893748    0.037122037047722    -85.7268521893748    0.997920847218337    2.1259304115462      
81.7254192000535     0.997948177322644    2.09381783407251     0.03656209199176     -85.7365651153789    0.03656209199176     -85.7365651153789    0.997948177322644    2.09381783407251     
82.2914248245848     0.99797492335973     2.06180266813251     0.036003847032767    -85.7452542874044    0.036003847032767    -85.7452542874044    0.99797492335973     2.06180266813251     
82.8613504334997     0.998001089477034    2.02988344941742     0.035447277365253    -85.7528798236213    0.035447277365253    -85.7528798236213    0.998001089477034    2.02988344941742     
83.4352231754287     0.998026679723975    1.99805871739526     0.034892358275313    -85.7593993604639    0.034892358275313    -85.7593993604639    0.998026679723975    1.99805871739526     
84.0130703870253     0.99805169805255     1.96632701526404     0.034339065142277    -85.764767866082     0.034339065142277    -85.764767866082     0.99805169805255     1.96632701526404     
84.594919594269      0.998076148317923    1.93468688990478     0.033787373440559    -85.7689374366954    0.033787373440559    -85.7689374366954    0.998076148317923    1.93468688990478     
85.1807985137754     0.998100034278995    1.90313689183439     0.033237258741753    -85.7718570739979    0.033237258741753    -85.7718570739979    0.998100034278995    1.90313689183439     
85.7707350541173     0.998123359598961    1.87167557515865     0.032688696716991    -85.773472441522     0.032688696716991    -85.773472441522     0.998123359598961    1.87167557515865     
86.3647573171538     0.998146127845856    1.84030149752499     0.032141663139585    -85.7737255976114    0.032141663139585    -85.7737255976114    0.998146127845856    1.84030149752499     
86.962893599369      0.998168342493075    1.80901322007516     0.031596133888006    -85.7725547023383    0.031596133888006    -85.7725547023383    0.998168342493075    1.80901322007516     
87.5651723932198     0.998190006919888    1.77780930739784     0.031052084949218    -85.7698936953567    0.031052084949218    -85.7698936953567    0.998190006919888    1.77780930739784     
88.1716223884937     0.998211124411938    1.74668832748141     0.030509492422433    -85.7656719412734    0.030509492422433    -85.7656719412734    0.998211124411938    1.74668832748141     
88.7822724736744     0.998231698161727    1.71564885166625     0.02996833252331     -85.7598138386557    0.02996833252331     -85.7598138386557    0.998231698161727    1.71564885166625     
89.3971517373191     0.99825173126908     1.68468945459739     0.029428581588677    -85.7522383882546    0.029428581588677    -85.7522383882546    0.99825173126908     1.68468945459739     
90.0162894694431     0.998271226741598    1.65380871417685     0.028890216081827    -85.7428587153975    0.028890216081827    -85.7428587153975    0.998271226741598    1.65380871417685     
90.6397151629159     0.998290187495102    1.62300521151609     0.028353212598471    -85.7315815407784    0.028353212598471    -85.7315815407784    0.998290187495102    1.62300521151609     
91.2674585148656     0.998308616354055    1.5922775308883      0.027817547873418    -85.7183065930309    0.027817547873418    -85.7183065930309    0.998308616354055    1.5922775308883      
91.8995494280935     0.998326516051969    1.56162425968082     0.027283198788095    -85.7029259554786    0.027283198788095    -85.7029259554786    0.998326516051969    1.56162425968082     
92.5360180124989     0.998343889231809    1.53104398834733     0.026750142379008    -85.6853233383066    0.026750142379008    -85.6853233383066    0.998343889231809    1.53104398834733     
93.1768945865132     0.998360738446367    1.50053531036024     0.026218355847277    -85.6653732660389    0.026218355847277    -85.6653732660389    0.998360738446367    1.50053531036024     
93.822209678544      0.998377066158629    1.47009682216287     0.025687816569391    -85.6429401686106    0.025687816569391    -85.6429401686106    0.998377066158629    1.47009682216287     
94.4719940284294     0.998392874742135    1.43972712312178     0.025158502109357    -85.6178773624374    0.025158502109357    -85.6178773624374    0.998392874742135    1.43972712312178     
95.1262785889025     0.998408166481312    1.40942481547901     0.024630390232449    -85.5900259056525    0.024630390232449    -85.5900259056525    0.998408166481312    1.40942481547901     
95.7850945270656     0.998422943571797    1.37918850430423     0.024103458920787    -85.5592133090234    0.024103458920787    -85.5592133090234    0.998422943571797    1.37918850430423     
96.448473225875      0.998437208120752    1.34901679744724     0.02357768639102     -85.525252080898     0.02357768639102     -85.525252080898     0.998437208120752    1.34901679744724     
97.116446285636      0.998450962147154    1.31890830548997     0.02305305111445     -85.4879380807374    0.02305305111445     -85.4879380807374    0.998450962147154    1.31890830548997     
97.7890455255079     0.998464207582082    1.28886164169893     0.022529531839959    -85.4470486512469    0.022529531839959    -85.4470486512469    0.998464207582082    1.28886164169893     
98.4663029850201     0.998476946268983    1.25887542197749     0.022007107620212    -85.4023404936287    0.022007107620212    -85.4023404936287    0.998476946268983    1.25887542197749     
99.1482509255979     0.998489179963923    1.22894826481823     0.021485757841661    -85.3535472438433    0.021485757841661    -85.3535472438433    0.998489179963923    1.22894826481823     
99.8349218320997     0.998500910335826    1.19907879125518     0.020965462258993    -85.3003766997024    0.020965462258993    -85.3003766997024    0.998500910335826    1.19907879125518     
100.526348414364     0.998512138966705    1.16926562481642     0.020446201034791    -85.2425076387691    0.020446201034791    -85.2425076387691    0.998512138966705    1.16926562481642     
101.222563608768     0.998522867351869    1.13950739147638     0.019927954785331    -85.1795861549793    0.019927954785331    -85.1795861549793    0.998522867351869    1.13950739147638     
101.923600579797     0.998533096900118    1.10980271960828     0.019410704633622    -85.1112214270357    0.019410704633622    -85.1112214270357    0.998533096900118    1.10980271960828     
102.629492721622     0.998542828933928    1.08015023993686     0.01889443227104     -85.0369808132397    0.01889443227104     -85.0369808132397    0.998542828933928    1.08015023993686     
103.340273659692     0.998552064689624    1.05054858549071     0.018379120029201    -84.9563841445505    0.018379120029201    -84.9563841445505    0.998552064689624    1.05054858549071     
104.055977252339     0.99856080531753     1.0209963915551      0.017864750964085    -84.8688970590625    0.017864750964085    -84.8688970590625    0.99856080531753     1.0209963915551      
104.776637592382     0.998569051882112    0.991492295624598    0.017351308954873    -84.7739231851187    0.017351308954873    -84.7739231851187    0.998569051882112    0.991492295624598    
105.502289008762     0.998576805362104    0.962034937355862    0.01683877882058     -84.6707949347842    0.01683877882058     -84.6707949347842    0.998576805362104    0.962034937355862    
106.232966068169     0.998584066650622    0.932622958520464    0.01632714645827     -84.5587626114919    0.01632714645827     -84.5587626114919    0.998584066650622    0.932622958520464    
106.968703576692     0.998590836555267    0.903255002957875    0.015816399007644    -84.4369814614831    0.015816399007644    -84.4369814614831    0.998590836555267    0.903255002957875    
107.709536581477     0.998597115798202    0.873929716528353    0.015306525047992    -84.3044962029672    0.015306525047992    -84.3044962029672    0.998597115798202    0.873929716528353    
108.455500372394     0.998602905016232    0.844645747066126    0.014797514835146    -84.1602224425803    0.014797514835146    -84.1602224425803    0.998602905016232    0.844645747066126    
109.206630483723     0.998608204760855    0.815401744332534    0.014289360588175    -84.0029242259155    0.014289360588175    -84.0029242259155    0.998608204760855    0.815401744332534    
109.962962695842     0.998613015498308    0.786196359969283    0.013782056838354    -83.8311867540023    0.013782056838354    -83.8311867540023    0.998613015498308    0.786196359969283    
110.724533036933     0.998617337609599    0.757028247451814    0.013275600856702    -83.6433830115093    0.013275600856702    -83.6433830115093    0.998617337609599    0.757028247451814    
111.491377784698     0.998621171390519    0.727896062042853    0.012769993181398    -83.4376326680551    0.012769993181398    -83.4376326680551    0.998621171390519    0.727896062042853    
112.26353346809      0.998624517051646    0.698798460745879    0.012265238273246    -83.2117510925446    0.012265238273246    -83.2117510925446    0.998624517051646    0.698798460745879    
113.041036869047     0.99862737471833     0.669734102258891    0.011761345336777    -82.9631856056865    0.011761345336777    -82.9631856056865    0.99862737471833     0.669734102258891    
113.823925024251     0.99862974443067     0.640701646928302    0.011258329357691    -82.6889351053176    0.011258329357691    -82.6889351053176    0.99862974443067     0.640701646928302    
114.612235226885     0.998631626143474    0.611699756702639    0.010756212425777    -82.3854478102537    0.010756212425777    -82.3854478102537    0.998631626143474    0.611699756702639    
115.406005028417     0.998633019726202    0.582727095086834    0.010255025438794    -82.0484898963109    0.010255025438794    -82.0484898963109    0.998633019726202    0.582727095086834    
116.205272240383     0.9986339249629      0.553782327096399    0.009754810320889    -81.6729749601679    0.009754810320889    -81.6729749601679    0.9986339249629      0.553782327096399    
117.010074936191     0.998634341552119    0.524864119211615    0.009255622945065    -81.2527401034473    0.009255622945065    -81.2527401034473    0.998634341552119    0.524864119211615    
117.820451452934     0.99863426910682     0.495971139332191    0.008757537032858    -80.7802482863192    0.008757537032858    -80.7802482863192    0.99863426910682     0.495971139332191    
118.636440393216     0.998633707154258    0.467102056731783    0.008260649431413    -80.246187339671     0.008260649431413    -80.246187339671     0.998633707154258    0.467102056731783    
119.458080626992     0.998632655135865    0.4382555420128      0.007765087365249    -79.6389218155851    0.007765087365249    -79.6389218155851    0.998632655135865    0.4382555420128      
120.285411293417     0.99863111240711     0.409430267061332    0.007271018571892    -78.9437316339371    0.007271018571892    -78.9437316339371    0.99863111240711     0.409430267061332    
121.118471802712     0.998629078237345    0.380624905002285    0.00677866573597     -78.141736018651     0.00677866573597     -78.141736018651     0.998629078237345    0.380624905002285    
121.957301838042     0.998626551809645    0.351838130154603    0.006288327475738    -77.2083433932399    0.006288327475738    -77.2083433932399    0.998626551809645    0.351838130154603    
122.801941357407     0.998623532220619    0.323068617986739    0.005800409568734    -76.1109714966373    0.005800409568734    -76.1109714966373    0.998623532220619    0.323068617986739    
123.652430595541     0.998620018480222    0.294315045072243    0.005315472621834    -74.8056175710203    0.005315472621834    -74.8056175710203    0.998620018480222    0.294315045072243    
124.508810065834     0.99861600951155     0.2655760890456      0.004834306960595    -73.2315720214886    0.004834306960595    -73.2315720214886    0.99861600951155     0.2655760890456      
125.37112056226      0.998611504150608    0.236850428558176    0.004358054084756    -71.3030611167017    0.004358054084756    -71.3030611167017    0.998611504150608    0.236850428558176    
126.239403161317     0.998606501146081    0.208136743234411    0.003888410664605    -68.8956980596972    0.003888410664605    -68.8956980596972    0.998606501146081    0.208136743234411    
127.113699223989     0.998600999159085    0.179433713628244    0.003427984297131    -65.8240384623177    0.003427984297131    -65.8240384623177    0.998600999159085    0.179433713628244    
127.994050397711     0.998594996762894    0.150740021179637    0.002980937920261    -61.8040407466574    0.002980937920261    -61.8040407466574    0.998594996762894    0.150740021179637    
128.88049861836      0.998588492442668    0.1220543481714      0.002554195096444    -56.3918297216183    0.002554195096444    -56.3918297216183    0.998588492442668    0.1220543481714      
129.773086112244     0.998581484595157    0.093375377686204    0.002159714174511    -48.8965195867572    0.002159714174511    -48.8965195867572    0.998581484595157    0.093375377686204    
130.67185539812      0.998573971528394    0.064701793563795    0.001818506307547    -38.3231551497091    0.001818506307547    -38.3231551497091    0.998573971528394    0.064701793563795    
131.576849289216     0.998565951461373    0.03603228035852     0.001565701288131    -23.6460541478034    0.001565701288131    -23.6460541478034    0.998565951461373    0.03603228035852     
132.488110895271     0.998557422523715    0.007365523296901    0.001448285784888    -5.08501995151129    0.001448285784888    -5.08501995151129    0.998557422523715    0.007365523296901    
133.405683624592     0.998548382755312    -0.021299791764297   0.001498396204668    14.3437845156228     0.001498396204668    14.3437845156228     0.998548382755312    -0.021299791764297   
134.329611186115     0.99853883010597     -0.049964978380004   0.001701288725755    30.7861332956797     0.001701288725755    30.7861332956797     0.99853883010597     -0.049964978380004   
135.259937591494     0.998528762435018    -0.078631349558306   0.002011264393385    42.9485043345523     0.002011264393385    42.9485043345523     0.998528762435018    -0.078631349558306   
136.196707157192     0.998518177510928    -0.107300217801839   0.002386998702071    51.5725969036157     0.002386998702071    51.5725969036157     0.998518177510928    -0.107300217801839   
137.139964506597     0.998507073010897    -0.135972895148807   0.002802209570206    57.7393845059258     0.002802209570206    57.7393845059258     0.998507073010897    -0.135972895148807   
138.089754572142     0.998495446520426    -0.164650693213735   0.003241817929816    62.2652001531265     0.003241817929816    62.2652001531265     0.998495446520426    -0.164650693213735   
139.046122597452     0.998483295532882    -0.19333492322801    0.00369719106639     65.6839872114479     0.00369719106639     65.6839872114479     0.998483295532882    -0.19333492322801    
140.009114139494     0.998470617449051    -0.22202689608004    0.004163223418934    68.3364196968869     0.004163223418934    68.3364196968869     0.998470617449051    -0.22202689608004    
140.978775070747     0.998457409576663    -0.250727922355231   0.004636769753049    70.4427715915935     0.004636769753049    70.4427715915935     0.998457409576663    -0.250727922355231   
141.955151581393     0.998443669129916    -0.279439312375616   0.005115814232089    72.1491164555227     0.005115814232089    72.1491164555227     0.998443669129916    -0.279439312375616   
142.938290181509     0.998429393228977    -0.308162376239095   0.005599018296066    73.5550551303332     0.005599018296066    73.5550551303332     0.998429393228977    -0.308162376239095   
143.928237703291     0.998414578899471    -0.336898423858495   0.006085465466891    74.7303507424834     0.006085465466891    74.7303507424834     0.998414578899471    -0.336898423858495   
144.925041303276     0.998399223071959    -0.3656487650003     0.006574511704242    75.7250914595471     0.006574511704242    75.7250914595471     0.998399223071959    -0.3656487650003     
145.928748464598     0.998383322581387    -0.394414709322949   0.007065694419849    76.5760517464715     0.007065694419849    76.5760517464715     0.998383322581387    -0.394414709322949   
146.939406999241     0.998366874166543    -0.42319756641487    0.00755867529164     77.310777116308      0.00755867529164     77.310777116308      0.998366874166543    -0.42319756641487    
147.957065050321     0.998349874469476    -0.45199864583218    0.008053203229473    77.950272952412      0.008053203229473    77.950272952412      0.998349874469476    -0.45199864583218    
148.981771094381     0.998332320034915    -0.480819257136036   0.008549089737927    78.5108161578248     0.008549089737927    78.5108161578248     0.998332320034915    -0.480819257136036   
150.013573943696     0.998314207309665    -0.509660709929561   0.009046192126228    79.0052023517706     0.009046192126228    79.0052023517706     0.998314207309665    -0.509660709929561   
151.0525227486       0.998295532641992    -0.53852431389451    0.009544401815268    79.4436216056464     0.009544401815268    79.4436216056464     0.998295532641992    -0.53852431389451    
152.098666999829     0.998276292280994    -0.567411378827438   0.010043636033802    79.8342845654342     0.010043636033802    79.8342845654342     0.998276292280994    -0.567411378827438   
153.152056530874     0.998256482375952    -0.59632321467562    0.010543831816487    80.1838775676813     0.010543831816487    80.1838775676813     0.998256482375952    -0.59632321467562    
154.212741520361     0.998236098975662    -0.625261131572484   0.011044941595688    80.4978984961339     0.011044941595688    80.4978984961339     0.998236098975662    -0.625261131572484   
155.280772494436     0.998215138027772    -0.654226439872656   0.011546929916346    80.7809080909564     0.011546929916346    80.7809080909564     0.998215138027772    -0.654226439872656   
156.356200329175     0.998193595378075    -0.683220450186604   0.012049770955001    81.0367204053137     0.012049770955001    81.0367204053137     0.998193595378075    -0.683220450186604   
157.439076253005     0.99817146676981     -0.712244473414941   0.012553446623166    81.2685488475983     0.012553446623166    81.2685488475983     0.99817146676981     -0.712244473414941   
158.529451849147     0.998148747842932    -0.741299820782123   0.013057945101079    81.4791193858516     0.013057945101079    81.4791193858516     0.998148747842932    -0.741299820782123   
159.627379058072     0.998125434133377    -0.770387803869925   0.013563259692431    81.6707591814817     0.013563259692431    81.6707591814817     0.998125434133377    -0.770387803869925   
160.732910179973     0.998101521072306    -0.799509734650192   0.014069387921224    81.84546663296       0.014069387921224    81.84546663296       0.998101521072306    -0.799509734650192   
161.84609787726      0.998077003985332    -0.828666925517516   0.014576330813247    82.0049672085842     0.014576330813247    82.0049672085842     0.998077003985332    -0.828666925517516   
162.966995177068     0.998051878091737    -0.857860689321145   0.015084092319732    82.1507583109206     0.015084092319732    82.1507583109206     0.998051878091737    -0.857860689321145   
164.095655473779     0.99802613850367     -0.88709233939639    0.015592678851488    82.2841455993453     0.015592678851488    82.2841455993453     0.99802613850367     -0.88709233939639    
165.232132531571     0.997999780225321    -0.91636318959584    0.016102098899671    82.4062726042638     0.016102098899671    82.4062726042638     0.997999780225321    -0.91636318959584    
166.376480486976     0.997972798152101    -0.945674554319766   0.016612362724987    82.5181450313948     0.016612362724987    82.5181450313948     0.997972798152101    -0.945674554319766   
167.528753851458     0.99794518706978     -0.975027748546194   0.017123482101403    82.6206508318663     0.017123482101403    82.6206508318663     0.99794518706978     -0.975027748546194   
168.689007514013     0.997916941653628    -1.00442408786039    0.017635470103559    82.7145768724049     0.017635470103559    82.7145768724049     0.997916941653628    -1.00442408786039    
169.857296743779     0.99788805646753     -1.03386488848388    0.018148340929457    82.8006228576117     0.018148340929457    82.8006228576117     0.99788805646753     -1.03386488848388    
171.033677192674     0.997858525963088    -1.06335146730283    0.018662109751806    82.8794130175409     0.018662109751806    82.8794130175409     0.997858525963088    -1.06335146730283    
172.218204898043     0.997828344478707    -1.0928851418959     0.019176792592783    82.9515059673235     0.019176792592783    82.9515059673235     0.997828344478707    -1.0928851418959     
173.410936285328     0.997797506238668    -1.12246723056167    0.019692406218033    83.0174030632774     0.019692406218033    83.0174030632774     0.997797506238668    -1.12246723056167    
174.61192817076      0.997766005352174    -1.15209905234519    0.020208968046561    83.0775555158809     0.020208968046561    83.0775555158809     0.997766005352174    -1.15209905234519    
175.821237764058     0.997733835812396    -1.18178192706433    0.020726496073821    83.1323704697863     0.020726496073821    83.1323704697863     0.997733835812396    -1.18178192706433    
177.03892267116      0.997700991495486    -1.21151717533513    0.02124500880581     83.1822162214655     0.02124500880581     83.1822162214655     0.997700991495486    -1.21151717533513    
178.265040896966     0.997667466159583    -1.24130611859682    0.021764525202382    83.2274267136709     0.021764525202382    83.2274267136709     0.997667466159583    -1.24130611859682    
179.499650848101     0.997633253443803    -1.27115007913609    0.022285064628323    83.2683054208434     0.022285064628323    83.2683054208434     0.997633253443803    -1.27115007913609    
180.742811335693     0.997598346867208    -1.30105038011073    0.022806646810982    83.3051287194922     0.022806646810982    83.3051287194922     0.997598346867208    -1.30105038011073    
181.994581578183     0.997562739827762    -1.33100834557262    0.023329291803468    83.3381488213668     0.023329291803468    83.3381488213668     0.997562739827762    -1.33100834557262    
183.255021204137     0.997526425601267    -1.36102530049004    0.02385301995257     83.3675963341023     0.02385301995257     83.3675963341023     0.997526425601267    -1.36102530049004    
184.524190255094     0.997489397340283    -1.39110257076934    0.02437785187074     83.3936825033231     0.02437785187074     83.3936825033231     0.997489397340283    -1.39110257076934    
185.802149188419     0.997451648073038    -1.42124148327583    0.024903808411522    83.4166011814427     0.024903808411522    83.4166011814427     0.997451648073038    -1.42124148327583    
187.08895888019      0.997413170702309    -1.45144336585403    0.025430910647982    83.4365305612062     0.025430910647982    83.4365305612062     0.997413170702309    -1.45144336585403    
188.384680628092     0.997373958004298    -1.48170954734711    0.0259591798537      83.4536347060991     0.0259591798537      83.4536347060991     0.997373958004298    -1.48170954734711    
189.68937615434      0.99733400262748     -1.51204135761573    0.026488637485986    83.4680649048274     0.026488637485986    83.4680649048274     0.99733400262748     -1.51204135761573    
191.003107608618     0.997293297091448    -1.54244012755592    0.027019305171033    83.4799608729987     0.027019305171033    83.4799608729987     0.997293297091448    -1.54244012755592    
192.325937571042     0.997251833785726    -1.57290718911636    0.027551204690741    83.4894518217222     0.027551204690741    83.4894518217222     0.997251833785726    -1.57290718911636    
193.657929055136     0.997209604968575    -1.60344387531481    0.028084357971013    83.4966574099937     0.028084357971013    83.4966574099937     0.997209604968575    -1.60344387531481    
194.999145510839     0.997166602765779    -1.63405152025359    0.028618787071324    83.5016885953359     0.028618787071324    83.5016885953359     0.997166602765779    -1.63405152025359    
196.349650827523     0.997122819169415    -1.66473145913455    0.029154514175414    83.5046483951409     0.029154514175414    83.5046483951409     0.997122819169415    -1.66473145913455    
197.709509337041     0.997078246036602    -1.69548502827284    0.029691561582965    83.5056325694552     0.029691561582965    83.5056325694552     0.997078246036602    -1.69548502827284    
199.078785816789     0.997032875088236    -1.72631356511009    0.030229951702143    83.5047302344947     0.030229951702143    83.5047302344947     0.997032875088236    -1.72631356511009    
200.457545492788     0.996986697907712    -1.75721840822657    0.030769707042906    83.502024414946      0.030769707042906    83.502024414946      0.996986697907712    -1.75721840822657    
201.845854042799     0.996939705939621    -1.78820089735251    0.03131085021098     83.4975925420581     0.03131085021098     83.4975925420581     0.996939705939621    -1.78820089735251    
203.243777599445     0.996891890488431    -1.81926237337842    0.031853403902438    83.4915069036264     0.031853403902438    83.4915069036264     0.996891890488431    -1.81926237337842    
204.651382753366     0.996843242717158    -1.85040417836468    0.032397390898804    83.4838350512002     0.032397390898804    83.4838350512002     0.996843242717158    -1.85040417836468    
206.068736556385     0.99679375364601     -1.88162765554987    0.032942834062623    83.4746401691808     0.032942834062623    83.4746401691808     0.99679375364601     -1.88162765554987    
207.495906524709     0.996743414151026    -1.9129341493584     0.033489756333453    83.4639814099033     0.033489756333453    83.4639814099033     0.996743414151026    -1.9129341493584     
208.93296064214      0.996692214962679    -1.94432500540706    0.034038180724225    83.4519141983031     0.034038180724225    83.4519141983031     0.996692214962679    -1.94432500540706    
210.379967363316     0.996640146664483    -1.97580157051046    0.034588130317931    83.4384905093362     0.034588130317931    83.4384905093362     0.996640146664483    -1.97580157051046    
211.836995616972     0.996587199691567    -2.00736519268553    0.035139628264606    83.4237591209547     0.035139628264606    83.4237591209547     0.996587199691567    -2.00736519268553    
213.304114809222     0.99653336432924     -2.03901722115501    0.035692697778579    83.4077658451092     0.035692697778579    83.4077658451092     0.99653336432924     -2.03901722115501    
214.781394826864     0.996478630711534    -2.07075900634971    0.036247362135948    83.3905537389748     0.036247362135948    83.3905537389748     0.996478630711534    -2.07075900634971    
216.268906040715     0.996422988819739    -2.10259189990987    0.036803644672275    83.3721632983454     0.036803644672275    83.3721632983454     0.996422988819739    -2.10259189990987    
217.766719308955     0.996366428480899    -2.13451725468517    0.037361568780456    83.3526326349264     0.037361568780456    83.3526326349264     0.996366428480899    -2.13451725468517    
219.274905980508     0.99630893936632     -2.16653642473386    0.037921157908771    83.3319976390702     0.037921157908771    83.3319976390702     0.99630893936632     -2.16653642473386    
220.793537898439     0.996250510990041    -2.19865076532037    0.038482435559072    83.310292129326      0.038482435559072    83.310292129326      0.996250510990041    -2.19865076532037    
222.322687403379     0.99619113270729     -2.23086163291223    0.039045425285112    83.2875479900359     0.039045425285112    83.2875479900359     0.99619113270729     -2.23086163291223    
223.862427336963     0.996130793712928    -2.26317038517515    0.039610150690988    83.2637952980752     0.039610150690988    83.2637952980752     0.996130793712928    -2.26317038517515    
225.41283104531      0.996069483039876    -2.29557838096754    0.040176635429698    83.2390624397232     0.040176635429698    83.2390624397232     0.996069483039876    -2.29557838096754    
226.97397238251      0.996007189557518    -2.32808698033313    0.040744903201778    83.2133762185497     0.040744903201778    83.2133762185497     0.996007189557518    -2.32808698033313    
228.545925714144     0.995943901970097    -2.36069754449274    0.041314977754042    83.1867619551113     0.041314977754042    83.1867619551113     0.995943901970097    -2.36069754449274    
230.128765920828     0.995879608815082    -2.3934114358346     0.041886882878383    83.1592435791746     0.041886882878383    83.1592435791746     0.995879608815082    -2.3934114358346     
231.722568401777     0.99581429846153     -2.42623001790327    0.042460642410642    83.1308437151117     0.042460642410642    83.1308437151117     0.99581429846153     -2.42623001790327    
233.327409078399     0.995747959108422    -2.45915465538722    0.043036280229544    83.1015837610488     0.043036280229544    83.1015837610488     0.995747959108422    -2.45915465538722    
234.943364397912     0.995680578782988    -2.49218671410515    0.043613820255675    83.0714839622967     0.043613820255675    83.0714839622967     0.995680578782988    -2.49218671410515    
236.570511336981     0.995612145339013    -2.52532756099058    0.044193286450508    83.0405634795373     0.044193286450508    83.0405634795373     0.995612145339013    -2.52532756099058    
238.208927405392     0.995542646455125    -2.5585785640754     0.044774702815471    83.0088404521996     0.044774702815471    83.0088404521996     0.995542646455125    -2.5585785640754     
239.858690649739     0.995472069633069    -2.5919410924716     0.045358093391044    82.9763320574147     0.045358093391044    82.9763320574147     0.995472069633069    -2.5919410924716     
241.519879657141     0.995400402195962    -2.62541651635158    0.045943482255886    82.9430545649074     0.045943482255886    82.9430545649074     0.995400402195962    -2.62541651635158    
243.192573558991     0.995327631286533    -2.65900620692707    0.04653089352599     82.9090233881457     0.04653089352599     82.9090233881457     0.995327631286533    -2.65900620692707    
244.876852034721     0.99525374386535     -2.69271153642636    0.047120351353854    82.874253132044      0.047120351353854    82.874253132044      0.99525374386535     -2.69271153642636    
246.572795315598     0.995178726709024    -2.72653387806984    0.047711879927665    82.8387576374866     0.047711879927665    82.8387576374866     0.995178726709024    -2.72653387806984    
248.280484188547     0.995102566408398    -2.76047460604413    0.048305503470505    82.8025500229176     0.048305503470505    82.8025500229176     0.995102566408398    -2.76047460604413    
250                  0.99502524936673     -2.79453509547442    0.048901246239562    82.7656427232194     0.048901246239562    82.7656427232194     0.99502524936673     -2.79453509547442    
