# MHz S MA R 50      
!Freq                MagS11               AngS11               MagS21               AngS21               MagS12               AngS12               MagS22               AngS22               
1                    0.010051341498789    47.2055808286287     0.993198808434796    -0.425490460235095   0.993198808434796    -0.425490460235095   0.010051341498789    47.2055808286287     
1.0094134579211      0.01010839269806     47.4350086471053     0.993190323545895    -0.429492205734591   0.993190323545895    -0.429492205734591   0.01010839269806     47.4350086471053     
1.01891552903223     0.010166123254457    47.6640900306197     0.993181791602547    -0.433531568642999   0.993181791602547    -0.433531568642999   0.010166123254457    47.6640900306197     
1.02850704748993     0.010224540046928    47.8928093863387     0.993173212246476    -0.437608902263874   0.993173212246476    -0.437608902263874   0.010224540046928    47.8928093863387     
1.03818885530303     0.010283650004365    48.1211512335269     0.993164585115112    -0.441724563213502   0.993164585115112    -0.441724563213502   0.010283650004365    48.1211512335269     
1.04796180240658     0.01034346010598     48.3491002081249     0.99315590984156     -0.44587891145185    0.99315590984156     -0.44587891145185    0.01034346010598     48.3491002081249     
1.05782674673645     0.010403977381699    48.5766410672321     0.993147186054489    -0.45007231031381    0.993147186054489    -0.45007231031381    0.010403977381699    48.5766410672321     
1.06778455430467     0.010465208912553    48.8037586934876     0.99313841337807     -0.454305126540707   0.99313841337807     -0.454305126540707   0.010465208912553    48.8037586934876     
1.07783609927541     0.010527161831096    49.0304380993515     0.99312959143192     -0.458577730312142   0.99312959143192     -0.458577730312142   0.010527161831096    49.0304380993515     
1.08798226404179     0.010589843321821    49.2566644312791     0.993120719830981    -0.462890495278082   0.993120719830981    -0.462890495278082   0.010589843321821    49.2566644312791     
1.09822393930324     0.010653260621591    49.4824229737879     0.993111798185518    -0.467243798591288   0.993111798185518    -0.467243798591288   0.010653260621591    49.4824229737879     
1.10856202414382     0.010717421020084    49.7076991534149     0.993102826100984    -0.471638020940024   0.993102826100984    -0.471638020940024   0.010717421020084    49.7076991534149     
1.11899742611102     0.010782331860243    49.9324785425615     0.993093803177951    -0.476073546581065   0.993093803177951    -0.476073546581065   0.010782331860243    49.9324785425615     
1.12953106129554     0.010848000538737    50.1567468632229     0.993084729012046    -0.48055076337302    0.993084729012046    -0.48055076337302    0.010848000538737    50.1567468632229     
1.14016385441162     0.010914434506443    50.3804899906024     0.993075603193862    -0.48507006280996    0.993075603193862    -0.48507006280996    0.010914434506443    50.3804899906024     
1.15089673887828     0.010981641268924    50.6036939566061     0.993066425308876    -0.489631840055358   0.993066425308876    -0.489631840055358   0.010981641268924    50.6036939566061     
1.16173065690124     0.011049628386928    50.8263449532184     0.993057194937366    -0.494236493976322   0.993057194937366    -0.494236493976322   0.011049628386928    50.8263449532184     
1.17266655955563     0.011118403476898    51.0484293357563     0.993047911654305    -0.498884427178191   0.993047911654305    -0.498884427178191   0.011118403476898    51.0484293357563     
1.18370540686949     0.011187974211488    51.2699336260002     0.993038575029303    -0.503576046039397   0.993038575029303    -0.503576046039397   0.011187974211488    51.2699336260002     
1.19484816790803     0.011258348320092    51.490844515201      0.993029184626515    -0.508311760746704   0.993029184626515    -0.508311760746704   0.011258348320092    51.490844515201      
1.20609582085873     0.011329533589391    51.7111488669626     0.993019740004531    -0.513091985330712   0.993019740004531    -0.513091985330712   0.011329533589391    51.7111488669626     
1.2174493531172      0.011401537863899    51.9308337199973     0.993010240716306    -0.517917137701736   0.993010240716306    -0.517917137701736   0.011401537863899    51.9308337199973     
1.22890976137384     0.01147436904653     52.1498862907573     0.993000686309021    -0.522787639685987   0.993000686309021    -0.522787639685987   0.01147436904653     52.1498862907573     
1.24047805170136     0.011548035099173    52.3682939759353     0.992991076324074    -0.527703917062137   0.992991076324074    -0.527703917062137   0.011548035099173    52.3682939759353     
1.2521552396431      0.011622544043279    52.5860443548406     0.992981410296884    -0.532666399598122   0.992981410296884    -0.532666399598122   0.011622544043279    52.5860443548406     
1.26394235030216     0.011697903960456    52.8031251916462     0.992971687756858    -0.537675521088399   0.992971687756858    -0.537675521088399   0.011697903960456    52.8031251916462     
1.27584041843143     0.011774122993084    53.019524437508      0.992961908227254    -0.54273171939146    0.992961908227254    -0.54273171939146    0.011774122993084    53.019524437508      
1.28785048852437     0.011851209344928    53.2352302325557     0.992952071225124    -0.547835436467751   0.992952071225124    -0.547835436467751   0.011851209344928    53.2352302325557     
1.29997361490676     0.011929171281777    53.4502309077572     0.992942176261156    -0.552987118417902   0.992942176261156    -0.552987118417902   0.011929171281777    53.4502309077572     
1.31221086182922     0.012008017132081    53.6645149866539     0.992932222839589    -0.558187215521303   0.992932222839589    -0.558187215521303   0.012008017132081    53.6645149866539     
1.32456330356066     0.01208775528761     53.8780711869705     0.992922210458106    -0.563436182275082   0.992922210458106    -0.563436182275082   0.01208775528761     53.8780711869705     
1.33703202448256     0.01216839420412     54.0908884220971     0.992912138607737    -0.568734477433406   0.992912138607737    -0.568734477433406   0.01216839420412     54.0908884220971     
1.34961811918419     0.012249942402026    54.3029558024471     0.992902006772716    -0.574082564047135   0.992902006772716    -0.574082564047135   0.012249942402026    54.3029558024471     
1.36232269255868     0.012332408467096    54.5142626366878     0.992891814430411    -0.579480909503881   0.992891814430411    -0.579480909503881   0.012332408467096    54.5142626366878     
1.37514685990004     0.012415801051146    54.7247984328506     0.992881561051134    -0.584929985568388   0.992881561051134    -0.584929985568388   0.012415801051146    54.7247984328506     
1.38809174700104     0.012500128872752    54.9345528993141     0.992871246098116    -0.59043026842331    0.992871246098116    -0.59043026842331    0.012500128872752    54.9345528993141     
1.40115849025206     0.012585400717976    55.1435159456691     0.9928608690273      -0.595982238710369   0.9928608690273      -0.595982238710369   0.012585400717976    55.1435159456691     
1.41434823674084     0.012671625441094    55.3516776834611     0.992850429287283    -0.601586381571879   0.992850429287283    -0.601586381571879   0.012671625441094    55.3516776834611     
1.42766214435318     0.012758811965344    55.5590284268149     0.992839926319155    -0.607243186692654   0.992839926319155    -0.607243186692654   0.012758811965344    55.5590284268149     
1.44110138187459     0.012846969283679    55.7655586929407     0.992829359556356    -0.612953148342278   0.992829359556356    -0.612953148342278   0.012846969283679    55.7655586929407     
1.45466712909291     0.012936106459537    55.9712592025245     0.99281872842461     -0.618716765417808   0.99281872842461     -0.618716765417808   0.012936106459537    55.9712592025245     
1.46836057690183     0.013026232627616    56.176120880006      0.992808032341727    -0.62453454148686    0.992808032341727    -0.62453454148686    0.013026232627616    56.176120880006      
1.48218292740549     0.013117356994663    56.3801348537408     0.992797270717487    -0.630406984831032   0.992797270717487    -0.630406984831032   0.013117356994663    56.3801348537408     
1.496135394024       0.013209488840272    56.583292456054      0.992786442953542    -0.636334608489806   0.992786442953542    -0.636334608489806   0.013209488840272    56.583292456054      
1.51021920159991     0.0133026375177      56.7855852231855     0.99277554844321     -0.642317930304785   0.99277554844321     -0.642317930304785   0.0133026375177      56.7855852231855     
1.5244355865058      0.013396812454682    56.9870048951279     0.992764586571363    -0.648357472964379   0.992764586571363    -0.648357472964379   0.013396812454682    56.9870048951279     
1.5387857967528      0.013492023154267    57.1875434153596     0.992753556714326    -0.654453764048922   0.992753556714326    -0.654453764048922   0.013492023154267    57.1875434153596     
1.55327109210012     0.013588279195656    57.3871929304739     0.99274245823964     -0.660607336076067   0.99274245823964     -0.660607336076067   0.013588279195656    57.3871929304739     
1.56789274416566     0.013685590235064    57.5859457897122     0.992731290505997    -0.666818726546806   0.992731290505997    -0.666818726546806   0.013685590235064    57.5859457897122     
1.58265203653766     0.013783966006575    57.7837945443949     0.992720052863017    -0.673088477991709   0.992720052863017    -0.673088477991709   0.013783966006575    57.7837945443949     
1.59755026488735     0.013883416323022    57.9807319472586     0.992708744651148    -0.679417138017748   0.992708744651148    -0.679417138017748   0.013883416323022    57.9807319472586     
1.61258873708271     0.013983951076872    58.1767509516985     0.992697365201475    -0.685805259355405   0.992697365201475    -0.685805259355405   0.013983951076872    58.1767509516985     
1.62776877330328     0.014085580241119    58.371844710922      0.992685913835558    -0.692253399906325   0.992685913835558    -0.692253399906325   0.014085580241119    58.371844710922      
1.64309170615604     0.014188313870193    58.5660065770123     0.992674389865304    -0.698762122791379   0.992674389865304    -0.698762122791379   0.014188313870193    58.5660065770123     
1.65855888079245     0.014292162100876    58.7592300999037     0.992662792592749    -0.705331996399084   0.992662792592749    -0.705331996399084   0.014292162100876    58.7592300999037     
1.67417165502646     0.014397135153228    58.9515090262796     0.992651121309904    -0.71196359443455    0.992651121309904    -0.71196359443455    0.014397135153228    58.9515090262796     
1.68993139945374     0.014503243331525    59.1428372983816     0.992639375298616    -0.718657495968898   0.992639375298616    -0.718657495968898   0.014503243331525    59.1428372983816     
1.70583949757205     0.014610497025206    59.333209052746      0.992627553830321    -0.725414285488982   0.992627553830321    -0.725414285488982   0.014610497025206    59.333209052746      
1.72189734590259     0.014718906709831    59.5226186188606     0.992615656165939    -0.732234552947747   0.992615656165939    -0.732234552947747   0.014718906709831    59.5226186188606     
1.73810635411269     0.01482848294805     59.711060517751      0.992603681555645    -0.739118893814923   0.992603681555645    -0.739118893814923   0.01482848294805     59.711060517751      
1.75446794513953     0.014939236390579    59.8985294604926     0.992591629238684    -0.7460679091282     0.992591629238684    -0.7460679091282     0.014939236390579    59.8985294604926     
1.77098355531502     0.01505117777719     60.0850203466577     0.992579498443201    -0.753082205544914   0.992579498443201    -0.753082205544914   0.01505117777719     60.0850203466577     
1.78765463449193     0.015164317937705    60.2705282626936     0.992567288386028    -0.760162395394125   0.992567288386028    -0.760162395394125   0.015164317937705    60.2705282626936     
1.80448264617118     0.015278667793011    60.4550484802406     0.992554998272501    -0.767309096729298   0.992554998272501    -0.767309096729298   0.015278667793011    60.4550484802406     
1.82146906763026     0.015394238356072    60.638576454387      0.992542627296229    -0.774522933381243   0.992542627296229    -0.774522933381243   0.015394238356072    60.638576454387      
1.83861539005299     0.015511040732959    60.8211078218674     0.99253017463895     -0.781804535011832   0.99253017463895     -0.781804535011832   0.015511040732959    60.8211078218674     
1.85592311866033     0.015629086123887    61.0026383992032     0.992517639470237    -0.789154537167865   0.992517639470237    -0.789154537167865   0.015629086123887    61.0026383992032     
1.87339377284264     0.015748385824266    61.183164180795      0.992505020947378    -0.796573581335772   0.992505020947378    -0.796573581335772   0.015748385824266    61.183164180795      
1.89102888629294     0.015868951225752    61.362681336959      0.992492318215079    -0.804062314996496   0.992492318215079    -0.804062314996496   0.015868951225752    61.362681336959      
1.90883000714164     0.015990793817322    61.5411862119184     0.992479530405301    -0.811621391681086   0.992479530405301    -0.811621391681086   0.015990793817322    61.5411862119184     
1.9267986980924      0.016113925186341    61.7186753217482     0.992466656636991    -0.819251471026676   0.992466656636991    -0.819251471026676   0.016113925186341    61.7186753217482     
1.94493653655932     0.016238357019661    61.8951453522792     0.992453696015894    -0.826953218833066   0.992453696015894    -0.826953218833066   0.016238357019661    61.8951453522792     
1.96324511480543     0.016364101104705    62.0705931569568     0.992440647634299    -0.83472730711971    0.992440647634299    -0.83472730711971    0.016364101104705    62.0705931569568     
1.98172604008245     0.016491169330581    62.2450157546671     0.992427510570787    -0.842574414183281   0.992427510570787    -0.842574414183281   0.016491169330581    62.2450157546671     
2.00038093477192     0.016619573689195    62.4184103275218     0.992414283890038    -0.850495224655754   0.992414283890038    -0.850495224655754   0.016619573689195    62.4184103275218     
2.01921143652756     0.016749326276376    62.5907742186139     0.992400966642512    -0.858490429562964   0.992400966642512    -0.858490429562964   0.016749326276376    62.5907742186139     
2.03821919841911     0.01688043929301     62.7621049297388     0.992387557864286    -0.866560726383781   0.992387557864286    -0.866560726383781   0.01688043929301     62.7621049297388     
2.05740588907741     0.017012925046186    62.9324001190893     0.992374056576711    -0.874706819109701   0.992374056576711    -0.874706819109701   0.017012925046186    62.9324001190893     
2.07677319284086     0.017146795950349    63.1016575989197     0.992360461786223    -0.882929418305061   0.992360461786223    -0.882929418305061   0.017146795950349    63.1016575989197     
2.09632280990333     0.017282064528464    63.2698753331907     0.992346772484046    -0.8912292411678     0.992346772484046    -0.8912292411678     0.017282064528464    63.2698753331907     
2.1160564564634      0.017418743413188    63.4370514351861     0.992332987645908    -0.89960701159064    0.992332987645908    -0.89960701159064    0.017418743413188    63.4370514351861     
2.13597586487499     0.017556845348053    63.6031841651141     0.992319106231806    -0.908063460223008   0.992319106231806    -0.908063460223008   0.017556845348053    63.6031841651141     
2.15608278379947     0.01769638318866     63.7682719276855     0.992305127185694    -0.916599324533346   0.992305127185694    -0.916599324533346   0.01769638318866     63.7682719276855     
2.17637897835917     0.017837369903877    63.9323132696795     0.992291049435221    -0.925215348872063   0.992291049435221    -0.925215348872063   0.017837369903877    63.9323132696795     
2.19686623029232     0.017979818577051    64.0953068774922     0.992276871891413    -0.933912284535017   0.992276871891413    -0.933912284535017   0.017979818577051    64.0953068774922     
2.21754633810946     0.018123742407231    64.2572515746747     0.992262593448418    -0.942690889827618   0.992262593448418    -0.942690889827618   0.018123742407231    64.2572515746747     
2.23842111725134     0.018269154710398    64.4181463194582     0.992248212983145    -0.951551930129383   0.992248212983145    -0.951551930129383   0.018269154710398    64.4181463194582     
2.25949240024828     0.018416068920702    64.5779902022725     0.992233729355042    -0.960496177959252   0.992233729355042    -0.960496177959252   0.018416068920702    64.5779902022725     
2.28076203688106     0.018564498591713    64.7367824432556     0.992219141405708    -0.969524413041282   0.992219141405708    -0.969524413041282   0.018564498591713    64.7367824432556     
2.30223189434328     0.018714457397678    64.8945223897586     0.992204447958607    -0.978637422371059   0.992204447958607    -0.978637422371059   0.018714457397678    64.8945223897586     
2.3239038574053      0.018865959134794    65.0512095138471     0.992189647818743    -0.987836000282679   0.992189647818743    -0.987836000282679   0.018865959134794    65.0512095138471     
2.34577982857966     0.019019017722481    65.2068434098002     0.992174739772335    -0.997120948516313   0.992174739772335    -0.997120948516313   0.019019017722481    65.2068434098002     
2.36786172828816     0.019173647204673    65.3614237916079     0.992159722586478    -1.00649307628632    0.992159722586478    -1.00649307628632    0.019173647204673    65.3614237916079     
2.39015149503038     0.019329861751114    65.5149504904716     0.992144595008787    -1.01595320035003    0.992144595008787    -1.01595320035003    0.019329861751114    65.5149504904716     
2.4126510855539      0.019487675658662    65.667423452305      0.992129355767086    -1.0255021450772     0.992129355767086    -1.0255021450772     0.019487675658662    65.667423452305      
2.43536247502605     0.019647103352612    65.8188427352396     0.992114003568988    -1.03514074251983    0.992114003568988    -1.03514074251983    0.019647103352612    65.8188427352396     
2.45828765720733     0.019808159388016    65.9692085071353     0.992098537101625    -1.04486983248293    0.992098537101625    -1.04486983248293    0.019808159388016    65.9692085071353     
2.48142864462641     0.019970858451024    66.1185210430978     0.992082955031197    -1.05469026259568    0.992082955031197    -1.05469026259568    0.019970858451024    66.1185210430978     
2.50478746875681     0.020135215360225    66.2667807230033     0.992067256002636    -1.06460288838326    0.992067256002636    -1.06460288838326    0.020135215360225    66.2667807230033     
2.52836618019525     0.020301245068006    66.4139880290322     0.99205143863923     -1.07460857333939    0.99205143863923     -1.07460857333939    0.020301245068006    66.4139880290322     
2.55216684884165     0.020468962661914    66.5601435432126     0.992035501542217    -1.08470818899943    0.992035501542217    -1.08470818899943    0.020468962661914    66.5601435432126     
2.57619156408084     0.020638383366038    66.7052479449771     0.992019443290416    -1.09490261501416    0.992019443290416    -1.09490261501416    0.020638383366038    66.7052479449771     
2.60044243496601     0.020809522542383    66.8493020087282     0.99200326243977     -1.10519273922415    0.99200326243977     -1.10519273922415    0.020809522542383    66.8493020087282     
2.6249215904038      0.020982395692277    66.9923066014214     0.991986957522994    -1.1155794577349     0.991986957522994    -1.1155794577349     0.020982395692277    66.9923066014214     
2.64963117934125     0.021157018457766    67.1342626801593     0.991970527049152    -1.12606367499254    0.991970527049152    -1.12606367499254    0.021157018457766    67.1342626801593     
2.67457337095441     0.021333406623035    67.2751712898023     0.991953969503177    -1.13664630386017    0.991953969503177    -1.13664630386017    0.021333406623035    67.2751712898023     
2.69975035483878     0.021511576115831    67.4150335605961     0.991937283345501    -1.14732826569494    0.991937283345501    -1.14732826569494    0.021511576115831    67.4150335605961     
2.72516434120153     0.021691543008898    67.5538507058151     0.991920467011578    -1.15811049042583    0.991920467011578    -1.15811049042583    0.021691543008898    67.5538507058151     
2.75081756105551     0.021873323521421    67.6916240194241     0.991903518911452    -1.16899391663195    0.991903518911452    -1.16899391663195    0.021873323521421    67.6916240194241     
2.77671226641512     0.022056934020484    67.8283548737596     0.991886437429285    -1.17997949162171    0.991886437429285    -1.17997949162171    0.022056934020484    67.8283548737596     
2.80285073049402     0.022242391022533    67.9640447172284     0.991869220922906    -1.19106817151253    0.991869220922906    -1.19106817151253    0.022242391022533    67.9640447172284     
2.82923524790465     0.022429711194854    68.0986950720283     0.991851867723319    -1.20226092131133    0.991851867723319    -1.20226092131133    0.022429711194854    68.0986950720283     
2.85586813485969     0.022618911357057    68.2323075318885     0.991834376134226    -1.21355871499566    0.991834376134226    -1.21355871499566    0.022618911357057    68.2323075318885     
2.8827517293754      0.022810008482573    68.3648837598313     0.991816744431554    -1.22496253559561    0.991816744431554    -1.22496253559561    0.022810008482573    68.3648837598313     
2.90988839147685     0.023003019700164    68.4964254859556     0.991798970862928    -1.23647337527631    0.991798970862928    -1.23647337527631    0.023003019700164    68.4964254859556     
2.93728050340511     0.023197962295436    68.6269345052438     0.991781053647154    -1.24809223542122    0.991781053647154    -1.24809223542122    0.023197962295436    68.6269345052438     
2.96493046982638     0.023394853712369    68.75641267539       0.991762990973755    -1.25982012671619    0.991762990973755    -1.25982012671619    0.023394853712369    68.75641267539       
2.99284071804307     0.023593711554854    68.8848619146528     0.991744781002349    -1.27165806923404    0.991744781002349    -1.27165806923404    0.023593711554854    68.8848619146528     
3.02101369820692     0.023794553588246    69.0122841997314     0.991726421862204    -1.2836070925201     0.991726421862204    -1.2836070925201     0.023794553588246    69.0122841997314     
3.04945188353406     0.023997397740919    69.1386815636657     0.991707911651634    -1.29566823567837    0.991707911651634    -1.29566823567837    0.023997397740919    69.1386815636657     
3.07815777052212     0.024202262105839    69.264056093762      0.991689248437434    -1.30784254745836    0.991689248437434    -1.30784254745836    0.024202262105839    69.264056093762      
3.10713387916943     0.024409164942147    69.3884099295417     0.991670430254348    -1.32013108634282    0.991670430254348    -1.32013108634282    0.024409164942147    69.3884099295417     
3.13638275319622     0.024618124676745    69.5117452607166     0.991651455104472    -1.33253492063604    0.991651455104472    -1.33253492063604    0.024618124676745    69.5117452607166     
3.16590696026789     0.024829159905907    69.6340643251896     0.991632320956639    -1.34505512855305    0.991632320956639    -1.34505512855305    0.024829159905907    69.6340643251896     
3.19570909222048     0.025042289396886    69.7553694070803     0.991613025745863    -1.35769279830955    0.991613025745863    -1.35769279830955    0.025042289396886    69.7553694070803     
3.22579176528817     0.025257532089546    69.8756628347769     0.991593567372672    -1.37044902821243    0.991593567372672    -1.37044902821243    0.025257532089546    69.8756628347769     
3.25615762033294     0.025474907097991    69.9949469790142     0.991573943702558    -1.38332492675137    0.991573943702558    -1.38332492675137    0.025474907097991    69.9949469790142     
3.28680932307641     0.025694433712215    70.1132242509777     0.991554152565237    -1.39632161269086    0.991554152565237    -1.39632161269086    0.025694433712215    70.1132242509777     
3.31774956433387     0.025916131399765    70.230497100434      0.991534191754122    -1.40944021516331    0.991534191754122    -1.40944021516331    0.025916131399765    70.230497100434      
3.34898106025047     0.026140019807401    70.346768013888      0.99151405902557     -1.42268187376272    0.99151405902557     -1.42268187376272    0.026140019807401    70.346768013888      
3.38050655253969     0.026366118762786    70.462039512766      0.991493752098234    -1.43604773863918    0.991493752098234    -1.43604773863918    0.026366118762786    70.462039512766      
3.41232880872402     0.026594448276174    70.5763141516262     0.991473268652438    -1.44953897059433    0.991473268652438    -1.44953897059433    0.026594448276174    70.5763141516262     
3.4444506223779      0.026825028542112    70.6895945163947     0.991452606329374    -1.46315674117727    0.991452606329374    -1.46315674117727    0.026825028542112    70.6895945163947     
3.47687481337296     0.027057879941158    70.8018832226295     0.9914317627305      -1.47690223278167    0.9914317627305      -1.47690223278167    0.027057879941158    70.8018832226295     
3.50960422812557     0.027293023041609    70.9131829138102     0.991410735416742    -1.49077663874336    0.991410735416742    -1.49077663874336    0.027293023041609    70.9131829138102     
3.54264173984674     0.027530478601234    71.0234962596545     0.991389521907788    -1.5047811634389     0.991389521907788    -1.5047811634389     0.027530478601234    71.0234962596545     
3.57599024879432     0.027770267569027    71.1328259544611     0.991368119681356    -1.51891702238489    0.991368119681356    -1.51891702238489    0.027770267569027    71.1328259544611     
3.6096526825276      0.028012411086967    71.2411747154806     0.991346526172407    -1.53318544233823    0.991346526172407    -1.53318544233823    0.028012411086967    71.2411747154806     
3.64363199616436     0.028256930491794    71.3485452813101     0.991324738772361    -1.54758766139692    0.991324738772361    -1.54758766139692    0.028256930491794    71.3485452813101     
3.67793117264022     0.028503847316788    71.4549404103166     0.991302754828331    -1.56212492910199    0.991302754828331    -1.56212492910199    0.028503847316788    71.4549404103166     
3.71255322297057     0.028753183293572    71.5603628790854     0.991280571642313    -1.57679850654012    0.991280571642313    -1.57679850654012    0.028753183293572    71.5603628790854     
3.74750118651484     0.029004960353914    71.6648154808951     0.991258186470362    -1.5916096664471     0.991258186470362    -1.5916096664471     0.029004960353914    71.6648154808951     
3.78277813124337     0.029259200631553    71.7683010242185     0.991235596521743    -1.60655969331209    0.991235596521743    -1.60655969331209    0.029259200631553    71.7683010242185     
3.81838715400668     0.029515926464028    71.8708223312492     0.991212798958112    -1.62164988348285    0.991212798958112    -1.62164988348285    0.029515926464028    71.8708223312492     
3.85433138080739     0.029775160394519    71.9723822364538     0.991189790892606    -1.63688154527168    0.991189790892606    -1.63688154527168    0.029775160394519    71.9723822364538     
3.89061396707459     0.03003692517371     72.0729835851499     0.991166569389009    -1.65225599906232    0.991166569389009    -1.65225599906232    0.03003692517371     72.0729835851499     
3.92723809794088     0.030301243761652    72.1726292321094     0.991143131460834    -1.66777457741764    0.991143131460834    -1.66777457741764    0.030301243761652    72.1726292321094     
3.96420698852199     0.030568139329644    72.2713220401864     0.991119474070405    -1.68343862518823    0.991119474070405    -1.68343862518823    0.030568139329644    72.2713220401864     
4.00152388419897     0.030837635262123    72.3690648789708     0.991095594127905    -1.69924949962173    0.991095594127905    -1.69924949962173    0.030837635262123    72.3690648789708     
4.03919206090314     0.031109755158576    72.465860623466      0.991071488490498    -1.71520857047336    0.991071488490498    -1.71520857047336    0.031109755158576    72.465860623466      
4.07721482540369     0.031384522835444    72.5617121527911     0.991047153961275    -1.73131722011684    0.991047153961275    -1.73131722011684    0.031384522835444    72.5617121527911     
4.11559551559791     0.031661962328061    72.6566223489079     0.99102258728834     -1.74757684365662    0.99102258728834     -1.74757684365662    0.031661962328061    72.6566223489079     
4.15433750080425     0.031942097892589    72.7505940953708     0.990997785163769    -1.76398884904073    0.990997785163769    -1.76398884904073    0.031942097892589    72.7505940953708     
4.19344418205812     0.032224954007974    72.843630276102      0.990972744222623    -1.78055465717465    0.990972744222623    -1.78055465717465    0.032224954007974    72.843630276102      
4.2329189924104      0.032510555377904    72.9357337741883     0.990947461041877    -1.79727570203592    0.990947461041877    -1.79727570203592    0.032510555377904    72.9357337741883     
4.27276539722888     0.032798926932797    73.0269074707031     0.990921932139371    -1.81415343078982    0.990921932139371    -1.81415343078982    0.032798926932797    73.0269074707031     
4.31298689450242     0.033090093831782    73.1171542435499     0.990896153972778    -1.83118930390588    0.990896153972778    -1.83118930390588    0.033090093831782    73.1171542435499     
4.35358701514807     0.0333840814647      73.2064769663287     0.990870122938431    -1.84838479527513    0.990870122938431    -1.84838479527513    0.0333840814647      73.2064769663287     
4.39456932332101     0.033680915454124    73.2948785072256     0.990843835370288    -1.86574139232849    0.990843835370288    -1.86574139232849    0.033680915454124    73.2948785072256     
4.43593741672744     0.033980621657379    73.382361727924      0.990817287538724    -1.88326059615596    0.990817287538724    -1.88326059615596    0.033980621657379    73.382361727924      
4.47769492694043     0.034283226168582    73.4689294825372     0.990790475649436    -1.90094392162663    0.990790475649436    -1.90094392162663    0.034283226168582    73.4689294825372     
4.5198455197187      0.034588755320693    73.5545846165633     0.990763395842224    -1.91879289750973    0.990763395842224    -1.91879289750973    0.034588755320693    73.5545846165633     
4.56239289532844     0.034897235687576    73.6393299658611     0.990736044189805    -1.93680906659655    0.990736044189805    -1.93680906659655    0.034897235687576    73.6393299658611     
4.60534078886814     0.035208694086073    73.7231683556466     0.990708416696612    -1.95499398582322    0.990708416696612    -1.95499398582322    0.035208694086073    73.7231683556466     
4.64869297059647     0.035523157578092    73.8061025995109     0.990680509297506    -1.9733492263945     0.990680509297506    -1.9733492263945     0.035523157578092    73.8061025995109     
4.69245324626329     0.035840653472704    73.8881354984578     0.990652317856564    -1.99187637390838    0.990652317856564    -1.99187637390838    0.035840653472704    73.8881354984578     
4.73662545744371     0.036161209328255    73.9692698399616     0.99062383816576     -2.01057702848168    0.99062383816576     -2.01057702848168    0.036161209328255    73.9692698399616     
4.78121348187536     0.036484852954487    74.0495083970449     0.990595065943636    -2.02945280487651    0.990595065943636    -2.02945280487651    0.036484852954487    74.0495083970449     
4.82622123379879     0.036811612414673    74.1288539273757     0.990565996834014    -2.04850533262777    0.990565996834014    -2.04850533262777    0.036811612414673    74.1288539273757     
4.87165266430106     0.037141516027764    74.2073091723835     0.990536626404618    -2.06773625617143    0.990536626404618    -2.06773625617143    0.037141516027764    74.2073091723835     
4.91751176166267     0.037474592370547    74.2848768563945     0.990506950145655    -2.08714723497374    0.990506950145655    -2.08714723497374    0.037474592370547    74.2848768563945     
4.96380255170759     0.037810870279813    74.3615596857851     0.990476963468451    -2.10673994366155    0.990476963468451    -2.10673994366155    0.037810870279813    74.3615596857851     
5.01052909815674     0.038150378854541    74.4373603481543     0.990446661704007    -2.12651607215337    0.990446661704007    -2.12651607215337    0.038150378854541    74.4373603481543     
5.05769550298468     0.038493147458089    74.5122815115125     0.990416040101515    -2.14647732579135    0.990416040101515    -2.14647732579135    0.038493147458089    74.5122815115125     
5.10530590677975     0.038839205720402    74.5863258234894     0.9903850938269      -2.16662542547438    0.9903850938269      -2.16662542547438    0.038839205720402    74.5863258234894     
5.15336448910756     0.039188583540224    74.6594959105588     0.99035381796129     -2.18696210779191    0.99035381796129     -2.18696210779191    0.039188583540224    74.6594959105588     
5.20187546887786     0.039541311087327    74.7317943772802     0.990322207499479    -2.20748912515882    0.990322207499479    -2.20748912515882    0.039541311087327    74.7317943772802     
5.25084310471494     0.039897418804751    74.8032238055568     0.990290257348344    -2.22820824595115    0.990290257348344    -2.22820824595115    0.039897418804751    74.8032238055568     
5.30027169533146     0.040256937411053    74.8737867539111     0.990257962325284    -2.24912125464284    0.990257962325284    -2.24912125464284    0.040256937411053    74.8737867539111     
5.35016557990586     0.040619897902566    74.9434857567747     0.990225317156556    -2.27022995194326    0.990225317156556    -2.27022995194326    0.040619897902566    74.9434857567747     
5.40052913846321     0.040986331555672    75.0123233237962     0.990192316475644    -2.2915361549359     0.990192316475644    -2.2915361549359     0.040986331555672    75.0123233237962     
5.45136679225981     0.041356269929086    75.0803019391621     0.990158954821572    -2.3130416972177     0.990158954821572    -2.3130416972177     0.041356269929086    75.0803019391621     
5.50268300417122     0.041729744866145    75.1474240609358     0.99012522663716     -2.33474842903946    0.99012522663716     -2.33474842903946    0.041729744866145    75.1474240609358     
5.55448227908413     0.042106788497113    75.2136921204082     0.990091126267317    -2.3566582174472     0.990091126267317    -2.3566582174472     0.042106788497113    75.2136921204082     
5.60676916429178     0.042487433241499    75.2791085214659     0.990056647957245    -2.37877294642444    0.990056647957245    -2.37877294642444    0.042487433241499    75.2791085214659     
5.65954824989316     0.042871711810371    75.3436756399718     0.990021785850636    -2.40109451703518    0.990021785850636    -2.40109451703518    0.042871711810371    75.3436756399718     
5.71282416919595     0.0432596572087      75.4073958231609     0.989986533987828    -2.42362484756816    0.989986533987828    -2.42362484756816    0.0432596572087      75.4073958231609     
5.76660159912332     0.043651302737695    75.4702713890492     0.989950886303921    -2.44636587368168    0.989950886303921    -2.44636587368168    0.043651302737695    75.4702713890492     
5.82088526062441     0.04404668199716     75.5323046258564     0.989914836626878    -2.46931954854954    0.989914836626878    -2.46931954854954    0.04404668199716     75.5323046258564     
5.87567991908884     0.044445828887856    75.5934977914416     0.9898783786756      -2.49248784300787    0.9898783786756      -2.49248784300787    0.044445828887856    75.5934977914416     
5.93099038476502     0.04484877761387     75.6538531127522     0.989841506057916    -2.51587274570275    0.989841506057916    -2.51587274570275    0.04484877761387     75.6538531127522     
5.98682151318245     0.045255562684998    75.7133727852853     0.989804212268599    -2.5394762632388     0.989804212268599    -2.5394762632388     0.045255562684998    75.7133727852853     
6.04317820557792     0.045666218919127    75.7720589725617     0.989766490687282    -2.56330042032863    0.989766490687282    -2.56330042032863    0.045666218919127    75.7720589725617     
6.10006540932584     0.046080781444643    75.8299138056115     0.989728334576449    -2.58734725994331    0.989728334576449    -2.58734725994331    0.046080781444643    75.8299138056115     
6.15748811837248     0.046499285702826    75.886939382473      0.989689737079222    -2.61161884346344    0.989689737079222    -2.61161884346344    0.046499285702826    75.886939382473      
6.21545137367444     0.046921767450265    75.9431377677005     0.989650691217253    -2.63611725083129    0.989650691217253    -2.63611725083129    0.046921767450265    75.9431377677005     
6.27396026364116     0.04734826276128     75.9985109918872     0.98961118988853     -2.66084458070391    0.98961118988853     -2.66084458070391    0.04734826276128     75.9985109918872     
6.33301992458159     0.047778808030351    76.0530610511955     0.989571225865128    -2.68580295060677    0.989571225865128    -2.68580295060677    0.047778808030351    76.0530610511955     
6.39263554115512     0.048213439974547    76.1067899069009     0.989530791790927    -2.71099449708856    0.989530791790927    -2.71099449708856    0.048213439974547    76.1067899069009     
6.45281234682671     0.04865219563597     76.1596994849452     0.989489880179308    -2.73642137587664    0.989489880179308    -2.73642137587664    0.04865219563597     76.1596994849452     
6.51355562432631     0.049095112384202    76.2117916755004     0.989448483410804    -2.76208576203347    0.989448483410804    -2.76208576203347    0.049095112384202    76.2117916755004     
6.57487070611264     0.049542227918755    76.2630683325431     0.989406593730665    -2.78798985011365    0.989406593730665    -2.78798985011365    0.049542227918755    76.2630683325431     
6.6367629748413      0.049993580271533    76.313531273438      0.98936420324649     -2.81413585432216    0.98936420324649     -2.81413585432216    0.049993580271533    76.313531273438      
6.69923786383727     0.050449207809291    76.363182278532      0.989321303925641    -2.84052600867284    0.989321303925641    -2.84052600867284    0.050449207809291    76.363182278532      
6.76230085757194     0.050909149236106    76.4120230907574     0.989277887592811    -2.86716256714827    0.989277887592811    -2.86716256714827    0.050909149236106    76.4120230907574     
6.8259574921445      0.051373443595845    76.4600554152442     0.98923394592741     -2.89404780385998    0.98923394592741     -2.89404780385998    0.051373443595845    76.4600554152442     
6.89021335576801     0.051842130274644    76.5072809189417     0.989189470460935    -2.92118401320962    0.989189470460935    -2.92118401320962    0.051842130274644    76.5072809189417     
6.95507408925993     0.052315249003386    76.5537012302488     0.989144452574344    -2.94857351005091    0.989144452574344    -2.94857351005091    0.052315249003386    76.5537012302488     
7.0205453865373      0.052792839860179    76.5993179386533     0.989098883495312    -2.97621862985223    0.989098883495312    -2.97621862985223    0.052792839860179    76.5993179386533     
7.08663299511664     0.053274943272845    76.6441325943788     0.989052754295515    -3.00412172886006    0.989052754295515    -3.00412172886006    0.053274943272845    76.6441325943788     
7.15334271661844     0.053761600021401    76.6881467080405     0.989006055887779    -3.03228518426298    0.989006055887779    -3.03228518426298    0.053761600021401    76.6881467080405     
7.22068040727653     0.054252851240548    76.7313617503095     0.988958779023257    -3.06071139435657    0.988958779023257    -3.06071139435657    0.054252851240548    76.7313617503095     
7.28865197845213     0.05474873842216     76.7737791515833     0.988910914288537    -3.08940277870883    0.988910914288537    -3.08940277870883    0.05474873842216     76.7737791515833     
7.35726339715282     0.055249303417763    76.8154003016655     0.988862452102635    -3.11836177832626    0.988862452102635    -3.11836177832626    0.055249303417763    76.8154003016655     
7.42652068655636     0.055754588441033    76.8562265494526     0.988813382714059    -3.14759085582073    0.988813382714059    -3.14759085582073    0.055754588441033    76.8562265494526     
7.49642992653943     0.056264636070272    76.8962592026278     0.988763696197708    -3.17709249557692    0.988763696197708    -3.17709249557692    0.056264636070272    76.8962592026278     
7.56699725421137     0.0567794892509      76.9354995273617     0.988713382451781    -3.20686920392029    0.988713382451781    -3.20686920392029    0.0567794892509      76.9354995273617     
7.63822886445296     0.057299191297927    76.9739487480208     0.98866243119461     -3.23692350928574    0.98866243119461     -3.23692350928574    0.057299191297927    76.9739487480208     
7.71013101046021     0.057823785898437    77.0116080468824     0.988610831961423    -3.26725796238668    0.988610831961423    -3.26725796238668    0.057823785898437    77.0116080468824     
7.78271000429334     0.058353317114063    77.0484785638552     0.988558574101124    -3.29787513638509    0.988558574101124    -3.29787513638509    0.058353317114063    77.0484785638552     
7.85597221743087     0.05888782938345     77.0845613962083     0.9885056467729      -3.32877762706135    0.9885056467729      -3.32877762706135    0.05888782938345     77.0845613962083     
7.92992408132898     0.059427367524723    77.1198575983044     0.988452038942883    -3.35996805298534    0.988452038942883    -3.35996805298534    0.059427367524723    77.1198575983044     
8.00457208798608     0.059971976737946    77.154368181341      0.98839773938069     -3.39144905568752    0.98839773938069     -3.39144905568752    0.059971976737946    77.154368181341      
8.07992279051274     0.060521702607568    77.1880941130961     0.988342736655886    -3.42322329983063    0.988342736655886    -3.42322329983063    0.060521702607568    77.1880941130961     
8.15598280370696     0.061076591104869    77.221036317681      0.988287019134513    -3.45529347338195    0.988287019134513    -3.45529347338195    0.061076591104869    77.221036317681      
8.23275880463486     0.061636688590389    77.2531956752982     0.988230574975357    -3.48766228778557    0.988230574975357    -3.48766228778557    0.061636688590389    77.2531956752982     
8.31025753321684     0.062202041816358    77.2845730220048     0.988173392126331    -3.52033247813534    0.988173392126331    -3.52033247813534    0.062202041816358    77.2845730220048     
8.38848579281927     0.062772697929105    77.3151691494815     0.98811545832073     -3.5533068033483     0.98811545832073     -3.5533068033483     0.062772697929105    77.3151691494815     
8.46745045085172     0.063348704471459    77.3449848048077     0.988056761073383    -3.58658804633788    0.988056761073383    -3.58658804633788    0.063348704471459    77.3449848048077     
8.5471584393698      0.06393010938514     77.3740206902408     0.9879972876768      -3.62017901418781    0.9879972876768      -3.62017901418781    0.06393010938514     77.3740206902408     
8.62761675568377     0.064516961013132    77.4022774630007     0.987937025197242    -3.65408253832617    0.987937025197242    -3.65408253832617    0.064516961013132    77.4022774630007     
8.70883246297277     0.065109308102044    77.4297557350604     0.98787596047068     -3.6883014746996     0.98787596047068     -3.6883014746996     0.065109308102044    77.4297557350604     
8.79081269090486     0.065707199804454    77.45645607294       0.987814080098774    -3.72283870394762    0.987814080098774    -3.72283870394762    0.065707199804454    77.45645607294       
8.87356463626296     0.066310685681236    77.482378997507      0.987751370444685    -3.75769713157732    0.987751370444685    -3.75769713157732    0.066310685681236    77.482378997507      
8.95709556357657     0.066919815703867    77.5075249837799     0.987687817628881    -3.79287968813768    0.987687817628881    -3.79287968813768    0.066919815703867    77.5075249837799     
9.04141280575956     0.067534640256721    77.5318944607373     0.987623407524858    -3.82838932939447    0.987623407524858    -3.82838932939447    0.067534640256721    77.5318944607373     
9.12652376475386     0.068155210139332    77.5554878111316     0.987558125754803    -3.86422903650487    0.987558125754803    -3.86422903650487    0.068155210139332    77.5554878111316     
9.21243591217928     0.068781576568644    77.5783053713061     0.987491957685134    -3.90040181619194    0.987491957685134    -3.90040181619194    0.068781576568644    77.5783053713061     
9.2991567899894      0.069413791181232    77.6003474310183     0.987424888422016    -3.93691070091927    0.987424888422016    -3.93691070091927    0.069413791181232    77.6003474310183     
9.38669401113366     0.070051906035503    77.621614233265      0.98735690280683     -3.97375874906556    0.98735690280683     -3.97375874906556    0.070051906035503    77.621614233265      
9.4750552602257      0.070695973613864    77.6421059741139     0.987287985411464    -4.01094904509846    0.987287985411464    -4.01094904509846    0.070695973613864    77.6421059741139     
9.56424829421793     0.07134604682487     77.6618228025383     0.987218120533628    -4.04848469974883    0.987218120533628    -4.04848469974883    0.07134604682487     77.6618228025383     
9.65428094308248     0.072002179005338    77.6807648202558     0.987147292192052    -4.08636885018451    0.987147292192052    -4.08636885018451    0.072002179005338    77.6807648202558     
9.74516111049866     0.072664423922433    77.6989320815706     0.987075484121599    -4.12460466018362    0.987075484121599    -4.12460466018362    0.072664423922433    77.6989320815706     
9.83689677454667     0.073332835775715    77.7163245932213     0.987002679768304    -4.16319532030743    0.987002679768304    -4.16319532030743    0.073332835775715    77.7163245932213     
9.92949598840806     0.074007469199164    77.7329423142311     0.986928862284364    -4.20214404807324    0.986928862284364    -4.20214404807324    0.074007469199164    77.7329423142311     
10.0229668810727     0.074688379263154    77.7487851557623     0.986854014522958    -4.24145408812608    0.986854014522958    -4.24145408812608    0.074688379263154    77.7487851557623     
10.1173176580522     0.075375621476409    77.7638529809751     0.986778119033124    -4.28112871241043    0.986778119033124    -4.28112871241043    0.075375621476409    77.7638529809751     
10.2125566021007     0.0760692517879      77.7781456048889     0.986701158054431    -4.32117122034117    0.986701158054431    -4.32117122034117    0.0760692517879      77.7781456048889     
10.3086920739414     0.076769326588711    77.791662794249      0.986623113511594    -4.3615849389734     0.986623113511594    -4.3615849389734     0.076769326588711    77.791662794249      
10.405732513001      0.077475902713863    77.8044042673959     0.986543967009052    -4.40237322317209    0.986543967009052    -4.40237322317209    0.077475902713863    77.8044042673959     
10.5036864381503     0.078189037444087    77.8163696941382     0.986463699825409    -4.44353945578071    0.986463699825409    -4.44353945578071    0.078189037444087    77.8163696941382     
10.6025624484523     0.078908788507558    77.8275586956304     0.986382292907816    -4.48508704778875    0.986382292907816    -4.48508704778875    0.078908788507558    77.8275586956304     
10.7023692239166     0.079635214081571    77.8379708442519     0.986299726866247    -4.52701943849858    0.986299726866247    -4.52701943849858    0.079635214081571    77.8379708442519     
10.803115526262      0.080368372794173    77.847605663493      0.986215981967675    -4.56934009569091    0.986215981967675    -4.56934009569091    0.080368372794173    77.847605663493      
10.9048101996853     0.081108323725735    77.8564626278412     0.986131038130205    -4.61205251578952    0.986131038130205    -4.61205251578952    0.081108323725735    77.8564626278412     
11.0074621716376     0.081855126410476    77.8645411626736     0.986044874917045    -4.6551602240244     0.986044874917045    -4.6551602240244     0.081855126410476    77.8645411626736     
11.1110804536084     0.082608840837924    77.8718406441508     0.985957471530471    -4.69866677459403    0.985957471530471    -4.69866677459403    0.082608840837924    77.8718406441508     
11.2156741419163     0.083369527454308    77.8783603991171     0.985868806805585    -4.74257575082554    0.985868806805585    -4.74257575082554    0.083369527454308    77.8783603991171     
11.321252418508      0.084137247163917    77.8840997050008     0.985778859204114    -4.78689076533459    0.985778859204114    -4.78689076533459    0.084137247163917    77.8840997050008     
11.4278245517638     0.08491206133035     77.8890577897218     0.985687606807979    -4.83161546018235    0.985687606807979    -4.83161546018235    0.08491206133035     77.8890577897218     
11.5353998973115     0.085694031777735    77.8932338316002     0.985595027312855    -4.87675350703181    0.985595027312855    -4.87675350703181    0.085694031777735    77.8932338316002     
11.6439878988479     0.086483220791858    77.8966269592696     0.985501098021619    -4.92230860730185    0.985501098021619    -4.92230860730185    0.086483220791858    77.8966269592696     
11.7535980889675     0.087279691121225    77.8992362515942     0.985405795837657    -4.96828449231967    0.985405795837657    -4.96828449231967    0.087279691121225    77.8992362515942     
11.8642400899995     0.088083505978045    77.9010607375898     0.985309097258116    -5.01468492347124    0.985309097258116    -5.01468492347124    0.088083505978045    77.9010607375898     
11.9759236148525     0.088894729039138    77.9020993963471     0.985210978367057    -5.06151369234965    0.985210978367057    -5.06151369234965    0.088894729039138    77.9020993963471     
12.0886584678672     0.089713424446752    77.9023511569615     0.985111414828428    -5.10877462090107    0.985111414828428    -5.10877462090107    0.089713424446752    77.9023511569615     
12.202454545677      0.090539656809309    77.901814898464      0.985010381879079    -5.15647156156913    0.985010381879079    -5.15647156156913    0.090539656809309    77.901814898464      
12.3173218380769     0.091373491202045    77.9004894497578     0.984907854321511    -5.20460839743589    0.984907854321511    -5.20460839743589    0.091373491202045    77.9004894497578     
12.4332704289003     0.092214993167574    77.8983735895582     0.984803806516618    -5.25318904236124    0.984803806516618    -5.25318904236124    0.092214993167574    77.8983735895582     
12.5503104969044     0.093064228716354    77.8954660463368     0.984698212376345    -5.30221744111936    0.984698212376345    -5.30221744111936    0.093064228716354    77.8954660463368     
12.6684523166637     0.093921264327039    77.8917654982695     0.984591045356117    -5.3516975695316     0.984591045356117    -5.3516975695316     0.093921264327039    77.8917654982695     
12.7877062594721     0.094786166946755    77.8872705731886     0.984482278447322    -5.40163343459822    0.984482278447322    -5.40163343459822    0.094786166946755    77.8872705731886     
12.908082794253      0.09565900399125     77.8819798485401     0.984371884169515    -5.45202907462529    0.984371884169515    -5.45202907462529    0.09565900399125     77.8819798485401     
13.0295924884787     0.096539843344946    77.875891851344      0.984259834562689    -5.50288855934957    0.984259834562689    -5.50288855934957    0.096539843344946    77.875891851344      
13.1522460090981     0.097428753360875    77.8690050581596     0.98414610117927     -5.55421599005984    0.98414610117927     -5.55421599005984    0.097428753360875    77.8690050581596     
13.2760541234727     0.098325802860492    77.861317895056      0.984030655076109    -5.60601549971427    0.984030655076109    -5.60601549971427    0.098325802860492    77.861317895056      
13.4010277003222     0.099231061133387    77.8528287375858     0.98391346680636     -5.65829125305531    0.98391346680636     -5.65829125305531    0.099231061133387    77.8528287375858     
13.5271777106787     0.100144597936841    77.8435359107647     0.983794506411138    -5.71104744671927    0.983794506411138    -5.71104744671927    0.100144597936841    77.8435359107647     
13.6545152288494     0.10106648349529     77.8334376890556     0.983673743411225    -5.76428830934369    0.983673743411225    -5.76428830934369    0.10106648349529     77.8334376890556     
13.7830514333892     0.101996788499626    77.822532296357      0.983551146798533    -5.81801810166946    0.983551146798533    -5.81801810166946    0.101996788499626    77.822532296357      
13.9127976080817     0.102935584106377    77.8108179059976     0.983426685027494    -5.87224111663909    0.983426685027494    -5.87224111663909    0.102935584106377    77.8108179059976     
14.0437651429302     0.103882941936738    77.7982926407352     0.983300326006368    -5.92696167949059    0.983300326006368    -5.92696167949059    0.103882941936738    77.7982926407352     
14.1759655351569     0.104838934075459    77.7849545727609     0.983172037088372    -5.98218414784696    0.983172037088372    -5.98218414784696    0.104838934075459    77.7849545727609     
14.3094103902131     0.105803633069588    77.7708017237096     0.983041785062755    -6.03791291180044    0.983041785062755    -6.03791291180044    0.105803633069588    77.7708017237096     
14.4441114227971     0.106777111927036    77.7558320646751     0.982909536145712    -6.09415239399242    0.982909536145712    -6.09415239399242    0.106777111927036    77.7558320646751     
14.5800804578832     0.107759444115019    77.7400435162313     0.982775255971229    -6.15090704968795    0.982775255971229    -6.15090704968795    0.107759444115019    77.7400435162313     
14.7173294317598     0.108750703558293    77.7234339484598     0.982638909581722    -6.20818136684477    0.982638909581722    -6.20818136684477    0.108750703558293    77.7234339484598     
14.8558703930766     0.109750964637246    77.7060011809825     0.982500461418653    -6.26597986617685    0.982500461418653    -6.26597986617685    0.109750964637246    77.7060011809825     
14.9957155039031     0.110760302185806    77.6877429830016     0.982359875313008    -6.32430710121298    0.982359875313008    -6.32430710121298    0.110760302185806    77.6877429830016     
15.1368770407959     0.111778791489166    77.6686570733446     0.982217114475602    -6.38316765834819    0.982217114475602    -6.38316765834819    0.111778791489166    77.6686570733446     
15.2793673958762     0.112806508281322    77.6487411205179     0.982072141487318    -6.44256615688978    0.982072141487318    -6.44256615688978    0.112806508281322    77.6487411205179     
15.4231990779183     0.113843528742425    77.6279927427648     0.981924918289219    -6.50250724909729    0.981924918289219    -6.50250724909729    0.113843528742425    77.6279927427648     
15.5683847134471     0.114889929495921    77.606409508132      0.981775406172546    -6.56299562021508    0.981775406172546    -6.56299562021508    0.114889929495921    77.606409508132      
15.7149370478466     0.115945787605504    77.583988934543      0.981623565768564    -6.62403598849876    0.981623565768564    -6.62403598849876    0.115945787605504    77.583988934543      
15.8628689464792     0.117011180571845    77.560728489878      0.981469357038335    -6.68563310523403    0.981469357038335    -6.68563310523403    0.117011180571845    77.560728489878      
16.0121933958148     0.118086186329111    77.5366255920635     0.981312739262342    -6.74779175474866    0.981312739262342    -6.74779175474866    0.118086186329111    77.5366255920635     
16.1629235045708     0.119170883241264    77.5116776091661     0.981153671030036    -6.81051675441724    0.981153671030036    -6.81051675441724    0.119170883241264    77.5116776091661     
16.315072504863      0.120265350098124    77.4858818594982     0.980992110229178    -6.87381295465704    0.980992110229178    -6.87381295465704    0.120265350098124    77.4858818594982     
16.4686537533672     0.121369666111199    77.4592356117297     0.980828014035188    -6.93768523891664    0.980828014035188    -6.93768523891664    0.121369666111199    77.4592356117297     
16.6236807324917     0.12248391090928     77.4317360850081     0.980661338900283    -7.00213852365661    0.980661338900283    -7.00213852365661    0.12248391090928     77.4317360850081     
16.7801670515608     0.123608164533777    77.403380449088      0.980492040542555    -7.0671777583206     0.980492040542555    -7.0671777583206     0.123608164533777    77.403380449088      
16.9381264480096     0.124742507433803    77.3741658244702     0.980320073934872    -7.13280792529825    0.980320073934872    -7.13280792529825    0.124742507433803    77.3741658244702     
17.0975727885902     0.125887020460995    77.3440892825483     0.980145393293738    -7.19903403987858    0.980145393293738    -7.19903403987858    0.125887020460995    77.3440892825483     
17.2585200705885     0.127041784864072    77.3131478457662     0.979967952068028    -7.26586115019465    0.979967952068028    -7.26586115019465    0.127041784864072    77.3131478457662     
17.4209824230535     0.128206882283098    77.2813384877851     0.979787702927552    -7.33329433715741    0.979787702927552    -7.33329433715741    0.128206882283098    77.2813384877851     
17.5849741080371     0.129382394743477    77.2486581336598     0.97960459775157     -7.40133871438035    0.97960459775157     -7.40133871438035    0.129382394743477    77.2486581336598     
17.7505095218467     0.130568404649648    77.2151036600265     0.9794185876172      -7.46999942809356    0.9794185876172      -7.46999942809356    0.130568404649648    77.2151036600265     
17.9176031963087     0.131764994778478    77.1806718953009     0.979229622787661    -7.53928165704698    0.979229622787661    -7.53928165704698    0.131764994778478    77.1806718953009     
18.0862698000441     0.132972248272351    77.1453596198865     0.97903765270049     -7.60919061240285    0.97903765270049     -7.60919061240285    0.132972248272351    77.1453596198865     
18.2565241397564     0.134190248631936    77.1091635663945     0.978842625955605    -7.67973153761663    0.978842625955605    -7.67973153761663    0.134190248631936    77.1091635663945     
18.4283811615316     0.135419079708633    77.0720804198762     0.978644490303276    -7.75090970830657    0.978644490303276    -7.75090970830657    0.135419079708633    77.0720804198762     
18.6018559521496     0.136658825696684    77.0341068180667     0.978443192631999    -7.82273043211079    0.978443192631999    -7.82273043211079    0.136658825696684    77.0341068180667     
18.7769637404095     0.137909571124938    76.9952393516398     0.978238678956273    -7.89519904853255    0.978238678956273    -7.89519904853255    0.137909571124938    76.9952393516398     
18.9537198984659     0.139171400848281    76.9554745644772     0.978030894404332    -7.96832092877229    0.978030894404332    -7.96832092877229    0.139171400848281    76.9554745644772     
19.1321399431784     0.140444400038687    76.9148089539501     0.97781978320567     -8.04210147554714    0.97781978320567     -8.04210147554714    0.140444400038687    76.9148089539501     
19.312239537474      0.141728654175903    76.8732389712132     0.977605288678599    -8.11654612289575    0.977605288678599    -8.11654612289575    0.141728654175903    76.8732389712132     
19.4940344917222     0.14302424903778     76.8307610215136     0.977387353217675    -8.19166033597135    0.977387353217675    -8.19166033597135    0.14302424903778     76.8307610215136     
19.6775407651225     0.144331270690185    76.7873714645135     0.977165918281007    -8.26744961081831    0.977165918281007    -8.26744961081831    0.144331270690185    76.7873714645135     
19.8627744671057     0.145649805476528    76.7430666146263     0.976940924377535    -8.34391947413529    0.976940924377535    -8.34391947413529    0.145649805476528    76.7430666146263     
20.0497518587481     0.146979940006904    76.6978427413691     0.976712311054248    -8.4210754830234     0.976712311054248    -8.4210754830234     0.146979940006904    76.6978427413691     
20.2384893541989     0.148321761146781    76.651696069729      0.976480016883279    -8.49892322471842    0.976480016883279    -8.49892322471842    0.148321761146781    76.651696069729      
20.4290035221212     0.149675356005292    76.6046227805468     0.976243979448937    -8.57746831630694    0.976243979448937    -8.57746831630694    0.149675356005292    76.6046227805468     
20.6213110871467     0.151040811923081    76.5566190109143     0.97600413533475     -8.65671640442685    0.97600413533475     -8.65671640442685    0.151040811923081    76.5566190109143     
20.8154289313435     0.152418216459702    76.5076808545907     0.975760420110369    -8.73667316495064    0.975760420110369    -8.73667316495064    0.152418216459702    76.5076808545907     
21.0113740956983     0.153807657380562    76.457804362434      0.97551276831844     -8.81734430265138    0.97551276831844     -8.81734430265138    0.153807657380562    76.457804362434      
21.2091637816126     0.1552092226434      76.4069855428508     0.975261113461463    -8.89873555085124    0.975261113461463    -8.89873555085124    0.1552092226434      76.4069855428508     
21.4088153524125     0.156623000384292    76.3552203622636     0.975005387988592    -8.98085267105197    0.975005387988592    -8.98085267105197    0.156623000384292    76.3552203622636     
21.610346334873      0.158049078903154    76.3025047455964     0.974745523282358    -9.06370145254632    0.974745523282358    -9.06370145254632    0.158049078903154    76.3025047455964     
21.8137744207567     0.159487546648761    76.2488345767791     0.97448144964542     -9.14728771201076    0.97448144964542     -9.14728771201076    0.159487546648761    76.2488345767791     
22.0191174683669     0.160938492203254    76.1942056992713     0.974213096287274    -9.23161729307853    0.974213096287274    -9.23161729307853    0.160938492203254    76.1942056992713     
22.2263935041151     0.162402004266115    76.1386139166051     0.973940391310937    -9.31669606589249    0.973940391310937    -9.31669606589249    0.162402004266115    76.1386139166051     
22.4356207241038     0.163878171637624    76.0820549929494     0.973663261699612    -9.40252992663761    0.973663261699612    -9.40252992663761    0.163878171637624    76.0820549929494     
22.6468174957239     0.165367083201767    76.0245246536939     0.973381633303368    -9.48912479705212    0.973381633303368    -9.48912479705212    0.165367083201767    76.0245246536939     
22.8600023592667     0.166868827908576    75.9660185860547     0.973095430825814    -9.5764866239169     0.973095430825814    -9.5764866239169     0.166868827908576    75.9660185860547     
23.0751940295519     0.168383494755934    75.9065324397011     0.972804577810815    -9.66462137852349    0.972804577810815    -9.66462137852349    0.168383494755934    75.9065324397011     
23.2924113975703     0.169911172770776    75.8460618274062     0.972508996629177    -9.75353505611879    0.972508996629177    -9.75353505611879    0.169911172770776    75.8460618274062     
23.5116735321422     0.171451950989695    75.7846023257186     0.972208608465384    -9.84323367532603    0.972208608465384    -9.84323367532603    0.171451950989695    75.7846023257186     
23.7329996815917     0.173005918438986    75.7221494756582     0.97190333330442     -9.93372327754357    0.97190333330442     -9.93372327754357    0.173005918438986    75.7221494756582     
23.9564092754358     0.174573164114022    75.658698783436      0.971593089918535    -10.0250099263175    0.971593089918535    -10.0250099263175    0.174573164114022    75.658698783436      
24.1819219260907     0.176153776958049    75.5942457211986     0.97127779585418     -10.1170997066908    0.97127779585418     -10.1170997066908    0.176153776958049    75.5942457211986     
24.4095574305933     0.177747845840327    75.5287857277968     0.970957367418933    -10.2099987245262    0.970957367418933    -10.2099987245262    0.177747845840327    75.5287857277968     
24.6393357723388     0.179355459533619    75.4623142095811     0.970631719668541    -10.3037131058034    0.970631719668541    -10.3037131058034    0.179355459533619    75.4623142095811     
24.8712771228355     0.180976706691023    75.3948265412219     0.970300766394042    -10.3982489958894    0.970300766394042    -10.3982489958894    0.180976706691023    75.3948265412219     
25.1054018434753     0.18261167582213     75.3263180665584     0.969964420108968    -10.4936125587815    0.969964420108968    -10.4936125587815    0.18261167582213     75.3263180665584     
25.3417304873212     0.184260455268505    75.2567840994726     0.969622592036711    -10.5898099763233    0.969622592036711    -10.5898099763233    0.184260455268505    75.2567840994726     
25.5802838009114     0.185923133178449    75.1862199247935     0.969275192097946    -10.686847447391     0.969275192097946    -10.686847447391     0.185923133178449    75.1862199247935     
25.821082726081      0.187599797481075    75.114620799228      0.968922128898238    -10.7847311870517    0.968922128898238    -10.7847311870517    0.187599797481075    75.114620799228      
26.0641484018002     0.189290535859655    75.0419819523226     0.96856330971581     -10.8834674256914    0.96856330971581     -10.8834674256914    0.189290535859655    75.0419819523226     
26.3095021660298     0.190995435724219    74.9682985874535     0.968198640489422    -10.9830624081131    0.968198640489422    -10.9830624081131    0.190995435724219    74.9682985874535     
26.5571655575948     0.192714584183434    74.8935658828485     0.967828025806482    -11.0835223926037    0.967828025806482    -11.0835223926037    0.192714584183434    74.8935658828485     
26.8071603180749     0.194448068015707    74.8177789926385     0.967451368891324    -11.1848536499698    0.967451368891324    -11.1848536499698    0.194448068015707    74.8177789926385     
27.0595083937133     0.196195973639521    74.740933047942      0.96706857159371     -11.2870624625408    0.96706857159371     -11.2870624625408    0.196195973639521    74.740933047942      
27.3142319373431     0.197958387083004    74.6630231579812     0.966679534377528    -11.3901551231396    0.966679534377528    -11.3901551231396    0.197958387083004    74.6630231579812     
27.5713533103324     0.199735393952682    74.5840444112313     0.966284156309777    -11.4941379340193    0.966284156309777    -11.4941379340193    0.199735393952682    74.5840444112313     
27.830895084547      0.201527079401452    74.5039918766033     0.965882335049762    -11.5990172057667    0.965882335049762    -11.5990172057667    0.201527079401452    74.5039918766033     
28.0928800443319     0.203333528095718    74.4228606046616     0.965473966838586    -11.7047992561698    0.965473966838586    -11.7047992561698    0.203333528095718    74.4228606046616     
28.3573311885117     0.205154824181723    74.3406456288749     0.965058946488967    -11.8114904090516    0.965058946488967    -11.8114904090516    0.205154824181723    74.3406456288749     
28.6242717324094     0.206991051251019    74.2573419669056     0.964637167375283    -11.9190969930654    0.964637167375283    -11.9190969930654    0.206991051251019    74.2573419669056     
28.8937251098845     0.208842292305121    74.1729446219317     0.964208521424062    -12.0276253404567    0.964208521424062    -12.0276253404567    0.208842292305121    74.1729446219317     
29.1657149753902     0.210708629719261    74.0874485840088     0.963772899104721    -12.1370817857844    0.963772899104721    -12.1370817857844    0.210708629719261    74.0874485840088     
29.4402652060498     0.212590145205313    74.0008488314678     0.963330189420718    -12.247472664606     0.963330189420718    -12.247472664606     0.212590145205313    74.0008488314678     
29.717399903753      0.214486919773809    73.9131403323513     0.962880279901114    -12.3588043121237    0.962880279901114    -12.3588043121237    0.214486919773809    73.9131403323513     
29.9971433972714     0.216399033695091    73.8243180458887     0.962423056592509    -12.4710830617908    0.962423056592509    -12.4710830617908    0.216399033695091    73.8243180458887     
30.2795202443948     0.218326566459548    73.7343769240105     0.96195840405147     -12.5843152438793    0.96195840405147     -12.5843152438793    0.218326566459548    73.7343769240105     
30.5645552340865     0.220269596736954    73.6433119129038     0.961486205337331    -12.6985071840048    0.961486205337331    -12.6985071840048    0.220269596736954    73.6433119129038     
30.8522733886596     0.222228202334886    73.5511179546068     0.961006342005558    -12.8136652016124    0.961006342005558    -12.8136652016124    0.222228202334886    73.5511179546068     
31.142699965974      0.224202460156233    73.4577899886458     0.960518694101614    -12.9297956084196    0.960518694101614    -12.9297956084196    0.224202460156233    73.4577899886458     
31.4358604616531     0.226192446155749    73.3633229537143     0.96002314015525     -13.0469047068164    0.96002314015525     -13.0469047068164    0.226192446155749    73.3633229537143     
31.7317806113224     0.228198235295698    73.2677117893939     0.959519557175516    -13.1649987882234    0.959519557175516    -13.1649987882234    0.228198235295698    73.2677117893939     
32.0304863928687     0.230219901500531    73.1709514379191     0.959007820646216    -13.2840841314049    0.959007820646216    -13.2840841314049    0.230219901500531    73.1709514379191     
32.3320040287203     0.232257517610624    73.0730368459854     0.958487804522056    -13.4041670007392    0.958487804522056    -13.4041670007392    0.232257517610624    73.0730368459854     
32.6363599881494     0.234311155335053    72.9739629666025     0.957959381225356    -13.5252536444416    0.957959381225356    -13.5252536444416    0.234311155335053    72.9739629666025     
32.9435809895957     0.236380885203429    72.8737247609916     0.957422421643511    -13.6473502927452    0.957422421643511    -13.6473502927452    0.236380885203429    72.8737247609916     
33.2536940030116     0.238466776516735    72.7723172005291     0.956876795127091    -13.7704631560324    0.956876795127091    -13.7704631560324    0.238466776516735    72.7723172005291     
33.56672625223       0.240568897297214    72.6697352687358     0.956322369488627    -13.8945984229213    0.956322369488627    -13.8945984229213    0.240568897297214    72.6697352687358     
33.8827052173544     0.2426873142373      72.5659739633131     0.955759011002253    -14.0197622583059    0.955759011002253    -14.0197622583059    0.2426873142373      72.5659739633131     
34.201658637171      0.24482209264754     72.4610282982262     0.955186584404028    -14.1459608013459    0.955186584404028    -14.1459608013459    0.24482209264754     72.4610282982262     
34.5236145115838     0.246973296403581    72.3548933058351     0.954604952893134    -14.2732001634113    0.954604952893134    -14.2732001634113    0.246973296403581    72.3548933058351     
34.8486011040728     0.249140987892155    72.2475640390743     0.95401397813386     -14.401486425976     0.95401397813386     -14.401486425976     0.249140987892155    72.2475640390743     
35.1766469441752     0.251325227956101    72.1390355736794     0.953413520258553    -14.5308256384633    0.953413520258553    -14.5308256384633    0.251325227956101    72.1390355736794     
35.5077808299895     0.253526075838431    72.0293030104646     0.95280343787139     -14.6612238160421    0.95280343787139     -14.6612238160421    0.253526075838431    72.0293030104646     
35.8420318307042     0.255743589125386    71.91836147765       0.952183588053118    -14.792686937372     0.952183588053118    -14.792686937372     0.255743589125386    71.91836147765       
36.1794292891493     0.257977823688574    71.8062061332366     0.951553826366787    -14.9252209422984    0.951553826366787    -14.9252209422984    0.257977823688574    71.8062061332366     
36.520002824372      0.260228833626129    71.6928321674333     0.950914006864522    -15.0588317294983    0.950914006864522    -15.0588317294983    0.260228833626129    71.6928321674333     
36.8637823342377     0.262496671202894    71.5782348051346     0.950263982095246    -15.1935251540718    0.950263982095246    -15.1935251540718    0.262496671202894    71.5782348051346     
37.2107979980536     0.264781386789703    71.4624093084482     0.949603603113603    -15.3293070250854    0.949603603113603    -15.3293070250854    0.264781386789703    71.4624093084482     
37.5610802792188     0.267083028801682    71.3453509792751     0.948932719489884    -15.466183103061     0.948932719489884    -15.466183103061     0.267083028801682    71.3453509792751     
37.9146599278982     0.269401643635651    71.2270551619394     0.948251179321227    -15.604159097415     0.948251179321227    -15.604159097415     0.269401643635651    71.2270551619394     
38.2715679837222     0.271737275606594    71.1075172458722     0.94755882924391     -15.7432406638438    0.94755882924391     -15.7432406638438    0.271737275606594    71.1075172458722     
38.6318357785115     0.274089966883226    70.9867326683454     0.946855514446896    -15.883433401657     0.946855514446896    -15.883433401657     0.274089966883226    70.9867326683454     
38.9954949390273     0.276459757422682    70.8646969172576     0.946141078686721    -16.0247428510596    0.946141078686721    -16.0247428510596    0.276459757422682    70.8646969172576     
39.3625773897483     0.278846684904309    70.7414055339736     0.945415364303561    -16.167174490379     0.945415364303561    -16.167174490379     0.278846684904309    70.7414055339736     
39.7331153556727     0.281250784662628    70.6168541162146     0.944678212238747    -16.310733733242     0.944678212238747    -16.310733733242     0.281250784662628    70.6168541162146     
40.1071413651475     0.283672089619428    70.4910383210011     0.943929462053607    -16.4554259256974    0.943929462053607    -16.4554259256974    0.283672089619428    70.4910383210011     
40.4846882527238     0.286110630215075    70.3639538676475     0.943168951949757    -16.6012563432868    0.943168951949757    -16.6012563432868    0.286110630215075    70.3639538676475     
40.8657891620397     0.288566434338983    70.2355965408099     0.942396518790813    -16.7482301880622    0.942396518790813    -16.7482301880622    0.288566434338983    70.2355965408099     
41.250477548729      0.291039527259374    70.1059621935837     0.941611998125696    -16.8963525855529    0.941611998125696    -16.8963525855529    0.291039527259374    70.1059621935837     
41.6387871833592     0.293529931552215    69.9750467506549     0.940815224213334    -17.0456285816775    0.940815224213334    -17.0456285816775    0.293529931552215    69.9750467506549     
42.0307521543954     0.296037667029507    69.8428462115014     0.940006030049074    -17.1960631396065    0.940006030049074    -17.1960631396065    0.296037667029507    69.8428462115014     
42.4264068711929     0.298562750666843    69.709356653647      0.939184247392631    -17.3476611365721    0.939184247392631    -17.3476611365721    0.298562750666843    69.709356653647      
42.8257860670183     0.30110519653034     69.5745742359631     0.93834970679776     -17.5004273606278    0.93834970679776     -17.5004273606278    0.30110519653034     69.5745742359631     
43.2289248020981     0.303665015702902    69.4384952020248     0.937502237643527    -17.6543665073546    0.937502237643527    -17.6543665073546    0.303665015702902    69.4384952020248     
43.635858466697      0.306242216209966    69.3011158835125     0.936641668167446    -17.8094831765215    0.936641668167446    -17.8094831765215    0.306242216209966    69.3011158835125     
44.0466227842243     0.308836802944623    69.1624327036664     0.935767825500268    -17.9657818686912    0.935767825500268    -17.9657818686912    0.308836802944623    69.1624327036664     
44.4612538143701     0.311448777592296    69.0224421807866     0.934880535702672    -18.1232669817813    0.934880535702672    -18.1232669817813    0.311448777592296    69.0224421807866     
44.879787956271      0.314078138554909    68.881140931783      0.933979623803749    -18.281942807574     0.933979623803749    -18.281942807574     0.314078138554909    68.881140931783      
45.3022619517052     0.316724880874658    68.7385256757713     0.933064913841414    -18.44181352818      0.933064913841414    -18.44181352818      0.316724880874658    68.7385256757713     
45.7287128883182     0.319388996157408    68.5945932377143     0.932136228904729    -18.6028832124554    0.932136228904729    -18.6028832124554    0.319388996157408    68.5945932377143     
46.1591782028784     0.322070472495749    68.4493405521111     0.93119339117818     -18.7651558123727    0.93119339117818     -18.7651558123727    0.322070472495749    68.4493405521111     
46.5936956845637     0.324769294391801    68.3027646667268     0.930236221987961    -18.9286351593474    0.930236221987961    -18.9286351593474    0.324769294391801    68.3027646667268     
47.0323034782788     0.327485442679799    68.1548627463681     0.929264541850303    -19.0933249605216    0.929264541850303    -19.0933249605216    0.327485442679799    68.1548627463681     
47.4750400880039     0.330218894448498    68.0056320766992     0.928278170521822    -19.2592287950039    0.928278170521822    -19.2592287950039    0.330218894448498    68.0056320766992     
47.9219443801748     0.332969622963516    67.8550700680984     0.927276927052055    -19.4263501100708    0.927276927052055    -19.4263501100708    0.332969622963516    67.8550700680984     
48.3730555870948     0.335737597589604    67.7031742595543     0.926260629838026    -19.5946922173258    0.926260629838026    -19.5946922173258    0.335737597589604    67.7031742595543     
48.8284133103789     0.338522783712961    67.5499423225982     0.925229096681044    -19.7642582888226    0.925229096681044    -19.7642582888226    0.338522783712961    67.5499423225982     
49.2880575244302     0.34132514266364     67.3953720652746     0.924182144845653    -19.9350513531509    0.924182144845653    -19.9350513531509    0.34132514266364     67.3953720652746     
49.7520285799491     0.344144631638125    67.2394614361438     0.923119591120842    -20.1070742914877    0.923119591120842    -20.1070742914877    0.344144631638125    67.2394614361438     
50.2203672074758     0.346981203622133    67.0822085283181     0.922041251883451    -20.2803298336155    0.922041251883451    -20.2803298336155    0.346981203622133    67.0822085283181     
50.6931145209655     0.349834807313738    66.9236115835287     0.920946943163862    -20.4548205539094    0.920946943163862    -20.4548205539094    0.349834807313738    66.9236115835287     
51.1703120213981     0.352705387046892    66.7636689962206     0.919836480714019    -20.6305488672959    0.919836480714019    -20.6305488672959    0.352705387046892    66.7636689962206     
51.652001600421      0.355592882715395    66.6023793176745     0.9187096800777      -20.8075170251835    0.9187096800777      -20.8075170251835    0.355592882715395    66.6023793176745     
52.1382255440271     0.358497229697462    66.4397412601518     0.917566356663156    -20.9857271113702    0.917566356663156    -20.9857271113702    0.358497229697462    66.4397412601518     
52.6290265362665     0.361418358780884    66.2757537010633     0.916406325818114    -21.165181037927     0.916406325818114    -21.165181037927     0.361418358780884    66.2757537010633     
53.1244476629941     0.364356196088942    66.1104156871558     0.91522940290707     -21.3458805410624    0.91522940290707     -21.3458805410624    0.364356196088942    66.1104156871558     
53.6245324156513     0.367310663007166    65.9437264387165     0.914035403391072    -21.5278271769702    0.914035403391072    -21.5278271769702    0.367310663007166    65.9437264387165     
54.1293246950846     0.370281676110953    65.7756853537909     0.912824142909734    -21.7110223176608    0.912824142909734    -21.7110223176608    0.370281676110953    65.7756853537909     
54.6388688153993     0.373269147094252    65.6062920124127     0.911595437365803    -21.8954671467821    0.911595437365803    -21.8954671467821    0.373269147094252    65.6062920124127     
55.1532095078495     0.376272982699325    65.4355461808423     0.910349103011975    -22.081162655431     0.910349103011975    -22.081162655431     0.376272982699325    65.4355461808423     
55.6723919247652     0.379293084647741    65.2634478158104     0.909084956540214    -22.268109637959     0.909084956540214    -22.268109637959     0.379293084647741    65.2634478158104     
56.1964616435159     0.382329349572668    65.0899970687631     0.907802815173381    -22.4563086877751    0.907802815173381    -22.4563086877751    0.382329349572668    65.0899970687631     
56.7254646705118     0.385381668952593    64.9151942901094     0.906502496759292    -22.6457601931479    0.906502496759292    -22.6457601931479    0.385381668952593    64.9151942901094     
57.2594474452425     0.38844992904658     64.7390400334598     0.905183819867158    -22.8364643330141    0.905183819867158    -22.8364643330141    0.38844992904658     64.7390400334598     
57.7984568443536     0.391534010831158    64.5615350598608     0.903846603886345    -23.0284210727917    0.903846603886345    -23.0284210727917    0.391534010831158    64.5615350598608     
58.3425401857624     0.394633789938955    64.3826803420164     0.902490669127513    -23.2216301602053    0.902490669127513    -23.2216301602053    0.394633789938955    64.3826803420164     
58.8917452328111     0.397749136599232    64.2024770684941     0.901115836926109    -23.4160911211272    0.901115836926109    -23.4160911211272    0.397749136599232    64.2024770684941     
59.4461201984602     0.400879915580336    64.0209266479144     0.899721929748078    -23.6118032554339    0.899721929748078    -23.6118032554339    0.400879915580336    64.0209266479144     
60.005713749521      0.404025986134327    63.8380307131135     0.898308771297937    -23.8087656328886    0.898308771297937    -23.8087656328886    0.404025986134327    63.8380307131135     
60.5705750109276     0.407187201943766    63.6537911252827     0.89687618662904     -24.0069770890475    0.89687618662904     -24.0069770890475    0.407187201943766    63.6537911252827     
61.1407535700498     0.410363411070882    63.4682099780739     0.895424002256076    -24.2064362211989    0.895424002256076    -24.2064362211989    0.410363411070882    63.4682099780739     
61.7162994810457     0.413554455909169    63.2812896016724     0.893952046269696    -24.4071413843356    0.893952046269696    -24.4071413843356    0.413554455909169    63.2812896016724     
62.2972632692564     0.416760173137594    63.0930325668266     0.892460148453303    -24.6090906871677    0.892460148453303    -24.6090906871677    0.416760173137594    63.0930325668266     
62.8836959356412     0.419980393677506    62.9034416888359     0.890948140401884    -24.8122819881795    0.890948140401884    -24.8122819881795    0.419980393677506    62.9034416888359     
63.4756489612546     0.423214942652363    62.7125200314885     0.889415855642849    -25.0167128917339    0.889415855642849    -25.0167128917339    0.423214942652363    62.7125200314885     
64.0731743117658     0.426463639350453    62.5202709109458     0.887863129758848    -25.2223807442314    0.887863129758848    -25.2223807442314    0.426463639350453    62.5202709109458     
64.6763244420208     0.429726297190658    62.3266978995681     0.886289800512471    -25.4292826303258    0.886289800512471    -25.4292826303258    0.429726297190658    62.3266978995681     
65.2851523006471     0.433002723691464    62.1318048296779     0.884695707972734    -25.637415369204     0.884695707972734    -25.637415369204     0.433002723691464    62.1318048296779     
65.8997113347018     0.436292720443275    61.9355957972527     0.883080694643346    -25.8467755109324    0.883080694643346    -25.8467755109324    0.436292720443275    61.9355957972527     
66.5200554943636     0.439596083084231    61.7380751655468     0.881444605592654    -26.0573593328787    0.881444605592654    -26.0573593328787    0.439596083084231    61.7380751655468     
67.1462392376689     0.442912601279557    61.5392475686337     0.879787288585087    -26.2691628362075    0.879787288585087    -26.2691628362075    0.442912601279557    61.5392475686337     
67.7783175352928     0.446242058704682    61.339117914863      0.878108594214194    -26.4821817424652    0.878108594214194    -26.4821817424652    0.446242058704682    61.339117914863      
68.4163458753741     0.449584233032134    61.1376913902327     0.876408376036974    -26.6964114902466    0.876408376036974    -26.6964114902466    0.449584233032134    61.1376913902327     
69.0603802683873     0.452938895922435    60.9349734616617     0.874686490709558    -26.9118472319616    0.874686490709558    -26.9118472319616    0.452938895922435    60.9349734616617     
69.7104772520588     0.456305813019039    60.730969880167      0.872942798124053    -27.1284838306969    0.872942798124053    -27.1284838306969    0.456305813019039    60.730969880167      
70.3666938963308     0.459684743947496    60.5256866839329     0.871177161546462    -27.3463158571857    0.871177161546462    -27.3463158571857    0.459684743947496    60.5256866839329     
71.0290878083708     0.46307544231888     60.3191302012721     0.86938944775554     -27.5653375868835    0.86938944775554     -27.5653375868835    0.46307544231888     60.3191302012721     
71.6977171376289     0.466477655737678    60.1113070534683     0.867579527182478    -27.7855429971637    0.867579527182478    -27.7855429971637    0.466477655737678    60.1113070534683     
72.3726405809429     0.46989112581419     59.9022241574992     0.865747274051307    -28.0069257646317    0.865747274051307    -28.0069257646317    0.46989112581419     59.9022241574992     
73.0539173876904     0.473315588181587    59.6918887286306     0.863892566519868    -28.2294792625671    0.863892566519868    -28.2294792625671    0.473315588181587    59.6918887286306     
73.7416073649908     0.476750772517677    59.4803082828799     0.862015286821173    -28.4531965584967    0.862015286821173    -28.4531965584967    0.476750772517677    59.4803082828799     
74.4357708829553     0.480196402571563    59.2674906393399     0.860115321405088    -28.6780704119066    0.860115321405088    -28.6780704119066    0.480196402571563    59.2674906393399     
75.1364688799866     0.4836521961952      59.0534439223591     0.858192561080122    -28.904093272097     0.858192561080122    -28.904093272097     0.4836521961952      59.0534439223591     
75.8437628681283     0.487117865380004    58.8381765635743     0.856246901155207    -29.131257276185     0.856246901155207    -29.131257276185     0.487117865380004    58.8381765635743     
76.5577149384653     0.490593116298586    58.6216973037862     0.854278241581306    -29.359554247263     0.854278241581306    -29.359554247263     0.490593116298586    58.6216973037862     
77.278387766574      0.494077649351657    58.4040151946772     0.852286487092633    -29.5889756927153    0.852286487092633    -29.5889756927153    0.494077649351657    58.4040151946772     
78.0058446180249     0.497571159220242    58.1851396003635     0.850271547347429    -29.8195128026999    0.850271547347429    -29.8195128026999    0.497571159220242    58.1851396003635     
78.7401493539365     0.501073334923227    57.9650801987752     0.848233337067969    -30.0511564488015    0.848233337067969    -30.0511564488015    0.501073334923227    57.9650801987752     
79.4813664365808     0.504583859880311    57.7438469828629     0.846171776179781    -30.2838971828576    0.846171776179781    -30.2838971828576    0.504583859880311    57.7438469828629     
80.2295609350431     0.508102411980461    57.5214502616206     0.844086789949774    -30.5177252359682    0.844086789949774    -30.5177252359682    0.508102411980461    57.5214502616206     
80.9847985309333     0.51162866365584     57.2979006609258     0.841978309123147    -30.7526305176877    0.841978309123147    -30.7526305176877    0.51162866365584     57.2979006609258     
81.747145524153      0.515162281961346    57.0732091241867     0.839846270058889    -30.9886026154091    0.839846270058889    -30.9886026154091    0.515162281961346    57.0732091241867     
82.5166688387145     0.518702928659735    56.8473869127947     0.837690614863662    -31.2256307939431    0.837690614863662    -31.2256307939431    0.518702928659735    56.8473869127947     
83.293436028617      0.522250260312375    56.6204456063767     0.835511291523873    -31.4637039952958    0.835511291523873    -31.4637039952958    0.522250260312375    56.6204456063767     
84.0775152837761     0.525803928375687    56.3923971028415     0.833308254035783    -31.702810838653     0.833308254035783    -31.702810838653     0.525803928375687    56.3923971028415     
84.8689754360105     0.529363579303197    56.1632536182215     0.831081462533346    -31.9429396205689    0.831081462533346    -31.9429396205689    0.529363579303197    56.1632536182215     
85.6678859650842     0.532928854653332    55.9330276862944     0.828830883413739    -32.1840783153725    0.828830883413739    -32.1840783153725    0.532928854653332    55.9330276862944     
86.474317004806      0.53649939120283     55.7017321579956     0.82655648946022     -32.4262145757853    0.82655648946022     -32.4262145757853    0.53649939120283     55.7017321579956     
87.2883393491865     0.540074821065855    55.4693802006034     0.824258259962185    -32.6693357337645    0.824258259962185    -32.6693357337645    0.540074821065855    55.4693802006034     
88.1100244586526     0.543654771818707    55.235985296704      0.821936180832251    -32.9134288015654    0.821936180832251    -32.9134288015654    0.543654771818707    55.235985296704      
88.9394444663211     0.547238866630179    55.0015612429276     0.819590244720116    -33.1584804730342    0.819590244720116    -33.1584804730342    0.547238866630179    55.0015612429276     
89.7766721843308     0.55082672439744     54.7661221484541     0.817220451122937    -33.404477125128     0.817220451122937    -33.404477125128     0.55082672439744     54.7661221484541     
90.6217811102343     0.55441795988749     54.5296824332836     0.814826806492187    -33.6514048196727    0.814826806492187    -33.6514048196727    0.55441795988749     54.5296824332836     
91.4748454334505     0.558012183883989    54.2922568262751     0.812409324336566    -33.8992493053495    0.812409324336566    -33.8992493053495    0.558012183883989    54.2922568262751     
92.3359400417773     0.561609003339572    54.0538603629415     0.809968025320996    -34.1479960199263    0.809968025320996    -34.1479960199263    0.561609003339572    54.0538603629415     
93.2051405279657     0.565208021533375    53.8145083830092     0.807502937361274    -34.3976300927237    0.807502937361274    -34.3976300927237    0.565208021533375    53.8145083830092     
94.0825231963558     0.568808838233837    53.5742165277321     0.805014095714389    -34.6481363473254    0.805014095714389    -34.6481363473254    0.568808838233837    53.5742165277321     
94.9681650695755     0.572411049866608    53.3330007369637     0.80250154306414     -34.8994993045313    0.80250154306414     -34.8994993045313    0.572411049866608    53.3330007369637     
95.8621438953019     0.57601424968742     53.0908772459861     0.799965329601976    -35.1517031855523    0.799965329601976    -35.1517031855523    0.57601424968742     53.0908772459861     
96.7645381530867     0.579618027959923    52.8478625820886     0.797405513102833    -35.4047319154553    0.797405513102833    -35.4047319154553    0.579618027959923    52.8478625820886     
97.6754270612454     0.583221972138159    52.6039735609082     0.794822158995738    -35.6585691268461    0.794822158995738    -35.6585691268461    0.583221972138159    52.6039735609082     
98.5948905838117     0.58682566705377     52.3592272825162     0.792215340429076    -35.9131981638056    0.792215340429076    -35.9131981638056    0.58682566705377     52.3592272825162     
99.5230094375578     0.590428695107569    52.1136411272645     0.789585138330318    -36.1686020860649    0.789585138330318    -36.1686020860649    0.590428695107569    52.1136411272645     
100.459865099079     0.594030636465442    51.8672327513854     0.78693164146        -36.4247636734287    0.78693164146        -36.4247636734287    0.594030636465442    51.8672327513854     
101.405539811949     0.597631069258395    51.6200200823455     0.784254946459859    -36.6816654304412    0.784254946459859    -36.6816654304412    0.597631069258395    51.6200200823455     
102.360116593935     0.601229569786519    51.3720213139583     0.781555157894903    -36.9392895912955    0.781555157894903    -36.9392895912955    0.601229569786519    51.3720213139583     
103.323679244291     0.604825712726701    51.1232549012571     0.77883238828931     -37.1976181249805    0.77883238828931     -37.1976181249805    0.604825712726701    51.1232549012571     
104.29631235111      0.608419071343926    50.8737395551234     0.776086758156048    -37.4566327406721    0.776086758156048    -37.4566327406721    0.608419071343926    50.8737395551234     
105.278101298753     0.612009217705888    50.6234942366851     0.773318396019962    -37.7163148933551    0.773318396019962    -37.7163148933551    0.612009217705888    50.6234942366851     
106.269132275342     0.61559572290074     50.3725381514755     0.770527438434318    -37.9766457896822    0.770527438434318    -37.9766457896822    0.61559572290074     50.3725381514755     
107.269492280327     0.619178157257762    50.1208907433633     0.76771402999066     -38.2376063940629    0.76771402999066     -38.2376063940629    0.619178157257762    50.1208907433633     
108.279269132126     0.622756090570673    49.8685716882554     0.764878323321867    -38.4991774349786    0.764878323321867    -38.4991774349786    0.622756090570673    49.8685716882554     
109.298551475829     0.626329092323385    49.6156008875756     0.762020479098245    -38.7613394115206    0.762020479098245    -38.7613394115206    0.626329092323385    49.6156008875756     
110.327428790983     0.629896731917905    49.3619984615255     0.75914066601674     -39.0240726001467    0.75914066601674     -39.0240726001467    0.629896731917905    49.3619984615255     
111.36599139945      0.633458578904218    49.1077847421278     0.75623906078298     -39.287357061654     0.75623906078298     -39.287357061654     0.633458578904218    49.1077847421278     
112.414330473331     0.637014203211768    48.8529802660624     0.753315848086268    -39.5511726483579    0.753315848086268    -39.5511726483579    0.637014203211768    48.8529802660624     
113.47253804297      0.640563175382373    48.5976057672975     0.750371220567375    -39.8154990114774    0.750371220567375    -39.8154990114774    0.640563175382373    48.5976057672975     
114.540707005037     0.644105066804234    48.3416821695225     0.747405378779051    -40.0803156087159    0.747405378779051    -40.0803156087159    0.644105066804234    48.3416821695225     
115.618931130682     0.647639449946795    48.0852305783879     0.744418531139372    -40.3456017120354    0.744418531139372    -40.3456017120354    0.647639449946795    48.0852305783879     
116.707305073763     0.651165898596176    47.8282722735591     0.741410893877753    -40.611336415617     0.741410893877753    -40.611336415617     0.651165898596176    47.8282722735591     
117.80592437916      0.654683988090848    47.5708287005914     0.73838269097369     -40.8774986439982    0.73838269097369     -40.8774986439982    0.654683988090848    47.5708287005914     
118.91488549116      0.658193295557322    47.3129214626329     0.735334154088228    -41.1440671603828    0.735334154088228    -41.1440671603828    0.658193295557322    47.3129214626329     
120.034285761923     0.661693400145525    47.0545723119604     0.732265522488193    -41.4110205751164    0.732265522488193    -41.4110205751164    0.661693400145525    47.0545723119604     
121.164223460032     0.665183883263565    46.7958031413612     0.729177042963148    -41.6783373543161    0.729177042963148    -41.6783373543161    0.665183883263565    46.7958031413612     
122.304797779115     0.668664328811586    46.5366359753656     0.726068969735218    -41.9459958286487    0.726068969735218    -41.9459958286487    0.668664328811586    46.5366359753656     
123.456108846558     0.672134323414522    46.2770929613317     0.722941564361725    -42.2139742022558    0.722941564361725    -42.2139742022558    0.672134323414522    46.2770929613317     
124.618257732287     0.675593456653209    46.0171963604105     0.719795095630838    -42.4822505617978    0.719795095630838    -42.4822505617978    0.675593456653209    46.0171963604105     
125.791346457651     0.679041321293894    45.7569685383734     0.716629839450169    -42.7508028856358    0.716629839450169    -42.7508028856358    0.679041321293894    45.7569685383734     
126.975478004368     0.682477513515537    45.4964319563347     0.713446078728508    -43.0196090531165    0.713446078728508    -43.0196090531165    0.682477513515537    45.4964319563347     
128.170756323574     0.685901633134816    45.235609161365      0.710244103250799    -43.2886468539667    0.710244103250799    -43.2886468539667    0.685901633134816    45.235609161365      
129.377286344941     0.689313283828467    44.9745227770086     0.707024209546409    -43.5578939977826    0.707024209546409    -43.5578939977826    0.689313283828467    44.9745227770086     
130.595173985895     0.692712073352697    44.7131954937135     0.703786700750888    -43.8273281236058    0.703786700750888    -43.8273281236058    0.692712073352697    44.7131954937135     
131.82452616091      0.696097613759347    44.4516500591887     0.700531886461344    -44.0969268095718    0.700531886461344    -44.0969268095718    0.696097613759347    44.4516500591887     
133.065450790895     0.699469521608612    44.189909268689      0.697260082585523    -44.3666675826293    0.697260082585523    -44.3666675826293    0.699469521608612    44.189909268689      
134.318056812667     0.70282741817796     43.9279959552472     0.693971611184904    -44.6365279283127    0.693971611184904    -44.6365279283127    0.70282741817796     43.9279959552472     
135.582454188517     0.706170929667034    43.665932979858      0.690666800311792    -44.9064853005606    0.690666800311792    -44.9064853005606    0.706170929667034    43.665932979858      
136.85875391586      0.709499687398266    43.4037432216264     0.687345983840781    -45.176517131571     0.687345983840781    -45.176517131571     0.709499687398266    43.4037432216264     
138.147068036981     0.712813328012956    43.1414495678885     0.684009501294636    -45.4466008416815    0.684009501294636    -45.4466008416815    0.712813328012956    43.1414495678885     
139.44750964887      0.716111493662544    42.8790749043195     0.680657697664921    -45.7167138492626    0.680657697664921    -45.7167138492626    0.716111493662544    42.8790749043195     
140.760192913152     0.71939383219492     42.6166421050312     0.67729092322745     -45.9868335806204    0.67729092322745     -45.9868335806204    0.71939383219492     42.6166421050312     
142.085233066105     0.722659997335402    42.3541740226821     0.673909533352967    -46.2569374798861    0.673909533352967    -46.2569374798861    0.722659997335402    42.3541740226821     
143.422746428783     0.725909648862328    42.091693478595      0.670513888313093    -46.5270030188961    0.670513888313093    -46.5270030188961    0.725909648862328    42.091693478595      
144.772850417218     0.729142452776947    41.8292232529059     0.667104353081946    -46.7970077070423    0.667104353081946    -46.7970077070423    0.729142452776947    41.8292232529059     
146.135663552738     0.73235808146741     41.5667860747471     0.663681297133548    -47.0669291010847    0.663681297133548    -47.0669291010847    0.73235808146741     41.5667860747471     
147.511305472364     0.735556213866756    41.3044046124768     0.660245094235389    -47.3367448149183    0.660245094235389    -47.3367448149183    0.735556213866756    41.3044046124768     
148.899896939314     0.738736535604623    41.0421014639647     0.656796122238333    -47.6064325292825    0.656796122238333    -47.6064325292825    0.738736535604623    41.0421014639647     
150.301559853609     0.741898739152577    40.7798991469456     0.653334762863159    -47.8759700014021    0.653334762863159    -47.8759700014021    0.741898739152577    40.7798991469456     
151.716417262766     0.745042523962881    40.5178200894473     0.649861401483997    -48.1453350745517    0.649861401483997    -48.1453350745517    0.745042523962881    40.5178200894473     
153.144593372609     0.74816759660056     40.2558866203073     0.646376426908968    -48.4145056875322    0.646376426908968    -48.4145056875322    0.74816759660056     40.2558866203073     
154.586213558166     0.75127367086867     39.9941209597819     0.642880231158253    -48.6834598840527    0.642880231158253    -48.6834598840527    0.75127367086867     39.9941209597819     
156.041404374678     0.754360467926579    39.7325452102643     0.639373209239956    -48.9521758220027    0.639373209239956    -48.9521758220027    0.754360467926579    39.7325452102643     
157.510293568708     0.75742771640123     39.4711813471147     0.635855758923945    -49.2206317826111    0.635855758923945    -49.2206317826111    0.75742771640123     39.4711813471147     
158.993010089357     0.760475152491264    39.2100512096131     0.632328280514016    -49.4888061794822    0.632328280514016    -49.4888061794822    0.760475152491264    39.2100512096131     
160.489684099582     0.763502520063904    38.9491764920459     0.62879117661872     -49.756677567495     0.62879117661872     -49.756677567495     0.763502520063904    38.9491764920459     
162.000446987624     0.766509570744565    38.6885787349332     0.625244851921007    -50.0242246515635    0.625244851921007    -50.0242246515635    0.766509570744565    38.6885787349332     
163.525431378541     0.769496063999117    38.428279316403      0.621689712947125    -50.2914262952461    0.621689712947125    -50.2914262952461    0.769496063999117    38.428279316403      
165.064771145852     0.772461767208768    38.1682994437242     0.618126167834928    -50.558261529197     0.618126167834928    -50.558261529197     0.772461767208768    38.1682994437242     
166.61860142329      0.775406455737536    37.9086601450028     0.61455462610202     -50.8247095594519    0.61455462610202     -50.8247095594519    0.775406455737536    37.9086601450028     
168.18705861666      0.778329912992293    37.64938226105       0.610975498413854    -51.0907497755418    0.610975498413854    -51.0907497755418    0.778329912992293    37.64938226105       
169.770280415821     0.781231930475388    37.3904864374292     0.607389196352255    -51.3563617584255    0.607389196352255    -51.3563617584255    0.781231930475388    37.3904864374292     
171.368405806769     0.784112307829833    37.1319931166892     0.603796132184485    -51.6215252882354    0.603796132184485    -51.6215252882354    0.784112307829833    37.1319931166892     
172.981575083837     0.786970852877106    36.8739225307888     0.600196718633215    -51.8862203518304    0.600196718633215    -51.8862203518304    0.786970852877106    36.8739225307888     
174.609929862014     0.789807381647596    36.6162946937179     0.596591368647657    -52.1504271501497    0.596591368647657    -52.1504271501497    0.789807381647596    36.6162946937179     
176.253613089376     0.792621718403697    36.3591293943259     0.592980495176121    -52.4141261053607    0.592980495176121    -52.4141261053607    0.792621718403697    36.3591293943259     
177.912769059634     0.795413695655696    36.102446189354      0.589364510940233    -52.6772978677983    0.589364510940233    -52.6772978677983    0.795413695655696    36.102446189354      
179.587543424804     0.798183154170415    35.8462643966863     0.585743828211132    -52.939923322686     0.585743828211132    -52.939923322686     0.798183154170415    35.8462643966863     
181.278083207986     0.800929942972758    35.5906030888176     0.582118858587824    -53.2019835966384    0.582118858587824    -53.2019835966384    0.800929942972758    35.5906030888176     
182.984536816282     0.803653919340273    35.3354810865418     0.578490012777978    -53.4634600639411    0.578490012777978    -53.4634600639411    0.803653919340273    35.3354810865418     
184.707054053814     0.806354948790731    35.0809169528702     0.574857700381396    -53.7243343525991    0.574857700381396    -53.7243343525991    0.806354948790731    35.0809169528702     
186.44578613488      0.809032905062938    34.8269289871793     0.57122232967637     -53.9845883501545    0.57122232967637     -53.9845883501545    0.809032905062938    34.8269289871793     
188.200885697227     0.811687670090854    34.5735352195885     0.567584307409156    -54.2442042092719    0.567584307409156    -54.2442042092719    0.811687670090854    34.5735352195885     
189.972506815451     0.814319133971112    34.3207534055803     0.563944038586779    -54.5031643530803    0.563944038586779    -54.5031643530803    0.814319133971112    34.3207534055803     
191.760805014524     0.816927194924176    34.0686010208509     0.56030192627336     -54.7614514802821    0.56030192627336     -54.7614514802821    0.816927194924176    34.0686010208509     
193.565937283444     0.819511759249156    33.8170952564085     0.556658371390168    -55.019048570013     0.556658371390168    -55.019048570013     0.819511759249156    33.8170952564085     
195.38806208902      0.822072741272547    33.566253013908      0.553013772519599    -55.275938886463     0.553013772519599    -55.275938886463     0.822072741272547    33.566253013908      
197.22733938978      0.824610063290968    33.3160909012336     0.549368525713205    -55.5321059832483    0.549368525713205    -55.5321059832483    0.824610063290968    33.3160909012336     
199.083930650016     0.827123655508136    33.0666252283202     0.545723024304002    -55.7875337075414    0.545723024304002    -55.7875337075414    0.827123655508136    33.0666252283202     
200.957998853957     0.829613455966193    32.8178720032243     0.542077658723169    -56.0422062039501    0.542077658723169    -56.0422062039501    0.829613455966193    32.8178720032243     
202.849708520077     0.832079410471596    32.5698469284377     0.538432816321314    -56.296107918152     0.538432816321314    -56.296107918152     0.832079410471596    32.5698469284377     
204.759225715538     0.834521472515747    32.3225653974452     0.53478888119442     -56.5492236002815    0.53478888119442     -56.5492236002815    0.834521472515747    32.3225653974452     
206.686718070768     0.836939603190552    32.0760424915282     0.531146234014607    -56.8015383080693    0.531146234014607    -56.8015383080693    0.836939603190552    32.0760424915282     
208.632354794177     0.839333771099104    31.8302929768107     0.527505251865842    -57.0530374097378    0.527505251865842    -57.0530374097378    0.839333771099104    31.8302929768107     
210.596306687012     0.841703952261692    31.5853313015465     0.523866308084656    -57.3037065866508    0.523866308084656    -57.3037065866508    0.841703952261692    31.5853313015465     
212.578746158349     0.844050130017301    31.3411715936504     0.520229772106042    -57.5535318357185    0.520229772106042    -57.5535318357185    0.844050130017301    31.3411715936504     
214.57984724023      0.84637229492088     31.0978276584652     0.516596009314543    -57.8024994715637    0.516596009314543    -57.8024994715637    0.84637229492088     31.0978276584652     
216.599785602942     0.848670444636491    30.8553129767673     0.512965380900648    -58.0505961284458    0.512965380900648    -58.0505961284458    0.848670444636491    30.8553129767673     
218.638738570434     0.850944583826636    30.6136407030066     0.509338243722556    -58.2978087619481    0.509338243722556    -58.2978087619481    0.850944583826636    30.6136407030066     
220.696885135889     0.853194724037886    30.3728236637794     0.505714950173362    -58.5441246504301    0.505714950173362    -58.5441246504301    0.853194724037886    30.3728236637794     
222.774405977434     0.855420883583094    30.1328743565287     0.502095848053698    -58.7895313962471    0.502095848053698    -58.7895313962471    0.855420883583094    30.1328743565287     
224.871483474        0.857623087420344    29.8938049484738     0.498481280449924    -59.0340169267403    0.498481280449924    -59.0340169267403    0.857623087420344    29.8938049484738     
226.988301721338     0.859801367028897    29.6556272757584     0.494871585617788    -59.2775694950025    0.494871585617788    -59.2775694950025    0.859801367028897    29.6556272757584     
229.125046548173     0.86195576028228     29.4183528428229     0.491267096871708    -59.5201776804179    0.491267096871708    -59.5201776804179    0.86195576028228     29.4183528428229     
231.281905532524     0.864086311318802    29.1819928219882     0.487668142479555    -59.7618303889862    0.487668142479555    -59.7618303889862    0.864086311318802    29.1819928219882     
233.459068018166     0.866193070409627    28.9465580532539     0.48407504556306     -60.0025168534294    0.48407504556306     -60.0025168534294    0.866193070409627    28.9465580532539     
235.656725131254     0.868276093824664    28.7120590443021     0.480488124003732    -60.2422266330875    0.480488124003732    -60.2422266330875    0.868276093824664    28.7120590443021     
237.875069797101     0.87033544369646     28.4785059707057     0.476907690354351    -60.4809496136086    0.476907690354351    -60.4809496136086    0.87033544369646     28.4785059707057     
240.114296757115     0.872371187882276    28.2459086763342     0.473334051755963    -60.7186760064353    0.473334051755963    -60.7186760064353    0.872371187882276    28.2459086763342     
242.374602585892     0.874383399824587    28.0142766739541     0.469767509860363    -60.9553963480927    0.469767509860363    -60.9553963480927    0.874383399824587    28.0142766739541     
244.656185708477     0.87637215841014     27.7836191460197     0.466208360758049    -61.1911014992829    0.466208360758049    -61.1911014992829    0.87637215841014     27.7836191460197     
246.959246417781     0.878337547827838    27.5539449456451     0.462656894911542    -61.425782643793     0.462656894911542    -61.425782643793     0.878337547827838    27.5539449456451     
249.283986892161     0.880279657425558    27.3252625977593     0.459113397094105    -61.6594312872141    0.459113397094105    -61.6594312872141    0.880279657425558    27.3252625977593     
251.630611213174     0.882198581566151    27.0975803004326     0.455578146333712    -61.8920392554878    0.455578146333712    -61.8920392554878    0.882198581566151    27.0975803004326     
253.99932538349      0.884094419482766    26.8709059263741     0.452051415862273    -62.1235986932727    0.452051415862273    -62.1235986932727    0.884094419482766    26.8709059263741     
256.390337344975     0.885967275133682    26.6452470245907     0.44853347307        -62.3541020621463    0.44853347307        -62.3541020621463    0.885967275133682    26.6452470245907     
258.803856996947     0.887817257056835    26.4206108222075     0.445024579464864    -62.5835421386408    0.445024579464864    -62.5835421386408    0.887817257056835    26.4206108222075     
261.240096214606     0.889644478224179    26.1970042264379     0.441524990637047    -62.8119120121217    0.441524990637047    -62.8119120121217    0.889644478224179    26.1970042264379     
263.699268867626     0.891449055896069    25.9744338267042     0.438034956228296    -63.0392050825119    0.438034956228296    -63.0392050825119    0.891449055896069    25.9744338267042     
266.181590838936     0.893231111475798    25.7529058968978     0.434554719906117    -63.265415057869     0.434554719906117    -63.265415057869     0.893231111475798    25.7529058968978     
268.68728004367      0.89499077036447     25.5324263977771     0.431084519342673    -63.4905359518198    0.431084519342673    -63.4905359518198    0.89499077036447     25.5324263977771     
271.216556448296     0.896728161816308    25.3130009794983     0.427624586198327    -63.714562080855     0.427624586198327    -63.714562080855     0.896728161816308    25.3130009794983     
273.769642089927     0.898443418794609    25.0946349842666     0.424175146109687    -63.9374880614967    0.424175146109687    -63.9374880614967    0.898443418794609    25.0946349842666     
276.346761095815     0.900136677828394    24.8773334491128     0.420736418682089    -64.1593088073334    0.420736418682089    -64.1593088073334    0.900136677828394    24.8773334491128     
278.948139703022     0.901808078869967    24.6611011087815     0.417308617486364    -64.3800195259375    0.417308617486364    -64.3800195259375    0.901808078869967    24.6611011087815     
281.574006278285     0.903457765153436    24.445942398729      0.413891950059817    -64.599615715663     0.413891950059817    -64.599615715663     0.903457765153436    24.445942398729      
284.224591338061     0.905085883054379    24.2318614582241     0.410486617911281    -64.8180931623361    0.410486617911281    -64.8180931623361    0.905085883054379    24.2318614582241     
286.900127568764     0.906692581950724    24.0188621335474     0.40709281653012     -65.035447935836     0.40709281653012     -65.035447935836     0.906692581950724    24.0188621335474     
289.60084984719      0.908278014084946    23.8069479812848     0.403710735399111    -65.251676386575     0.403710735399111    -65.251676386575     0.908278014084946    23.8069479812848     
292.326995261141     0.909842334427749    23.5961222717047     0.40034055801101     -65.466775141885     0.40034055801101     -65.466775141885     0.909842334427749    23.5961222717047     
295.078803130233     0.91138570054323     23.3863879922216     0.39698246188875     -65.6807411023102    0.39698246188875     -65.6807411023102    0.91138570054323     23.3863879922216     
297.856515026908     0.912908272455712    23.1777478509335     0.393636618609111    -65.8935714378142    0.393636618609111    -65.8935714378142    0.912908272455712    23.1777478509335     
300.660374797639     0.914410212518266    22.9702042802322     0.390303193829752    -66.1052635839062    0.390303193829752    -66.1052635839062    0.914410212518266    22.9702042802322     
303.490628584338     0.91589168528303     22.7637594404813     0.386982347319472    -66.3158152376883    0.386982347319472    -66.3158152376883    0.91589168528303     22.7637594404813     
306.347524845965     0.917352857373414    22.5584152237535     0.38367423299159     -66.5252243538342    0.38367423299159     -66.5252243538342    0.917352857373414    22.5584152237535     
309.231314380335     0.918793897358211    22.3541732576275     0.380378998940308    -66.733489140494     0.380378998940308    -66.733489140494     0.918793897358211    22.3541732576275     
312.14225034614      0.920214975627752    22.1510349090352     0.377096787479942    -66.9406080551414    0.377096787479942    -66.9406080551414    0.920214975627752    22.1510349090352     
315.080588285171     0.92161626427209     21.9490012881567     0.373827735186886    -67.1465798003575    0.373827735186886    -67.1465798003575    0.92161626427209     21.9490012881567     
318.046586144749     0.922997936961324    21.7480732523586     0.370571972944213    -67.3514033195606    0.370571972944213    -67.3514033195606    0.922997936961324    21.7480732523586     
321.040504300371     0.924360168828082    21.5482514101703     0.367329625988747    -67.555077792684     0.367329625988747    -67.555077792684     0.924360168828082    21.5482514101703     
324.062605578571     0.92570313635223     21.3495361252931     0.364100813960541    -67.7576026318074    0.364100813960541    -67.7576026318074    0.92570313635223     21.3495361252931     
327.113155279986     0.927027017247818    21.1519275206408     0.360885650954577    -67.9589774767437    0.360885650954577    -67.9589774767437    0.927027017247818    21.1519275206408     
330.192421202652     0.928331990352339    20.9554254824043     0.357684245574635    -68.1592021905846    0.357684245574635    -68.1592021905846    0.928331990352339    20.9554254824043     
333.300673665509     0.929618235518287    20.7600296641383     0.354496700989168    -68.3582768552105    0.354496700989168    -68.3582768552105    0.929618235518287    20.7600296641383     
336.438185532134     0.930885933507094    20.5657394908646     0.351323114989085    -68.5562017667669    0.351323114989085    -68.5562017667669    0.930885933507094    20.5657394908646     
339.605232234691     0.932135265885413    20.3725541631901     0.348163580047322    -68.7529774311088    0.348163580047322    -68.7529774311088    0.932135265885413    20.3725541631901     
342.802091798118     0.933366414923815    20.1804726614333     0.345018183380098    -68.9486045592195    0.345018183380098    -68.9486045592195    0.933366414923815    20.1804726614333     
346.029044864524     0.934579563497889    19.9894937497578     0.341887007009746    -69.1430840626027    0.341887007009746    -69.1430840626027    0.934579563497889    19.9894937497578     
349.286374717834     0.935774894991757    19.7996159803087     0.338770127828985    -69.336417048654     0.338770127828985    -69.336417048654     0.935774894991757    19.7996159803087     
352.574367308654     0.936952593204027    19.6108376973479     0.335667617666577    -69.5286048160123    0.335667617666577    -69.5286048160123    0.936952593204027    19.6108376973479     
355.893311279372     0.938112842256179    19.4231570413859     0.332579543354215    -69.7196488498931    0.332579543354215    -69.7196488498931    0.938112842256179    19.4231570413859     
359.2434979895       0.939255826503383    19.2365719533054     0.329505966794568    -69.9095508174087    0.329505966794568    -69.9095508174087    0.939255826503383    19.2365719533054     
362.625221541253     0.94038173044775     19.0510801784771     0.32644694503038     -70.0983125628725    0.32644694503038     -70.0983125628725    0.94038173044775     19.0510801784771     
366.038778805361     0.941490738654024    18.8666792708605     0.323402530314524    -70.2859361030945    0.323402530314524    -70.2859361030945    0.941490738654024    18.8666792708605     
369.484469447135     0.942583035667683    18.6833665970892     0.320372770180911    -70.4724236226662    0.320372770180911    -70.4724236226662    0.942583035667683    18.6833665970892     
372.962595952775     0.94365880593545     18.5011393405396     0.317357707516182    -70.6577774692361    0.317357707516182    -70.6577774692361    0.94365880593545     18.5011393405396     
376.473463655921     0.944718233728225    18.3199945053766     0.314357380632068    -70.8420001487802    0.314357380632068    -70.8420001487802    0.944718233728225    18.3199945053766     
380.017380764456     0.945761503066378    18.1399289205759     0.311371823338346    -71.0250943208662    0.311371823338346    -71.0250943208662    0.945761503066378    18.1399289205759     
383.594658387569     0.946788797647409    17.9609392439229     0.308401065016307    -71.2070627939111    0.308401065016307    -71.2070627939111    0.946788797647409    17.9609392439229     
387.205610563058     0.947800300775977    17.7830219659809     0.305445130692655    -71.3879085204375    0.305445130692655    -71.3879085204375    0.947800300775977    17.7830219659809     
390.850554284907     0.948796195296217    17.6061734140313     0.302504041113753    -71.5676345923233    0.302504041113753    -71.5676345923233    0.948796195296217    17.6061734140313     
394.529809531106     0.949776663526397    17.43038975598       0.299577812820132    -71.7462442360506    0.299577812820132    -71.7462442360506    0.949776663526397    17.43038975598       
398.243699291747     0.950741887195819    17.255667004231      0.296666458221229    -71.9237408079502    0.296666458221229    -71.9237408079502    0.950741887195819    17.255667004231      
401.992549597372     0.951692047383981    17.082001019525      0.293769985670216    -72.1001277894421    0.293769985670216    -72.1001277894421    0.951692047383981    17.082001019525      
405.776689547602     0.952627324461955    16.9093875147382     0.290888399538922    -72.2754087822747    0.290888399538922    -72.2754087822747    0.952627324461955    16.9093875147382     
409.596451340021     0.953547898035957    16.7378220586441     0.288021700292735    -72.4495875037583    0.288021700292735    -72.4495875037583    0.953547898035957    16.7378220586441     
413.452170299342     0.954453946893065    16.5673000796343     0.285169884565429    -72.6226677819939    0.285169884565429    -72.6226677819939    0.954453946893065    16.5673000796343     
417.344184906842     0.955345648949064    16.3978168693972     0.282332945233883    -72.7946535510976    0.282332945233883    -72.7946535510976    0.955345648949064    16.3978168693972     
421.272836830078     0.956223181198381    16.2293675865532     0.279510871492603    -72.965548846417     0.279510871492603    -72.965548846417     0.956223181198381    16.2293675865532     
425.23847095288      0.957086719666082    16.0619472602463     0.27670364892799     -73.1353577997407    0.27670364892799     -73.1353577997407    0.957086719666082    16.0619472602463     
429.241435405627     0.957936439361862    15.8955507936895     0.273911259592334    -73.3040846344962    0.273911259592334    -73.3040846344962    0.957936439361862    15.8955507936895     
433.28208159581      0.958772514236045    15.7301729676635     0.271133682077452    -73.471733660938     0.271133682077452    -73.471733660938     0.958772514236045    15.7301729676635     
437.360764238878     0.95959511713751     15.5658084439685     0.268370891587928    -73.6383092713209    0.268370891587928    -73.6383092713209    0.95959511713751     15.5658084439685     
441.477841389381     0.960404419773524    15.4024517688271     0.265622860013923    -73.803815935057     0.265622860013923    -73.803815935057     0.960404419773524    15.4024517688271     
445.633674472397     0.961200592671445    15.2400973762384     0.262889556003492    -73.9682581938537    0.262889556003492    -73.9682581938537    0.961200592671445    15.2400973762384     
449.828628315268     0.961983805142249    15.0787395912808     0.260170945034387    -74.1316406568307    0.260170945034387    -74.1316406568307    0.961983805142249    15.0787395912808     
454.063071179619     0.962754225245842    14.9183726333665     0.257466989485287    -74.29396799561      0.257466989485287    -74.29396799561      0.962754225245842    14.9183726333665     
458.337374793693     0.963512019758123    14.7589906194432     0.254777648706432    -74.4552449393784    0.254777648706432    -74.4552449393784    0.963512019758123    14.7589906194432     
462.651914384981     0.964257354139749    14.600587567144      0.252102879089627    -74.6154762699162    0.252102879089627    -74.6154762699162    0.964257354139749    14.600587567144      
467.007068713159     0.964990392506568    14.4431573978865     0.249442634137566    -74.7746668165897    0.249442634137566    -74.7746668165897    0.964990392506568    14.4431573978865     
471.403220103346     0.965711297601676    14.2866939399179     0.246796864532465    -74.9328214513007    0.246796864532465    -74.9328214513007    0.965711297601676    14.2866939399179     
475.84075447966      0.966420230769059    14.131190931309      0.244165518203975    -75.089945083389     0.244165518203975    -75.089945083389     0.966420230769059    14.131190931309      
480.320061399098     0.967117351928777    13.9766420228929     0.241548540396328    -75.2460426544837    0.241548540396328    -75.2460426544837    0.967117351928777    13.9766420228929     
484.841534085738     0.967802819553651    13.8230407811529     0.238945873734711    -75.4011191332944    0.238945873734711    -75.4011191332944    0.967802819553651    13.8230407811529     
489.405569465256     0.968476790647415    13.6703806910554     0.236357458290846    -75.5551795103384    0.236357458290846    -75.5551795103384    0.968476790647415    13.6703806910554     
494.012568199768     0.969139420724284    13.5186551588294     0.23378323164773     -75.7082287925959    0.23378323164773     -75.7082287925959    0.969139420724284    13.5186551588294     
498.66293472301      0.969790863789909    13.3678575146931     0.231223128963547    -75.8602719980861    0.231223128963547    -75.8602719980861    0.969790863789909    13.3678575146931     
503.357077275837     0.97043127232367     13.2179810155275     0.228677083034719    -76.0113141503555    0.228677083034719    -76.0113141503555    0.97043127232367     13.2179810155275     
508.095407942061     0.971060797262274    13.0690188474939     0.226145024358072    -76.1613602728712    0.226145024358072    -76.1613602728712    0.971060797262274    13.0690188474939     
512.878342684627     0.971679587984606    12.9209641286019     0.223626881192125    -76.3104153833081    0.223626881192125    -76.3104153833081    0.971679587984606    12.9209641286019     
517.706301382132     0.972287792297822    12.7738099112208     0.221122579617454    -76.4584844877224    0.221122579617454    -76.4584844877224    0.972287792297822    12.7738099112208     
522.57970786568      0.972885556424605    12.6275491845397     0.218632043596168    -76.6055725745978    0.218632043596168    -76.6055725745978    0.972885556424605    12.6275491845397     
527.498989956094     0.973473024991577    12.4821748769747     0.216155195030435    -76.7516846087557    0.216155195030435    -76.7516846087557    0.973473024991577    12.4821748769747     
532.464579501467     0.974050341018832    12.3376798585225     0.21369195382008     -76.896825525116     0.21369195382008     -76.896825525116     0.974050341018832    12.3376798585225     
537.47691241508      0.974617645910511    12.1940569430635     0.211242237919248    -77.0410002222936    0.211242237919248    -77.0410002222936    0.974617645910511    12.1940569430635     
542.536428713662     0.975175079446443    12.0512988906105     0.208805963392109    -77.1842135560207    0.208805963392109    -77.1842135560207    0.975175079446443    12.0512988906105     
547.643572556021     0.975722779774765    11.9093984095077     0.206383044467604    -77.3264703323745    0.206383044467604    -77.3264703323745    0.975722779774765    11.9093984095077     
552.798792282037     0.976260883405506    11.7683481585785     0.20397339359326     -77.467775300797     0.20397339359326     -77.467775300797     0.976260883405506    11.7683481585785     
558.002540452018     0.976789525205109    11.6281407492207     0.201576921487998    -77.6081331468892    0.201576921487998    -77.6081331468892    0.976789525205109    11.6281407492207     
563.25527388643      0.977308838391834    11.4887687474532     0.199193537194017    -77.7475484849591    0.199193537194017    -77.7475484849591    0.977308838391834    11.4887687474532     
568.557453705997     0.977818954532028    11.3502246759114     0.196823148127697    -77.8860258503047    0.196823148127697    -77.8860258503047    0.977818954532028    11.3502246759114     
573.909545372185     0.978320003537218    11.2125010157941     0.194465660129539    -78.0235696912075    0.194465660129539    -78.0235696912075    0.978320003537218    11.2125010157941     
579.312018728064     0.978812113661991    11.0755902087603     0.19212097751314     -78.1601843606169    0.19212097751314     -78.1601843606169    0.978812113661991    11.0755902087603     
584.765348039547     0.979295411502644    10.9394846587792     0.189789003113217    -78.2958741074944    0.189789003113217    -78.2958741074944    0.979295411502644    10.9394846587792     
590.270012037034     0.979770021996561    10.8041767339301     0.187469638332651    -78.4306430677951    0.187469638332651    -78.4306430677951    0.979770021996561    10.8041767339301     
595.826493957431     0.98023606842228     10.6696587681566     0.185162783188604    -78.5644952550521    0.185162783188604    -78.5644952550521    0.98023606842228     10.6696587681566     
601.435281586575     0.980693672400235    10.5359230629737     0.182868336357664    -78.6974345505348    0.182868336357664    -78.6974345505348    0.980693672400235    10.5359230629737     
607.096867302055     0.981142953894141    10.4029618891275     0.180586195220047    -78.8294646929444    0.180586195220047    -78.8294646929444    0.981142953894141    10.4029618891275     
612.811748116433     0.981584031212977    10.2707674882107     0.178316255902872    -78.9605892676091    0.178316255902872    -78.9605892676091    0.981584031212977    10.2707674882107     
618.580425720882     0.982017021013555    10.1393320742322     0.176058413322483    -79.0908116951362    0.176058413322483    -79.0908116951362    0.982017021013555    10.1393320742322     
624.403406529221     0.982442038303644    10.0086478351426     0.173812561225872    -79.2201352194812    0.173812561225872    -79.2201352194812    0.982442038303644    10.0086478351426     
630.281201722375     0.982859196445626    9.87870693431532     0.171578592231147    -79.3485628953786    0.171578592231147    -79.3485628953786    0.982859196445626    9.87870693431532     
636.214327293248     0.983268607160628    9.74950151198532     0.169356397867126    -79.4760975750887    0.169356397867126    -79.4760975750887    0.983268607160628    9.74950151198532     
642.203304092024     0.98367038053317     9.62102368664475     0.167145868612004    -79.6027418943976    0.167145868612004    -79.6027418943976    0.98367038053317     9.62102368664475     
648.248657871885     0.984064625016216    9.49326555639661     0.164946893931142    -79.7284982578115    0.164946893931142    -79.7284982578115    0.984064625016216    9.49326555639661     
654.350919335171     0.984451447436682    9.36621920026741     0.162759362313966    -79.8533688228766    0.162759362313966    -79.8533688228766    0.984451447436682    9.36621920026741     
660.510624179964     0.984830953001336    9.23987667947932     0.160583161310011    -79.9773554835494    0.160583161310011    -79.9773554835494    0.984830953001336    9.23987667947932     
666.728313147121     0.985203245303068    9.11423003868162     0.158418177564067    -80.1004598525381    0.158418177564067    -80.1004598525381    0.985203245303068    9.11423003868162     
673.004532067737     0.985568426327526    8.98927130714401     0.156264296850527    -80.2226832425259    0.156264296850527    -80.2226832425259    0.985568426327526    8.98927130714401     
679.339831911065     0.985926596460081    8.8649924999101      0.154121404106854    -80.3440266461792    0.154121404106854    -80.3440266461792    0.985926596460081    8.8649924999101      
685.734768832886     0.986277854493105    8.74138561891401     0.151989383466254    -80.464490714836     0.151989383466254    -80.464490714836     0.986277854493105    8.74138561891401     
692.189904224329     0.986622297633529    8.61844265405841     0.149868118289508    -80.5840757357571    0.149868118289508    -80.5840757357571    0.986622297633529    8.61844265405841     
698.705804761154     0.9869600215107      8.49615558425735     0.147757491196032    -80.7027816078128    0.147757491196032    -80.7027816078128    0.9869600215107      8.49615558425735     
705.283042453501     0.987291120184452    8.37451637844222     0.145657384094139    -80.8206078154656    0.145657384094139    -80.8206078154656    0.987291120184452    8.37451637844222     
711.922194696102     0.987615686153445    8.2535169965321      0.143567678210527    -80.9375534008952    0.143567678210527    -80.9375534008952    0.987615686153445    8.2535169965321      
718.62384431897      0.98793381036369     8.1331493903707      0.14148825411902     -81.0536169340931    0.14148825411902     -81.0536169340931    0.98793381036369     8.1331493903707      
725.388579638565     0.98824558221729     8.01340550462812     0.139418991768556    -81.1687964807431    0.139418991768556    -81.1687964807431    0.98824558221729     8.01340550462812     
732.216994509439     0.988551089581349    7.89427727766957     0.137359770510457    -81.2830895676794    0.137359770510457    -81.2830895676794    0.988551089581349    7.89427727766957     
739.109688376367     0.988850418797041    7.77575664239212     0.135310469124989    -81.3964931456916    0.135310469124989    -81.3964931456916    0.988850418797041    7.77575664239212     
746.067266326974     0.989143654688837    7.65783552702864     0.133270965847221    -81.5090035494264    0.133270965847221    -81.5090035494264    0.989143654688837    7.65783552702864     
753.090339144852     0.98943088057385     7.54050585592051     0.131241138392216    -81.6206164541037    0.131241138392216    -81.6206164541037    0.98943088057385     7.54050585592051     
760.179523363178     0.9897121782713      7.4237595502599      0.129220863979557    -81.7313268287343    0.129220863979557    -81.7313268287343    0.9897121782713      7.4237595502599      
767.335441318838     0.989987628112074    7.307588528802       0.127210019357234    -81.8411288854944    0.127210019357234    -81.8411288854944    0.989987628112074    7.307588528802       
774.558721207061     0.990257308948383    7.19198470854721     0.125208480824914    -81.9500160248694    0.125208480824914    -81.9500160248694    0.990257308948383    7.19198470854721     
781.849997136564     0.990521298163473    7.07694000539551     0.123216124256597    -82.0579807761369    0.123216124256597    -82.0579807761369    0.990521298163473    7.07694000539551     
789.20990918522      0.990779671681412    6.96244633477173     0.121232825122707    -82.1650147327087    0.121232825122707    -82.1650147327087    0.990779671681412    6.96244633477173     
796.63910345625      0.991032503976913    6.84849561222399     0.119258458511615    -82.271108481793     0.119258458511615    -82.271108481793     0.991032503976913    6.84849561222399     
804.138232134937     0.991279868085192    6.73507975399445     0.117292899150621    -82.3762515277753    0.117292899150621    -82.3762515277753    0.991279868085192    6.73507975399445     
811.707953545886     0.99152183561184     6.62219067756484     0.115336021426436    -82.48043220864      0.115336021426436    -82.48043220864      0.99152183561184     6.62219067756484     
819.348932210812     0.991758476742725    6.50982030217493     0.113387699405169    -82.5836376046763    0.113387699405169    -82.5836376046763    0.991758476742725    6.50982030217493     
827.061838906876     0.991989860253865    6.3979605493172      0.111447806851854    -82.6858534386067    0.111447806851854    -82.6858534386067    0.991989860253865    6.3979605493172      
834.847350725572     0.992216053521308    6.28660334320605     0.109516217249551    -82.7870639661788    0.109516217249551    -82.7870639661788    0.992216053521308    6.28660334320605     
842.706151132167     0.992437122530983    6.17574061122346     0.107592803818043    -82.8872518561237    0.107592803818043    -82.8872518561237    0.992437122530983    6.17574061122346     
850.638930025701     0.992653131888518    6.06536428434153     0.105677439532176    -82.9863980582473    0.105677439532176    -82.9863980582473    0.992653131888518    6.06536428434153     
858.646383799547     0.992864144829008    5.95546629752179     0.103769997139854    -83.0844816582531    0.103769997139854    -83.0844816582531    0.992864144829008    5.95546629752179     
866.729215402548     0.993070223226749    5.84603859009254     0.101870349179765    -83.1814797176991    0.101870349179765    -83.1814797176991    0.993070223226749    5.84603859009254     
874.888134400727     0.993271427604889    5.73707310610463     0.099978367998833    -83.2773670972745    0.099978367998833    -83.2773670972745    0.993271427604889    5.73707310610463     
883.123857039577     0.993467817145028    5.62856179466629     0.098093925769503    -83.3721162613207    0.098093925769503    -83.3721162613207    0.993467817145028    5.62856179466629     
891.437106306938     0.993659449696728    5.52049661025658     0.096216894506853    -83.4656970612236    0.096216894506853    -83.4656970612236    0.993659449696728    5.52049661025658     
899.828611996464     0.993846381786942    5.41286951302051     0.09434714608564     -83.5580764949516    0.09434714608564     -83.5580764949516    0.993846381786942    5.41286951302051     
908.299110771694     0.994028668629349    5.30567246904286     0.092484552257302    -83.6492184396124    0.092484552257302    -83.6492184396124    0.994028668629349    5.30567246904286     
916.849346230715     0.994206364133585    5.19889745060433     0.090628984667032    -83.739083353416     0.090628984667032    -83.739083353416     0.994206364133585    5.19889745060433     
925.480068971445     0.994379520914376    5.09253643641876     0.088780314870975    -83.8276279428745    0.088780314870975    -83.8276279428745    0.994379520914376    5.09253643641876     
934.192036657522     0.994548190300537    4.98658141185311     0.086938414353667    -83.9148047904064    0.086938414353667    -83.9148047904064    0.994548190300537    4.98658141185311     
942.986014084823     0.994712422343874    4.88102436912874     0.08510315454579     -84.0005619367296    0.08510315454579     -84.0005619367296    0.994712422343874    4.88102436912874     
951.862773248596     0.994872265827936    4.77585730750744     0.083274406842413    -84.0848424114986    0.083274406842413    -84.0848424114986    0.994872265827936    4.77585730750744     
960.823093411232     0.995027768276648    4.67107223346012     0.081452042621822    -84.1675837045405    0.081452042621822    -84.1675837045405    0.995027768276648    4.67107223346012     
969.867761170678     0.995178975962799    4.56666116081975     0.079635933265122    -84.2487171687199    0.079635933265122    -84.2487171687199    0.995178975962799    4.56666116081975     
978.997570529489     0.995325933916383    4.46261611091908     0.077825950176803    -84.32816734389      0.077825950176803    -84.32816734389      0.995325933916383    4.46261611091908     
988.213322964527     0.995468685932798    4.35892911271345     0.07602196480649     -84.4058511894805    0.07602196480649     -84.4058511894805    0.995468685932798    4.35892911271345     
997.515827497323     0.995607274580878    4.25559220288893     0.074223848672138    -84.4816772109842    0.074223848672138    -84.4816772109842    0.995607274580878    4.25559220288893     
1006.9059007651      0.995741741210779    4.15259742595704     0.072431473385005    -84.5555444628198    0.072431473385005    -84.5555444628198    0.995741741210779    4.15259742595704     
1016.38436709246     0.995872125961686    4.04993683433526     0.070644710676732    -84.6273414066662    0.070644710676732    -84.6273414066662    0.995872125961686    4.04993683433526     
1025.95205856375     0.995998467769362    3.94760248841487     0.068863432429018    -84.6969446002233    0.068863432429018    -84.6969446002233    0.995998467769362    3.94760248841487     
1035.6098150961      0.996120804373516    3.84558645661626     0.06708751070638     -84.7642171862715    0.06708751070638     -84.7642171862715    0.996120804373516    3.84558645661626     
1045.35848451318     0.996239172324999    3.74388081543185     0.065316817792656    -84.8290071456272    0.065316817792656    -84.8290071456272    0.996239172324999    3.74388081543185     
1055.19892261961     0.996353606992819    3.64247764945752     0.063551226232013    -84.8911452698107    0.063551226232013    -84.8911452698107    0.996353606992819    3.64247764945752     
1065.13199327608     0.996464142570965    3.5413690514123      0.061790608875389    -84.9504427995357    0.061790608875389    -84.9504427995357    0.996464142570965    3.5413690514123      
1075.1585684752      0.996570812085049    3.44054712214815     0.060034838933541    -85.0066886629578    0.060034838933541    -85.0066886629578    0.996570812085049    3.44054712214815     
1085.27952841805     0.996673647398756    3.34000397064786     0.058283790038062    -85.0596462322721    0.058283790038062    -85.0596462322721    0.996673647398756    3.34000397064786     
1095.49576159144     0.996772679220091    3.23973171401442     0.056537336312165    -85.109049497761     0.056537336312165    -85.109049497761     0.996772679220091    3.23973171401442     
1105.80816484593     0.996867937107441    3.13972247744966     0.054795352453361    -85.154598533509     0.054795352453361    -85.154598533509     0.996867937107441    3.13972247744966     
1116.21764347451     0.996959449475426    3.03996839422445     0.053057713830796    -85.1959540969893    0.053057713830796    -85.1959540969893    0.996959449475426    3.03996839422445     
1126.72511129215     0.997047243600552    2.94046160563942     0.051324296600633    -85.2327311632521    0.051324296600633    -85.2327311632521    0.997047243600552    2.94046160563942     
1137.33149071594     0.997131345626654    2.84119426097795     0.049594977843908    -85.2644911403023    0.049594977843908    -85.2644911403023    0.997131345626654    2.84119426097795     
1148.03771284614     0.997211780570138    2.74215851745057     0.047869635732412    -85.2907324409845    0.047869635732412    -85.2907324409845    0.997211780570138    2.74215851745057     
1158.84471754785     0.997288572324999    2.64334654013229     0.046148149729846    -85.310878992069     0.046148149729846    -85.310878992069     0.997288572324999    2.64334654013229     
1169.75345353357     0.99736174366764     2.54475050189219     0.04443040083766     -85.3242661344364    0.04443040083766     -85.3242661344364    0.99736174366764     2.54475050189219     
1180.76487844647     0.99743131626147     2.44636258331638     0.042716271897949    -85.3301231966586    0.042716271897949    -85.3301231966586    0.99743131626147     2.44636258331638     
1191.87995894444     0.997497310661282    2.34817497262468     0.041005647969827    -85.3275517895886    0.041005647969827    -85.3275517895886    0.997497310661282    2.34817497262468     
1203.09967078496     0.997559746317417    2.25017986558084     0.039298416801305    -85.3154985449481    0.039298416801305    -85.3154985449481    0.997559746317417    2.25017986558084     
1214.42499891079     0.997618641579705    2.15236946539751     0.037594469426549    -85.2927205663839    0.037594469426549    -85.2927205663839    0.997618641579705    2.15236946539751     
1225.85693753636     0.997674013701188    2.05473598263519     0.03589370092953     -85.2577412166703    0.03589370092953     -85.2577412166703    0.997674013701188    2.05473598263519     
1237.39649023515     0.997725878841612    1.95727163509702     0.034196011431147    -85.2087929369576    0.034196011431147    -85.2087929369576    0.997725878841612    1.95727163509702     
1249.04467002769     0.997774252070698    1.85996864771819     0.03250130738034     -85.1437424383159    0.03250130738034     -85.1437424383159    0.997774252070698    1.85996864771819     
1260.80249947057     0.997819147371192    1.76281925245154     0.030809503264625    -85.0599915915347    0.030809503264625    -85.0599915915347    0.997819147371192    1.76281925245154     
1272.67101074615     0.997860577641675    1.66581568814943     0.029120523908356    -84.954344292976     0.029120523908356    -84.954344292976     0.997860577641675    1.66581568814943     
1284.65124575322     0.997898554699158    1.5689502004413      0.02743430760873     -84.82282487809      0.02743430760873     -84.82282487809      0.997898554699158    1.5689502004413      
1296.7442561984      0.997933089281438    1.47221504160896     0.025750810488765    -84.6604262256429    0.025750810488765    -84.6604262256429    0.997933089281438    1.47221504160896     
1308.95110368855     0.997964191049224    1.37560247045842     0.024070012655817    -84.4607536792417    0.024070012655817    -84.4607536792417    0.997964191049224    1.37560247045842     
1321.2728598239      0.997991868588041    1.27910475218968     0.022391927102939    -84.2155109373662    0.022391927102939    -84.2155109373662    0.997991868588041    1.27910475218968     
1333.71060629214     0.998016129409887    1.1827141582638      0.020716612889569    -83.9137398268418    0.020716612889569    -83.9137398268418    0.998016129409887    1.1827141582638      
1346.26543496339     0.998036979954672    1.08642296626899     0.019044195204295    -83.5406651379198    0.019044195204295    -83.5406651379198    0.998036979954672    1.08642296626899     
1358.93844798605     0.998054425591408    0.990223459784621    0.017374896887131    -83.0758836424439    0.017374896887131    -83.0758836424439    0.998054425591408    0.990223459784621    
1371.73075788353     0.998068470619188    0.894107928244347    0.015709089817841    -82.4904201763339    0.015709089817841    -82.4904201763339    0.998068470619188    0.894107928244347    
1384.64348765195     0.998079118267898    0.798068666798782    0.014047382409379    -81.7417341076214    0.014047382409379    -81.7417341076214    0.998079118267898    0.798068666798782    
1397.67777085868     0.99808637069873     0.702097976177239    0.012390776507631    -80.7648099766732    0.012390776507631    -80.7648099766732    0.99808637069873     0.702097976177239    
1410.83475174192     0.99809022900443     0.606188162549688    0.01074096706717     -79.4552619586187    0.01074096706717     -79.4552619586187    0.99809022900443     0.606188162549688    
1424.11558531106     0.998090693209335    0.510331537389552    0.009100961058775    -77.6348060317559    0.009100961058775    -77.6348060317559    0.998090693209335    0.510331537389552    
1437.52143744817     0.998087762269154    0.414520417336044    0.007476488942332    -74.9738119501705    0.007476488942332    -74.9738119501705    0.998087762269154    0.414520417336044    
1451.05348501027     0.998081434070529    0.31874712405847     0.005879667090832    -70.7960342268243    0.005879667090832    -70.7960342268243    0.998081434070529    0.31874712405847     
1464.71291593267     0.998071705430355    0.223003984121377    0.004340270768918    -63.5112829065786    0.004340270768918    -63.5112829065786    0.998071705430355    0.223003984121377    
1478.5009293333      0.998058572094867    0.127283328851578    0.002948674257102    -48.7578913811847    0.002948674257102    -48.7578913811847    0.998058572094867    0.127283328851578    
1492.41873561788     0.998042028738486    0.031577494207163    0.002033913069798    -15.6904705682907    0.002033913069798    -15.6904705682907    0.998042028738486    0.031577494207163    
1506.46755658628     0.998022068962443    -0.064121179351163   0.002272042285385    29.4451021338226     0.002272042285385    29.4451021338226     0.998022068962443    -0.064121179351163   
1520.6486255397      0.997998685293154    -0.159820346985922   0.003430799837132    54.2344907920769     0.003430799837132    54.2344907920769     0.997998685293154    -0.159820346985922   
1534.963187389       0.997971869180376    -0.255527659605576   0.004895176158446    65.3962960456005     0.004895176158446    65.3962960456005     0.997971869180376    -0.255527659605576   
1549.41249876392     0.997941610995122    -0.351250763983936   0.006460828228696    71.2464739540965     0.006460828228696    71.2464739540965     0.997941610995122    -0.351250763983936   
1563.99782812346     0.997907900027338    -0.446997302875693   0.008069312672343    74.7500932979211     0.008069312672343    74.7500932979211     0.997907900027338    -0.446997302875693   
1578.72045586719     0.997870724483368    -0.542774915127657   0.009699678109419    77.0479021155424     0.009699678109419    77.0479021155424     0.997870724483368    -0.542774915127657   
1593.58167444767     0.997830071483168    -0.638591235785961   0.011342855040338    78.6520097069984     0.011342855040338    78.6520097069984     0.997830071483168    -0.638591235785961   
1608.58278848392     0.997785927057298    -0.734453896197683   0.012994366509326    79.8226476082103     0.012994366509326    79.8226476082103     0.997785927057298    -0.734453896197683   
1623.72511487592     0.99773827614369     -0.830370524107762   0.014651792430357    80.7050798862479     0.014651792430357    80.7050798862479     0.99773827614369     -0.830370524107762   
1639.00998292023     0.997687102584184    -0.926348743750146   0.016313740610127    81.3864631221781     0.016313740610127    81.3864631221781     0.997687102584184    -0.926348743750146   
1654.43873442672     0.997632389120835    -1.02239617593293    0.017979377443498    81.922143027819      0.017979377443498    81.922143027819      0.997632389120835    -1.02239617593293    
1670.01272383628     0.997574117391999    -1.11852043811716    0.019648193569264    82.3489052311692     0.019648193569264    82.3489052311692     0.997574117391999    -1.11852043811716    
1685.73331833981     0.997512267928195    -1.21472914448898    0.021319878109808    82.6921310318173     0.021319878109808    82.6921310318173     0.997512267928195    -1.21472914448898    
1701.6018979982      0.997446820147746    -1.31102990602446    0.022994247110962    82.9698876278346     0.022994247110962    82.9698876278346     0.997446820147746    -1.31102990602446    
1717.61985586346     0.997377752352196    -1.40743033054736    0.024671200798277    83.1953794991468     0.024671200798277    83.1953794991468     0.997377752352196    -1.40743033054736    
1733.78859810108     0.997305041721513    -1.50393802277842    0.026350696981117    83.3784776179072     0.026350696981117    83.3784776179072     0.997305041721513    -1.50393802277842    
1750.10954411338     0.997228664309068    -1.60056058437692    0.028032733917173    83.5267066602359     0.028032733917173    83.5267066602359     0.997228664309068    -1.60056058437692    
1766.58412666421     0.99714859503641     -1.69730561397348    0.029717338934818    83.6459015068881     0.029717338934818    83.6459015068881     0.99714859503641     -1.69730561397348    
1783.21379200464     0.997064807687823    -1.79418070719313    0.031404560677496    83.7406552796675     0.031404560677496    83.7406552796675     0.997064807687823    -1.79418070719313    
1800                 0.996977274904665    -1.89119345667026    0.033094463693429    83.814632169013      0.033094463693429    83.814632169013      0.996977274904665    -1.89119345667026    
