# MHz S MA R 50      
!Freq                MagS11               AngS11               MagS21               AngS21               MagS12               AngS12               MagS22               AngS22               
1                    0.003449104991086    29.2683894971        0.996992636779348    -0.096907736781838   0.996992636779348    -0.096907736781838   0.003449104991086    29.2683894971        
1.01048311659973     0.003460158559333    29.5014512825462     0.996989930537823    -0.097923367205953   0.996989930537823    -0.097923367205953   0.003460158559333    29.5014512825462     
1.0210761289331      0.003471374040678    29.7355526545872     0.996987209686964    -0.098949640401602   0.996987209686964    -0.098949640401602   0.003471374040678    29.7355526545872     
1.03178018904991     0.003482753807399    29.9706814725031     0.99698447414054     -0.099986667871083   0.99698447414054     -0.099986667871083   0.003482753807399    29.9706814725031     
1.04259646107702     0.003494300259282    30.2068252565119     0.996981723811612    -0.101034562284488   0.996981723811612    -0.101034562284488   0.003494300259282    30.2068252565119     
1.05352612134495     0.003506015823749    30.4439711883234     0.996978958612635    -0.102093437491947   0.996978958612635    -0.102093437491947   0.003506015823749    30.4439711883234     
1.06457035851587     0.003517902955967    30.6821061119259     0.99697617845534     -0.103163408535964   0.99697617845534     -0.103163408535964   0.003517902955967    30.6821061119259     
1.07573037371281     0.003529964138968    30.9212165346102     0.996973383250797    -0.104244591663911   0.996973383250797    -0.104244591663911   0.003529964138968    30.9212165346102     
1.08700738065032     0.003542201883753    31.1612886282303     0.996970572909379    -0.105337104340628   0.996970572909379    -0.105337104340628   0.003542201883753    31.1612886282303     
1.09840260576644     0.003554618729407    31.4023082307116     0.996967747340738    -0.106441065261176   0.996967747340738    -0.106441065261176   0.003554618729407    31.4023082307116     
1.10991728835614     0.003567217243198    31.6442608478005     0.996964906453857    -0.107556594363707   0.996964906453857    -0.107556594363707   0.003567217243198    31.6442608478005     
1.12155268070603     0.003580000020687    31.8871316550685     0.996962050156957    -0.108683812842481   0.996962050156957    -0.108683812842481   0.003580000020687    31.8871316550685     
1.13331004823062     0.003592969685818    32.1309055001624     0.996959178357563    -0.10982284316101    0.996959178357563    -0.10982284316101    0.003592969685818    32.1309055001624     
1.14519066960986     0.003606128891023    32.3755669053127     0.996956290962459    -0.110973809065344   0.996956290962459    -0.110973809065344   0.003606128891023    32.3755669053127     
1.15719583692831     0.003619480317313    32.6211000700948     0.996953387877657    -0.112136835597492   0.996953387877657    -0.112136835597492   0.003619480317313    32.6211000700948     
1.16932685581555     0.003633026674374    32.8674888744497     0.996950469008452    -0.113312049108996   0.996950469008452    -0.113312049108996   0.003633026674374    32.8674888744497     
1.18158504558826     0.003646770700649    33.1147168819594     0.996947534259354    -0.114499577274624   0.996947534259354    -0.114499577274624   0.003646770700649    33.1147168819594     
1.19397173939366     0.003660715163436    33.3627673433869     0.99694458353409     -0.115699549106225   0.99694458353409     -0.115699549106225   0.003660715163436    33.3627673433869     
1.20648828435451     0.003674862858965    33.6116232004716     0.996941616735628    -0.116912094966731   0.996941616735628    -0.116912094966731   0.003674862858965    33.6116232004716     
1.21913604171561     0.003689216612486    33.8612670899866     0.996938633766119    -0.118137346584279   0.996938633766119    -0.118137346584279   0.003689216612486    33.8612670899866     
1.23191638699184     0.003703779278348    34.111681348056      0.996935634526924    -0.119375437066521   0.996935634526924    -0.119375437066521   0.003703779278348    34.111681348056      
1.2448307101178      0.003718553740083    34.3628480147304     0.996932618918585    -0.120626500915044   0.996932618918585    -0.120626500915044   0.003718553740083    34.3628480147304     
1.25788041559889     0.00373354291048     34.6147488388217     0.996929586840816    -0.121890674039969   0.996929586840816    -0.121890674039969   0.00373354291048     34.6147488388217     
1.27106692266413     0.003748749731662    34.8673652829943     0.996926538192496    -0.123168093774686   0.996926538192496    -0.123168093774686   0.003748749731662    34.8673652829943     
1.28439166542048     0.003764177175164    35.1206785291117     0.996923472871658    -0.124458898890756   0.996923472871658    -0.124458898890756   0.003764177175164    35.1206785291117     
1.29785609300881     0.003779828242007    35.374669483835      0.996920390775492    -0.125763229612952   0.996920390775492    -0.125763229612952   0.003779828242007    35.374669483835      
1.31146166976149     0.003795705962768    35.6293187844744     0.996917291800286    -0.127081227634477   0.996917291800286    -0.127081227634477   0.003795705962768    35.6293187844744     
1.32520987536168     0.003811813397657    35.8846068050854     0.996914175841481    -0.128413036132327   0.996914175841481    -0.128413036132327   0.003811813397657    35.8846068050854     
1.33910220500421     0.003828153636586    36.1405136628107     0.996911042793594    -0.129758799782813   0.996911042793594    -0.129758799782813   0.003828153636586    36.1405136628107     
1.35314016955822     0.003844729799239    36.3970192244627     0.996907892550264    -0.131118664777265   0.996907892550264    -0.131118664777265   0.003844729799239    36.3970192244627     
1.36732529573148     0.003861545035147    36.6541031133412     0.996904725004194    -0.132492778837873   0.996904725004194    -0.132492778837873   0.003861545035147    36.6541031133412     
1.3816591262364      0.003878602523756    36.9117447162824     0.99690154004718     -0.133881291233712   0.99690154004718     -0.133881291233712   0.003878602523756    36.9117447162824     
1.39614321995781     0.0038959054745      37.1699231909377     0.996898337570043    -0.135284352796929   0.996898337570043    -0.135284352796929   0.0038959054745      37.1699231909377     
1.41077915212255     0.003913457126871    37.4286174732692     0.996895117462686    -0.1367021159391     0.996895117462686    -0.1367021159391     0.003913457126871    37.4286174732692     
1.42556851447072     0.003931260750492    37.6878062852651     0.996891879614013    -0.138134734667754   0.996891879614013    -0.138134734667754   0.003931260750492    37.6878062852651     
1.44051291542883     0.003949319645188    37.9474681428602     0.99688862391197     -0.139582364603077   0.99688862391197     -0.139582364603077   0.003949319645188    37.9474681428602     
1.45561398028468     0.003967637141063    38.2075813640645     0.996885350243494    -0.141045162994786   0.996885350243494    -0.141045162994786   0.003967637141063    38.2075813640645     
1.47087335136421     0.003986216598572    38.4681240772826     0.996882058494528    -0.142523288739175   0.996882058494528    -0.142523288739175   0.003986216598572    38.4681240772826     
1.48629268820999     0.004005061408598    38.7290742298255     0.996878748549964    -0.144016902396347   0.996878748549964    -0.144016902396347   0.004005061408598    38.7290742298255     
1.50187366776183     0.004024174992534    38.9904095966021     0.996875420293687    -0.145526166207629   0.996875420293687    -0.145526166207629   0.004024174992534    38.9904095966021     
1.51761798453904     0.004043560802356    39.2521077889841     0.996872073608516    -0.147051244113152   0.996872073608516    -0.147051244113152   0.004043560802356    39.2521077889841     
1.53352735082481     0.00406322232071     39.5141462638362     0.996868708376199    -0.148592301769632   0.996868708376199    -0.148592301769632   0.00406322232071     39.5141462638362     
1.54960349685238     0.004083163060998    39.7765023327025     0.996865324477422    -0.150149506568331   0.996865324477422    -0.150149506568331   0.004083163060998    39.7765023327025     
1.56584817099324     0.00410338656746     40.0391531711405     0.996861921791766    -0.151723027653204   0.996861921791766    -0.151723027653204   0.00410338656746     40.0391531711405     
1.58226313994724     0.004123896415269    40.3020758281938     0.996858500197671    -0.153313035939229   0.996858500197671    -0.153313035939229   0.004123896415269    40.3020758281938     
1.59885018893476     0.004144696210621    40.5652472359938     0.996855059572497    -0.154919704130955   0.996855059572497    -0.154919704130955   0.004144696210621    40.5652472359938     
1.61561112189086     0.004165789590835    40.8286442194795     0.996851599792408    -0.156543206741197   0.996851599792408    -0.156543206741197   0.004165789590835    40.8286442194795     
1.63254776166147     0.00418718022445     41.0922435062295     0.996848120732456    -0.158183720109989   0.996848120732456    -0.158183720109989   0.00418718022445     41.0922435062295     
1.64966195020159     0.004208871811333    41.3560217363898     0.996844622266478    -0.159841422423665   0.996844622266478    -0.159841422423665   0.004208871811333    41.3560217363898     
1.6669555487757      0.004230868082784    41.6199554726945     0.996841104267124    -0.161516493734197   0.996841104267124    -0.161516493734197   0.004230868082784    41.6199554726945     
1.68443043816008     0.00425317280165     41.8840212105617     0.996837566605848    -0.163209115978708   0.996837566605848    -0.163209115978708   0.00425317280165     41.8840212105617     
1.70208851884745     0.004275789762445    42.1481953882587     0.996834009152843    -0.164919472999188   0.996834009152843    -0.164919472999188   0.004275789762445    42.1481953882587     
1.71993171125359     0.004298722791468    42.4124543971259     0.99683043177707     -0.166647750562424   0.99683043177707     -0.166647750562424   0.004298722791468    42.4124543971259     
1.73796195592623     0.004321975746935    42.6767745918434     0.996826834346225    -0.168394136380138   0.996826834346225    -0.168394136380138   0.004321975746935    42.6767745918434     
1.75618121375611     0.00434555251911     42.9411323007369     0.99682321672671     -0.170158820129328   0.99682321672671     -0.170158820129328   0.00434555251911     42.9411323007369     
1.77459146619017     0.004369457030442    43.2055038361046     0.996819578783616    -0.171941993472828   0.996819578783616    -0.171941993472828   0.004369457030442    43.2055038361046     
1.79319471544713     0.004393693235714    43.4698655045596     0.996815920380721    -0.173743850080084   0.996815920380721    -0.173743850080084   0.004393693235714    43.4698655045596     
1.81199298473518     0.004418265122191    43.7341936173726     0.996812241380448    -0.175564585648136   0.996812241380448    -0.175564585648136   0.004418265122191    43.7341936173726     
1.83098831847205     0.004443176709775    43.9984645008069     0.996808541643846    -0.177404397922832   0.996808541643846    -0.177404397922832   0.004443176709775    43.9984645008069     
1.85018278250734     0.004468432051174    44.2626545064325     0.996804821030598    -0.179263486720259   0.996804821030598    -0.179263486720259   0.004468432051174    44.2626545064325     
1.86957846434718     0.004494035232069    44.5267400214093     0.996801079398955    -0.181142053948394   0.996801079398955    -0.181142053948394   0.004494035232069    44.5267400214093     
1.88917747338128     0.004519990371291    44.7906974787275     0.996797316605754    -0.183040303628987   0.996797316605754    -0.183040303628987   0.004519990371291    44.7906974787275     
1.90898194111232     0.00454630162101     45.0545033673953     0.996793532506375    -0.184958441919665   0.996793532506375    -0.184958441919665   0.00454630162101     45.0545033673953     
1.92899402138778     0.004572973166923    45.3181342425633     0.99678972695473     -0.186896677136276   0.99678972695473     -0.186896677136276   0.004572973166923    45.3181342425633     
1.94921589063417     0.004600009228455    45.5815667355724     0.996785899803205    -0.188855219775454   0.996785899803205    -0.188855219775454   0.004600009228455    45.5815667355724     
1.96964974809374     0.004627414058972    45.8447775639178     0.996782050902712    -0.190834282537441   0.996782050902712    -0.190834282537441   0.004627414058972    45.8447775639178     
1.99029781606363     0.004655191945988    46.1077435411187     0.996778180102572    -0.192834080349116   0.996778180102572    -0.192834080349116   0.004655191945988    46.1077435411187     
2.01116234013762     0.0046833472114      46.3704415864788     0.996774287250569    -0.194854830387296   0.996774287250569    -0.194854830387296   0.0046833472114      46.3704415864788     
2.03224558945027     0.004711884211711    46.6328487347339     0.996770372192893    -0.19689675210226    0.996770372192893    -0.19689675210226    0.004711884211711    46.6328487347339     
2.05354985692376     0.00474080733828     46.8949421455738     0.996766434774085    -0.198960067241513   0.996766434774085    -0.198960067241513   0.00474080733828     46.8949421455738     
2.07507745951726     0.004770121017566    47.1566991130278     0.996762474837075    -0.201044999873833   0.996762474837075    -0.201044999873833   0.004770121017566    47.1566991130278     
2.09683073847885     0.004799829711392    47.4180970747067     0.996758492223107    -0.203151776413526   0.996758492223107    -0.203151776413526   0.004799829711392    47.4180970747067     
2.11881205960022     0.004829937917212    47.6791136208923     0.996754486771741    -0.205280625644963   0.996754486771741    -0.205280625644963   0.004829937917212    47.6791136208923     
2.14102381347393     0.004860450168388    47.9397265034646     0.996750458320787    -0.207431778747354   0.996750458320787    -0.207431778747354   0.004860450168388    47.9397265034646     
2.16346841575337     0.004891371034479    48.1999136446566     0.996746406706325    -0.209605469319798   0.996746406706325    -0.209605469319798   0.004891371034479    48.1999136446566     
2.18614830741555     0.004922705121539    48.4596531456355     0.996742331762658    -0.211801933406588   0.996742331762658    -0.211801933406588   0.004922705121539    48.4596531456355     
2.20906595502649     0.00495445707242     48.7189232948934     0.996738233322263    -0.214021409522766   0.996738233322263    -0.214021409522766   0.00495445707242     48.7189232948934     
2.23222385100953     0.004986631567093    48.9777025764465     0.99673411121579     -0.21626413867997    0.99673411121579     -0.21626413867997    0.004986631567093    48.9777025764465     
2.25562451391636     0.005019233322973    49.2359696778338     0.996729965272019    -0.218530364412529   0.996729965272019    -0.218530364412529   0.005019233322973    49.2359696778338     
2.27927048870096     0.005052267095254    49.4937034979088     0.99672579531783     -0.220820332803839   0.99672579531783     -0.220820332803839   0.005052267095254    49.4937034979088     
2.30316434699634     0.00508573767726     49.7508831544177     0.996721601178182    -0.223134292513021   0.996721601178182    -0.223134292513021   0.00508573767726     49.7508831544177     
2.32730868739424     0.0051196499008      50.0074879913578     0.996717382676056    -0.225472494801837   0.996717382676056    -0.225472494801837   0.0051196499008      50.0074879913578     
2.35170613572776     0.005154008636534    50.2634975861124     0.996713139632459    -0.227835193561914   0.996713139632459    -0.227835193561914   0.005154008636534    50.2634975861124     
2.3763593453569      0.005188818794356    50.5188917563547     0.996708871866359    -0.230222645342222   0.996708871866359    -0.230222645342222   0.005188818794356    50.5188917563547     
2.40127099745714     0.005224085323778    50.773650566717      0.996704579194664    -0.232635109376865   0.996704579194664    -0.232635109376865   0.005224085323778    50.773650566717      
2.42644380131103     0.005259813214332    51.0277543352226     0.996700261432197    -0.235072847613148   0.996700261432197    -0.235072847613148   0.005259813214332    51.0277543352226     
2.45188049460287     0.005296007495978    51.2811836394729     0.996695918391641    -0.237536124739933   0.996695918391641    -0.237536124739933   0.005296007495978    51.2811836394729     
2.4775838437164      0.005332673239529    51.5339193225891     0.996691549883521    -0.240025208216304   0.996691549883521    -0.240025208216304   0.005332673239529    51.5339193225891     
2.50355664403569     0.005369815557078    51.7859424989045     0.996687155716152    -0.242540368300519   0.996687155716152    -0.242540368300519   0.005369815557078    51.7859424989045     
2.52980172024914     0.005407439602441    52.0372345594048     0.996682735695634    -0.245081878079273   0.996682735695634    -0.245081878079273   0.005407439602441    52.0372345594048     
2.55632192665671     0.005445550571615    52.2877771769132     0.996678289625753    -0.247650013497255   0.996678289625753    -0.247650013497255   0.005445550571615    52.2877771769132     
2.5831201474803      0.005484153703234    52.5375523110197     0.996673817308028    -0.250245053387026   0.996673817308028    -0.250245053387026   0.005484153703234    52.5375523110197     
2.61019929717745     0.005523254279054    52.786542212753      0.996669318541581    -0.252867279499193   0.996669318541581    -0.252867279499193   0.005523254279054    52.786542212753      
2.6375623207583      0.005562857624428    53.0347294289921     0.996664793123166    -0.255516976532919   0.996664793123166    -0.255516976532919   0.005562857624428    53.0347294289921     
2.66521219410587     0.005602969108812    53.2820968066196     0.996660240847104    -0.258194432166722   0.996660240847104    -0.258194432166722   0.005602969108812    53.2820968066196     
2.6931519242997      0.005643594146269    53.5286274964145     0.996655661505214    -0.260899937089624   0.996655661505214    -0.260899937089624   0.005643594146269    53.5286274964145     
2.72138454994293     0.005684738195987    53.7743049566843     0.996651054886822    -0.263633785032606   0.996651054886822    -0.263633785032606   0.005684738195987    53.7743049566843     
2.74991314149268     0.005726406762811    54.0191129566391     0.996646420778694    -0.266396272800399   0.996646420778694    -0.266396272800399   0.005726406762811    54.0191129566391     
2.77874080159408     0.00576860539778     54.2630355795044     0.996641758964973    -0.269187700303599   0.996641758964973    -0.269187700303599   0.00576860539778     54.2630355795044     
2.80787066541762     0.005811339698684    54.5060572253792     0.996637069227156    -0.27200837059112    0.996637069227156    -0.27200837059112    0.005811339698684    54.5060572253792     
2.83730590100016     0.005854615310621    54.7481626138348     0.996632351344059    -0.274858589882999   0.996632351344059    -0.274858589882999   0.005854615310621    54.7481626138348     
2.86704970958945     0.005898437926574    54.9893367862613     0.99662760509172     -0.277738667603502   0.99662760509172     -0.277738667603502   0.005898437926574    54.9893367862613     
2.8971053259923      0.005942813287994    55.22956510796       0.996622830243429    -0.280648916414636   0.996622830243429    -0.280648916414636   0.005942813287994    55.22956510796       
2.92747601892638     0.005987747185392    55.4688332699869     0.996618026569599    -0.283589652249953   0.996618026569599    -0.283589652249953   0.005987747185392    55.4688332699869     
2.9581650913757      0.006033245458951    55.7071272907481     0.996613193837775    -0.286561194348731   0.996613193837775    -0.286561194348731   0.006033245458951    55.7071272907481     
2.98917588094984     0.006079313999135    55.9444335173512     0.99660833181255     -0.289563865290522   0.99660833181255     -0.289563865290522   0.006079313999135    55.9444335173512     
3.02051176024694     0.006125958747323    56.1807386267144     0.996603440255532    -0.292597991030029   0.996603440255532    -0.292597991030029   0.006125958747323    56.1807386267144     
3.05217613722047     0.006173185696443    56.4160296264395     0.996598518925272    -0.295663900932374   0.996598518925272    -0.295663900932374   0.006173185696443    56.4160296264395     
3.08417245554987     0.00622100089162     56.6502938554497     0.996593567577253    -0.298761927808729   0.996593567577253    -0.298761927808729   0.00622100089162     56.6502938554497     
3.11650419501508     0.006269410430836    56.8835189843979     0.996588585963763    -0.301892407952293   0.996588585963763    -0.301892407952293   0.006269410430836    56.8835189843979     
3.14917487187497     0.006318420465602    57.1156930158488     0.996583573833897    -0.305055681174666   0.996583573833897    -0.305055681174666   0.006318420465602    57.1156930158488     
3.18218803924978     0.006368037201632    57.3468042842399     0.996578530933506    -0.308252090842625   0.996578530933506    -0.308252090842625   0.006368037201632    57.3468042842399     
3.2155472875075      0.00641826689954     57.576841455625      0.996573457005083    -0.311481983915205   0.996573457005083    -0.311481983915205   0.00641826689954     57.576841455625      
3.24925624465439     0.006469115875536    57.805793527207      0.996568351787746    -0.314745710981262   0.996568351787746    -0.314745710981262   0.006469115875536    57.805793527207      
3.28331857672951     0.006520590502138    58.0336498266612     0.996563215017172    -0.318043626297346   0.996563215017172    -0.318043626297346   0.006520590502138    58.0336498266612     
3.31773798820342     0.006572697208897    58.2604000112583     0.996558046425546    -0.321376087826029   0.996558046425546    -0.321376087826029   0.006572697208897    58.2604000112583     
3.35251822238112     0.006625442483123    58.4860340667911     0.996552845741444    -0.324743457274581   0.996552845741444    -0.324743457274581   0.006625442483123    58.4860340667911     
3.38766306180906     0.006678832870631    58.7105423063059     0.996547612689854    -0.328146100134088   0.996547612689854    -0.328146100134088   0.006678832870631    58.7105423063059     
3.4231763286866      0.006732874976489    58.933915368653      0.99654234699202     -0.331584385718949   0.99654234699202     -0.331584385718949   0.006732874976489    58.933915368653      
3.45906188528167     0.006787575465783    59.1561442168517     0.996537048365448    -0.335058687206804   0.996537048365448    -0.335058687206804   0.006787575465783    59.1561442168517     
3.49532363435076     0.006842941064391    59.377220136284      0.99653171652381     -0.338569381678862   0.99653171652381     -0.338569381678862   0.006842941064391    59.377220136284      
3.53196551956345     0.006898978559757    59.5971347327167     0.996526351176846    -0.342116850160651   0.996526351176846    -0.342116850160651   0.006898978559757    59.5971347327167     
3.56899152593126     0.00695569480169     59.8158799301617     0.996520952030356    -0.345701477663207   0.996520952030356    -0.345701477663207   0.00695569480169     59.8158799301617     
3.60640568024105     0.007013096703163    60.0334479685765     0.996515518786064    -0.349323653224664   0.996515518786064    -0.349323653224664   0.007013096703163    60.0334479685765     
3.64421205149295     0.007071191241124    60.249831401415      0.996510051141576    -0.35298376995229    0.996510051141576    -0.35298376995229    0.007071191241124    60.249831401415      
3.6824147513429      0.007129985457319    60.4650230930317     0.99650454879032     -0.356682225064979   0.99650454879032     -0.356682225064979   0.007129985457319    60.4650230930317     
3.72101793454979     0.007189486459119    60.6790162159449     0.996499011421409    -0.360419419936134   0.996499011421409    -0.360419419936134   0.007189486459119    60.6790162159449     
3.76002579942737     0.007249701420367    60.8918042479666     0.996493438719651    -0.364195760137061   0.996493438719651    -0.364195760137061   0.007249701420367    60.8918042479666     
3.79944258830076     0.00731063758222     61.1033809692042     0.996487830365377    -0.368011655480745   0.996487830365377    -0.368011655480745   0.00731063758222     61.1033809692042     
3.8392725879679      0.007372302254016    61.3137404589401     0.996482186034422    -0.371867520066142   0.996482186034422    -0.371867520066142   0.007372302254016    61.3137404589401     
3.87952013016572     0.007434702814141    61.5228770923933     0.996476505398032    -0.375763772322891   0.996476505398032    -0.375763772322891   0.007434702814141    61.5228770923933     
3.92018959204125     0.007497846710906    61.7307855373718     0.996470788122749    -0.379700835056494   0.996470788122749    -0.379700835056494   0.007497846710906    61.7307855373718     
3.96128539662767     0.007561741463437    61.9374607508207     0.996465033870352    -0.383679135493992   0.996465033870352    -0.383679135493992   0.007561741463437    61.9374607508207     
4.00281201332533     0.007626394662574    62.1428979752677     0.996459242297765    -0.387699105330077   0.996459242297765    -0.387699105330077   0.007626394662574    62.1428979752677     
4.04477395838782     0.007691813971777    62.3470927351801     0.99645341305694     -0.39176118077371    0.99645341305694     -0.39176118077371    0.007691813971777    62.3470927351801     
4.08717579541315     0.007758007128041    62.55004083323       0.996447545794821    -0.395865802595213   0.996447545794821    -0.395865802595213   0.007758007128041    62.55004083323       
4.13002213584007     0.007824981942827    62.7517383464788     0.99644164015318     -0.400013416173847   0.99644164015318     -0.400013416173847   0.007824981942827    62.7517383464788     
4.17331763944955     0.007892746302993    62.9521816224852     0.996435695768578    -0.404204471545893   0.996435695768578    -0.404204471545893   0.007892746302993    62.9521816224852     
4.21706701487161     0.007961308171743    63.1513672753402     0.996429712272247    -0.408439423453215   0.996429712272247    -0.408439423453215   0.007961308171743    63.1513672753402     
4.26127502009739     0.008030675589575    63.3492921816385     0.99642368928997     -0.412718731392344   0.99642368928997     -0.412718731392344   0.008030675589575    63.3492921816385     
4.30594646299659     0.008100856675253    63.545953476386      0.996417626441997    -0.417042859664044   0.996417626441997    -0.417042859664044   0.008100856675253    63.545953476386      
4.35108620184038     0.008171859626774    63.7413485488541     0.99641152334297     -0.421412277423441   0.99641152334297     -0.421412277423441   0.008171859626774    63.7413485488541     
4.39669914582975     0.008243692722352    63.9354750383815     0.996405379601756    -0.425827458730615   0.996405379601756    -0.425827458730615   0.008243692722352    63.9354750383815     
4.44279025562942     0.008316364321412    64.1283308301311     0.996399194821377    -0.430288882601743   0.996399194821377    -0.430288882601743   0.008316364321412    64.1283308301311     
4.48936454390733     0.008389882865587    64.3199140508047     0.996392968598901    -0.434797033060787   0.996392968598901    -0.434797033060787   0.008389882865587    64.3199140508047     
4.53642707587981     0.008464256879734    64.5102230643228     0.996386700525313    -0.439352399191683   0.996386700525313    -0.439352399191683   0.008464256879734    64.5102230643228     
4.58398296986244     0.008539494972947    64.699256467471      0.996380390185419    -0.443955475191087   0.996380390185419    -0.443955475191087   0.008539494972947    64.699256467471      
4.63203739782668     0.008615605839593    64.8870130855198     0.996374037157681    -0.448606760421668   0.996374037157681    -0.448606760421668   0.008615605839593    64.8870130855198     
4.68059558596241     0.008692598260349    65.0734919678212     0.996367641014176    -0.453306759465974   0.996367641014176    -0.453306759465974   0.008692598260349    65.0734919678212     
4.72966281524624     0.008770481103246    65.2586923833862     0.996361201320396    -0.458055982180782   0.996361201320396    -0.458055982180782   0.008770481103246    65.2586923833862     
4.77924442201588     0.008849263324734    65.4426138164474     0.996354717635185    -0.462854943752113   0.996354717635185    -0.462854943752113   0.008849263324734    65.4426138164474     
4.82934579855049     0.008928953970743    65.6252559620114     0.99634818951056     -0.467704164750732   0.99634818951056     -0.467704164750732   0.008928953970743    65.6252559620114     
4.87997239365711     0.009009562177764    65.8066187214029     0.99634161649162     -0.472604171188265   0.99634161649162     -0.472604171188265   0.009009562177764    65.8066187214029     
4.93112971326329     0.009091097173932    65.9867021978062     0.996334998116386    -0.477555494573873   0.996334998116386    -0.477555494573873   0.009091097173932    65.9867021978062     
4.98282332101582     0.009173568280125    66.1655066918075     0.996328333915675    -0.482558671971523   0.996328333915675    -0.482558671971523   0.009173568280125    66.1655066918075     
5.03505883888589     0.009256984911069    66.3430326969392     0.996321623412985    -0.487614246057879   0.996321623412985    -0.487614246057879   0.009256984911069    66.3430326969392     
5.08784194778044     0.009341356576452    66.5192808952325     0.996314866124294    -0.492722765180697   0.996314866124294    -0.492722765180697   0.009341356576452    66.5192808952325     
5.14117838816002     0.009426692882052    66.6942521527796     0.996308061557998    -0.497884783417972   0.996308061557998    -0.497884783417972   0.009426692882052    66.6942521527796     
5.19507396066312     0.00951300353087     66.8679475153096     0.996301209214681    -0.50310086063754    0.996301209214681    -0.50310086063754    0.00951300353087     66.8679475153096     
5.24953452673697     0.009600298324274    67.0403682037791     0.996294308587032    -0.508371562557398   0.996294308587032    -0.508371562557398   0.009600298324274    67.0403682037791     
5.30456600927507     0.009688587163157    67.2115156099837     0.996287359159638    -0.5136974608066     0.996287359159638    -0.5136974608066     0.009688587163157    67.2115156099837     
5.36017439326127     0.009777880049101    67.3813912921895     0.996280360408896    -0.519079132986834   0.996280360408896    -0.519079132986834   0.009777880049101    67.3813912921895     
5.41636572642072     0.009868187085549    67.5499969707899     0.996273311802764    -0.52451716273453    0.996273311802764    -0.52451716273453    0.009868187085549    67.5499969707899     
5.47314611987757     0.009959518478996    67.717334523988      0.996266212800671    -0.530012139783724   0.996266212800671    -0.530012139783724   0.009959518478996    67.717334523988      
5.53052174881961     0.010051884540178    67.8834059835089     0.996259062853326    -0.535564660029516   0.996259062853326    -0.535564660029516   0.010051884540178    67.8834059835089     
5.58849885316983     0.010145295685283    68.0482135303424     0.996251861402527    -0.541175325592141   0.996251861402527    -0.541175325592141   0.010145295685283    68.0482135303424     
5.64708373826508     0.010239762437164    68.2117594905195     0.99624460788105     -0.54684474488181    0.99624460788105     -0.54684474488181    0.010239762437164    68.2117594905195     
5.70628277554175     0.010335295426568    68.3740463309236     0.996237301712374    -0.552573532664085   0.996237301712374    -0.552573532664085   0.010335295426568    68.3740463309236     
5.76610240322879     0.01043190539337     68.5350766551394     0.996229942310612    -0.558362310126055   0.996229942310612    -0.558362310126055   0.01043190539337     68.5350766551394     
5.82654912704783     0.010529603187824    68.6948531993397     0.996222529080252    -0.564211704943089   0.996222529080252    -0.564211704943089   0.010529603187824    68.6948531993397     
5.88762952092073     0.01062839977182     68.8533788282142     0.996215061415979    -0.570122351346332   0.996215061415979    -0.570122351346332   0.01062839977182     68.8533788282142     
5.94935022768456     0.010728306220153    69.0106565309383     0.996207538702514    -0.576094890190893   0.996207538702514    -0.576094890190893   0.010728306220153    69.0106565309383     
6.01171795981401     0.010829333721804    69.1666894171868     0.996199960314395    -0.582129969024698   0.996199960314395    -0.582129969024698   0.010829333721804    69.1666894171868     
6.07473950015144     0.010931493581232    69.3214807131935     0.996192325615772    -0.588228242158096   0.996192325615772    -0.588228242158096   0.010931493581232    69.3214807131935     
6.13842170264452     0.011034797219677    69.4750337578533     0.996184633960231    -0.594390370734169   0.996184633960231    -0.594390370734169   0.011034797219677    69.4750337578533     
6.20277149309166     0.01113925617647     69.6273519988754     0.99617688469055     -0.600617022799702   0.99617688469055     -0.600617022799702   0.01113925617647     69.6273519988754     
6.26779586989522     0.011244882110362    69.778438988982      0.996169077138514    -0.606908873376999   0.996169077138514    -0.606908873376999   0.011244882110362    69.778438988982      
6.33350190482265     0.011351686800859    69.928298382158      0.9961612106247      -0.61326660453632    0.9961612106247      -0.61326660453632    0.011351686800859    69.928298382158      
6.39989674377552     0.01145968214957     70.07693392995       0.996153284458235    -0.619690905469148   0.996153284458235    -0.619690905469148   0.01145968214957     70.07693392995       
6.46698760756675     0.01156888018157     70.2243494778172     0.99614529793659     -0.62618247256215    0.99614529793659     -0.62618247256215    0.01156888018157     70.2243494778172     
6.53478179270589     0.011679293046764    70.3705489615322     0.996137250345332    -0.63274200947191    0.996137250345332    -0.63274200947191    0.011679293046764    70.3705489615322     
6.60328667219262     0.011790933021278    70.5155364036349     0.996129140957909    -0.639370227200443   0.996129140957909    -0.639370227200443   0.011790933021278    70.5155364036349     
6.67250969631867     0.011903812508852    70.6593159099417     0.996120969035389    -0.646067844171489   0.996120969035389    -0.646067844171489   0.011903812508852    70.6593159099417     
6.74245839347801     0.012017944042247    70.8018916661031     0.996112733826238    -0.652835586307526   0.996112733826238    -0.652835586307526   0.012017944042247    70.8018916661031     
6.81314037098568     0.012133340284667    70.9432679342209     0.996104434566055    -0.659674187107699   0.996104434566055    -0.659674187107699   0.012133340284667    70.9432679342209     
6.88456331590505     0.012250014031186    71.0834490495138     0.996096070477315    -0.666584387726356   0.996096070477315    -0.666584387726356   0.012250014031186    71.0834490495138     
6.95673499588391     0.012367978210203    71.2224394170427     0.996087640769134    -0.673566937052595   0.996087640769134    -0.673566937052595   0.012367978210203    71.2224394170427     
7.02966325999919     0.01248724588489     71.3602435084861     0.996079144636966    -0.680622591790454   0.996079144636966    -0.680622591790454   0.01248724588489     71.3602435084861     
7.10335603961061     0.012607830254666    71.4968658589749     0.99607058126235     -0.687752116540026   0.99607058126235     -0.687752116540026   0.012607830254666    71.4968658589749     
7.17782134922325     0.012729744656682    71.6323110639777     0.996061949812638    -0.694956283879353   0.996061949812638    -0.694956283879353   0.012729744656682    71.6323110639777     
7.25306728735919     0.012853002567317    71.7665837762441     0.996053249440727    -0.702235874447178   0.996053249440727    -0.702235874447178   0.012853002567317    71.7665837762441     
7.32910203743827     0.012977617603685    71.8996887028026     0.996044479284728    -0.709591677026516   0.996044479284728    -0.709591677026516   0.012977617603685    71.8996887028026     
7.40593386866806     0.013103603525163    72.031630602012      0.996035638467697    -0.717024488629088   0.996035638467697    -0.717024488629088   0.013103603525163    72.031630602012      
7.4835711369432      0.013230974234922    72.16241428067       0.996026726097361    -0.724535114580655   0.996026726097361    -0.724535114580655   0.013230974234922    72.16241428067       
7.56202228575416     0.013359743781481    72.2920445911734     0.996017741265753    -0.732124368607131   0.996017741265753    -0.732124368607131   0.013359743781481    72.2920445911734     
7.64129584710548     0.013489926360271    72.420526428737      0.996008683048953    -0.73979307292168    0.996008683048953    -0.73979307292168    0.013489926360271    72.420526428737      
7.72140044244373     0.013621536315212    72.5478647286625     0.995999550506734    -0.7475420583126     0.995999550506734    -0.7475420583126     0.013621536315212    72.5478647286625     
7.80234478359508     0.013754588140305    72.6740644636648     0.995990342682264    -0.755372164232177   0.995990342682264    -0.755372164232177   0.013754588140305    72.6740644636648     
7.88413767371281     0.013889096481239    72.7991306412505     0.995981058601736    -0.763284238886388   0.995981058601736    -0.763284238886388   0.013889096481239    72.7991306412505     
7.96678800823467     0.014025076137013    72.9230683011498     0.995971697274087    -0.771279139325569   0.995971697274087    -0.771279139325569   0.014025076137013    72.9230683011498     
8.05030477585033     0.014162542061566    73.0458825128016     0.995962257690576    -0.779357731535909   0.995962257690576    -0.779357731535909   0.014162542061566    73.0458825128016     
8.13469705947894     0.014301509365436    73.1675783728925     0.995952738824506    -0.787520890532011   0.995952738824506    -0.787520890532011   0.014301509365436    73.1675783728925     
8.21997403725695     0.014441993317416    73.2881610029453     0.995943139630812    -0.795769500450244   0.995943139630812    -0.795769500450244   0.014441993317416    73.2881610029453     
8.30614498353627     0.014584009346238    73.4076355469628     0.995933459045702    -0.804104454643169   0.995933459045702    -0.804104454643169   0.014584009346238    73.4076355469628     
8.39321926989295     0.014727573042271    73.5260071691194     0.995923695986307    -0.812526655774809   0.995923695986307    -0.812526655774809   0.014727573042271    73.5260071691194     
8.48120636614634     0.014872700159224    73.6432810515055     0.995913849350259    -0.821037015916963   0.995913849350259    -0.821037015916963   0.014872700159224    73.6432810515055     
8.57011584138903     0.015019406615878    73.7594623919226     0.995903918015322    -0.829636456646484   0.995903918015322    -0.829636456646484   0.015019406615878    73.7594623919226     
8.65995736502752     0.015167708497825    73.8745564017263     0.995893900839013    -0.838325909143489   0.995893900839013    -0.838325909143489   0.015167708497825    73.8745564017263     
8.7507407078338      0.015317622059227    73.9885683037191     0.995883796658132    -0.847106314290573   0.995883796658132    -0.847106314290573   0.015317622059227    73.9885683037191     
8.84247574300803     0.015469163724586    74.1015033300928     0.995873604288401    -0.855978622773115   0.995873604288401    -0.855978622773115   0.015469163724586    74.1015033300928     
8.93517244725227     0.015622350090537    74.2133667204175     0.995863322524046    -0.864943795180476   0.995863322524046    -0.864943795180476   0.015622350090537    74.2133667204175     
9.02884090185552     0.015777197927652    74.3241637196789     0.995852950137289    -0.874002802108234   0.995852950137289    -0.874002802108234   0.015777197927652    74.3241637196789     
9.12349129379009     0.01593372418226     74.433899576361      0.995842485877999    -0.883156624261564   0.995842485877999    -0.883156624261564   0.01593372418226     74.433899576361      
9.21913391681952     0.016091945978291    74.5425795405759     0.99583192847316     -0.892406252559465   0.99583192847316     -0.892406252559465   0.016091945978291    74.5425795405759     
9.31577917261808     0.016251880619129    74.6502088622395     0.995821276626481    -0.901752688240236   0.995821276626481    -0.901752688240236   0.016251880619129    74.6502088622395     
9.41343757190197     0.01641354558948     74.7567927892899     0.995810529017869    -0.911196942967856   0.995810529017869    -0.911196942967856   0.01641354558948     74.7567927892899     
9.51211973557251     0.01657695855727     74.8623365659517     0.995799684302954    -0.920740038939489   0.995799684302954    -0.920740038939489   0.01657695855727     74.8623365659517     
9.61183639587112     0.016742137375545    74.9668454310429     0.995788741112656    -0.930383008994111   0.995788741112656    -0.930383008994111   0.016742137375545    74.9668454310429     
9.71259839754657     0.0169091000844      75.0703246163246     0.995777698052592    -0.940126896722116   0.995777698052592    -0.940126896722116   0.0169091000844      75.0703246163246     
9.81441669903441     0.017077864912918    75.1727793448926     0.995766553702654    -0.949972756576162   0.995766553702654    -0.949972756576162   0.017077864912918    75.1727793448926     
9.91730237364873     0.01724845028113     75.27421482961       0.995755306616438    -0.95992165398297    0.995755306616438    -0.95992165398297    0.01724845028113     75.27421482961       
10.0212666107865     0.017420874801995    75.3746362715813     0.9957439553207      -0.969974665456346   0.9957439553207      -0.969974665456346   0.017420874801995    75.3746362715813     
10.1263207171443     0.017595157283394    75.4740488586652     0.995732498314857    -0.980132878711309   0.995732498314857    -0.980132878711309   0.017595157283394    75.4740488586652     
10.2324761179484     0.017771316730144    75.572457764027      0.995720934070402    -0.990397392779351   0.995720934070402    -0.990397392779351   0.017771316730144    75.572457764027      
10.3397443581968     0.017949372346032    75.6698681447301     0.995709261030338    -1.0007693181248     0.995709261030338    -1.0007693181248     0.017949372346032    75.6698681447301     
10.4481371039152     0.018129343535865    75.766285140364      0.995697477608629    -1.01124977676243    0.995697477608629    -1.01124977676243    0.018129343535865    75.766285140364      
10.5576661434256     0.01831124990754     75.8617138717103     0.99568558218956     -1.02183990237613    0.99568558218956     -1.02183990237613    0.01831124990754     75.8617138717103     
10.6683433886281     0.018495111274136    75.9561594394446     0.995673573127188    -1.0325408404389     0.995673573127188    -1.0325408404389     0.018495111274136    75.9561594394446     
10.7801808762971     0.018680947656017    76.0496269228741     0.995661448744673    -1.04335374833382    0.995661448744673    -1.04335374833382    0.018680947656017    76.0496269228741     
10.8931907693895     0.018868779282964    76.1421213787102     0.995649207333712    -1.05427979547648    0.995649207333712    -1.05427979547648    0.018868779282964    76.1421213787102     
11.0073853583681     0.019058626596321    76.2336478398747     0.995636847153844    -1.06532016343838    0.995636847153844    -1.06532016343838    0.019058626596321    76.2336478398747     
11.122777062538      0.01925051025116     76.3242113143406     0.995624366431826    -1.07647604607169    0.995624366431826    -1.07647604607169    0.01925051025116     76.3242113143406     
11.2393784313974     0.019444451118468    76.4138167840048     0.995611763360971    -1.08774864963523    0.995611763360971    -1.08774864963523    0.019444451118468    76.4138167840048     
11.3572021460023     0.019640470287357    76.5024692035927     0.995599036100446    -1.09913919292163    0.995599036100446    -1.09913919292163    0.019640470287357    76.5024692035927     
11.4762610203455     0.019838589067285    76.5901734995957     0.995586182774576    -1.11064890738578    0.995586182774576    -1.11064890738578    0.019838589067285    76.5901734995957     
11.5965680027508     0.020038828990307    76.6769345692373     0.995573201472166    -1.12227903727453    0.995573201472166    -1.12227903727453    0.020038828990307    76.6769345692373     
11.7181361772803     0.020241211813341    76.7627572794713     0.995560090245743    -1.13403083975771    0.995560090245743    -1.13403083975771    0.020241211813341    76.7627572794713     
11.8409787651583     0.020445759520457    76.847646466008      0.99554684711084     -1.14590558506038    0.99554684711084     -1.14590558506038    0.020445759520457    76.847646466008      
11.9651091262083     0.020652494325186    76.9316069323696     0.995533470045221    -1.15790455659636    0.995533470045221    -1.15790455659636    0.020652494325186    76.9316069323696     
12.0905407603069     0.020861438672847    77.0146434489736     0.995519956988134    -1.17002905110315    0.995519956988134    -1.17002905110315    0.020861438672847    77.0146434489736     
12.217287308851      0.021072615242905    77.096760752244      0.995506305839514    -1.18228037877806    0.995506305839514    -1.18228037877806    0.021072615242905    77.096760752244      
12.3453625562421     0.021286046951335    77.1779635437486     0.995492514459164    -1.19465986341574    0.995492514459164    -1.19465986341574    0.021286046951335    77.1779635437486     
12.4747804313851     0.021501756953023    77.2582564893628     0.99547858066597     -1.20716884254707    0.99547858066597     -1.20716884254707    0.021501756953023    77.2582564893628     
12.6055550092034     0.021719768644179    77.3376442184587     0.995464502237062    -1.2198086675793     0.995464502237062    -1.2198086675793     0.021719768644179    77.3376442184587     
12.7377005121692     0.021940105664771    77.4161313231195     0.995450276906924    -1.23258070393762    0.995450276906924    -1.23258070393762    0.021940105664771    77.4161313231195     
12.8712313118507     0.022162791900993    77.4937223573777     0.995435902366556    -1.2454863312081     0.995435902366556    -1.2454863312081     0.022162791900993    77.4937223573777     
13.0061619304749     0.022387851487737    77.570421836477      0.995421376262583    -1.25852694328203    0.995421376262583    -1.25852694328203    0.022387851487737    77.570421836477      
13.1425070425071     0.022615308811104    77.6462342361574     0.995406696196344    -1.27170394850154    0.995406696196344    -1.27170394850154    0.022615308811104    77.6462342361574     
13.2802814762465     0.022845188510928    77.7211639919627     0.995391859722966    -1.28501876980682    0.995391859722966    -1.28501876980682    0.022845188510928    77.7211639919627     
13.4195002154392     0.023077515483321    77.7952154985698     0.995376864350415    -1.29847284488451    0.995376864350415    -1.29847284488451    0.023077515483321    77.7952154985698     
13.5601784009078     0.023312314883252    77.8683931091395     0.995361707538548    -1.31206762631782    0.995361707538548    -1.31206762631782    0.023312314883252    77.8683931091395     
13.7023313321976     0.023549612127137    77.9407011346875     0.995346386698102    -1.32580458173773    0.995346386698102    -1.32580458173773    0.023549612127137    77.9407011346875     
13.8459744692412     0.023789432895457    78.0121438434764     0.995330899189734    -1.33968519397598    0.995330899189734    -1.33968519397598    0.023789432895457    78.0121438434764     
13.9911234340392     0.024031803135398    78.0827254604264     0.995315242322932    -1.35371096121923    0.995315242322932    -1.35371096121923    0.024031803135398    78.0827254604264     
14.1377940123594     0.024276749063521    78.1524501665459     0.995299413355047    -1.36788339716496    0.995299413355047    -1.36788339716496    0.024276749063521    78.1524501665459     
14.286002155454      0.02452429716844     78.2213220983801     0.995283409490164    -1.3822040311786     0.995283409490164    -1.3822040311786     0.02452429716844     78.2213220983801     
14.4357639817936     0.024774474213542    78.2893453474776     0.99526722787801     -1.39667440845231    0.99526722787801     -1.39667440845231    0.024774474213542    78.2893453474776     
14.5870957788209     0.025027307239718    78.3565239598752     0.995250865612921    -1.41129609016525    0.995250865612921    -1.41129609016525    0.025027307239718    78.3565239598752     
14.7400140047217     0.02528282356812     78.4228619355984     0.995234319732595    -1.42607065364525    0.995234319732595    -1.42607065364525    0.02528282356812     78.4228619355984     
14.8945352902149     0.02554105080295     78.4883632281801     0.99521758721703     -1.44099969253219    0.99521758721703     -1.44099969253219    0.02554105080295     78.4883632281801     
15.050676440361      0.025802016834261    78.5530317441937     0.995200664987278    -1.45608481694273    0.995200664987278    -1.45608481694273    0.025802016834261    78.5530317441937     
15.2084544363902     0.026065749840794    78.6168713428029     0.995183549904284    -1.4713276536367     0.995183549904284    -1.4713276536367     0.026065749840794    78.6168713428029     
15.3678864375485     0.026332278292829    78.6798858353257     0.995166238767608    -1.48672984618502    0.995166238767608    -1.48672984618502    0.026332278292829    78.6798858353257     
15.5289897829648     0.026601630955066    78.7420789848137     0.995148728314225    -1.50229305513918    0.995148728314225    -1.50229305513918    0.026601630955066    78.7420789848137     
15.6917819935356     0.026873836889534    78.8034545056451     0.995131015217189    -1.51801895820227    0.995131015217189    -1.51801895820227    0.026873836889534    78.8034545056451     
15.8562807738314     0.027148925458516    78.8640160631318     0.995113096084356    -1.53390925040168    0.995113096084356    -1.53390925040168    0.027148925458516    78.8640160631318     
16.0225040140215     0.027426926327506    78.923767273139      0.995094967457024    -1.54996564426331    0.995094967457024    -1.54996564426331    0.027426926327506    78.923767273139      
16.1904697918202     0.027707869468189    78.9827117017186     0.995076625808625    -1.56618986998746    0.995076625808625    -1.56618986998746    0.027707869468189    78.9827117017186     
16.3601963744523     0.027991785161442    79.0408528647546     0.995058067543242    -1.58258367562621    0.995058067543242    -1.58258367562621    0.027991785161442    79.0408528647546     
16.5317022206401     0.028278704000371    79.0981942276202     0.995039288994281    -1.59914882726272    0.995039288994281    -1.59914882726272    0.028278704000371    79.0981942276202     
16.7050059826111     0.028568656893357    79.1547392048467     0.995020286422967    -1.61588710919175    0.995020286422967    -1.61588710919175    0.028568656893357    79.1547392048467     
16.8801265081261     0.028861675067142    79.2104911598043     0.995001056016887    -1.63280032410225    0.995001056016887    -1.63280032410225    0.028861675067142    79.2104911598043     
17.0570828425289     0.029157790069935    79.2654534043923     0.994981593888454    -1.6498902932612     0.994981593888454    -1.6498902932612     0.029157790069935    79.2654534043923     
17.2358942308184     0.029457033774538    79.3196291987411     0.994961896073427    -1.66715885669962    0.994961896073427    -1.66715885669962    0.029457033774538    79.3196291987411     
17.4165801197407     0.02975943838151     79.3730217509238     0.994941958529267    -1.6846078733997     0.994941958529267    -1.6846078733997     0.02975943838151     79.3730217509238     
17.5991601599045     0.030065036422343    79.4256342166769     0.994921777133578    -1.70223922148405    0.994921777133578    -1.70223922148405    0.030065036422343    79.4256342166769     
17.7836542079182     0.030373860762673    79.4774696991312     0.994901347682462    -1.72005479840644    0.994901347682462    -1.72005479840644    0.030373860762673    79.4774696991312     
17.970082328549      0.030685944605514    79.5285312485519     0.994880665888848    -1.7380565211443     0.994880665888848    -1.7380565211443     0.030685944605514    79.5285312485519     
18.158464796906      0.031001321494515    79.5788218620859     0.994859727380775    -1.75624632639293    0.994859727380775    -1.75624632639293    0.031001321494515    79.5788218620859     
18.3488221006441     0.031320025317249    79.6283444835191     0.994838527699668    -1.77462617076141    0.994838527699668    -1.77462617076141    0.031320025317249    79.6283444835191     
18.5411749421928     0.031642090308519    79.6771020030411     0.994817062298575    -1.79319803097037    0.994817062298575    -1.79319803097037    0.031642090308519    79.6771020030411     
18.7355442410078     0.031967551053699    79.7250972570169     0.994795326540314    -1.81196390405126    0.994795326540314    -1.81196390405126    0.031967551053699    79.7250972570169     
18.9319511358457     0.032296442492094    79.7723330277673     0.994773315695655    -1.83092580754756    0.994773315695655    -1.83092580754756    0.032296442492094    79.7723330277673     
19.1304169870632     0.032628799920333    79.8188120433553     0.994751024941466    -1.85008577971783    0.994751024941466    -1.85008577971783    0.032628799920333    79.8188120433553     
19.3309633789401     0.032964658995774    79.8645369773798     0.994728449358699    -1.86944587974012    0.994728449358699    -1.86944587974012    0.032964658995774    79.8645369773798     
19.5336121220266     0.033304055739957    79.909510448776      0.99470558393051     -1.8890081879187     0.99470558393051     -1.8890081879187     0.033304055739957    79.909510448776      
19.7383852555158     0.033647026542059    79.953735021621      0.994682423540236    -1.90877480589212    0.994682423540236    -1.90877480589212    0.033647026542059    79.953735021621      
19.9453050496397     0.033993608162389    79.9972132049468     0.9946589629693      -1.92874785684327    0.9946589629693      -1.92874785684327    0.033993608162389    79.9972132049468     
20.1543940080923     0.034343837735909    80.0399474525579     0.994635196895217    -1.94892948571127    0.994635196895217    -1.94892948571127    0.034343837735909    80.0399474525579     
20.365674870476      0.034697752775773    80.0819401628548     0.994611119889369    -1.96932185940499    0.994611119889369    -1.96932185940499    0.034697752775773    80.0819401628548     
20.5791706147755     0.035055391176898    80.1231936786623     0.994586726414892    -1.9899271670185     0.994586726414892    -1.9899271670185     0.035055391176898    80.1231936786623     
20.7949044598559     0.035416791219557    80.1637102870633     0.994562010824447    -2.01074762004831    0.994562010824447    -2.01074762004831    0.035416791219557    80.1637102870633     
21.0128998679888     0.035781991572998    80.2034922192366     0.994536967357967    -2.03178545261244    0.994536967357967    -2.03178545261244    0.035781991572998    80.2034922192366     
21.2331805474034     0.036151031299091    80.2425416502997     0.994511590140315    -2.05304292167124    0.994511590140315    -2.05304292167124    0.036151031299091    80.2425416502997     
21.455770454865      0.036523949855997    80.2808606991552     0.994485873178966    -2.0745223072501     0.994485873178966    -2.0745223072501     0.036523949855997    80.2808606991552     
21.6806937982804     0.036900787101865    80.3184514283422     0.99445981036159     -2.09622591266403    0.99445981036159     -2.09622591266403    0.036900787101865    80.3184514283422     
21.9079750393308     0.037281583298549    80.35531584389       0.994433395453619    -2.11815606474397    0.994433395453619    -2.11815606474397    0.037281583298549    80.35531584389       
22.1376388961321     0.037666379115357    80.3914558951769     0.994406622095723    -2.14031511406499    0.994406622095723    -2.14031511406499    0.037666379115357    80.3914558951769     
22.369710345923      0.038055215632818    80.4268734747912     0.994379483801252    -2.16270543517631    0.994379483801252    -2.16270543517631    0.038055215632818    80.4268734747912     
22.6042146277815     0.038448134346477    80.4615704183958     0.994351973953674    -2.18532942683327    0.994351973953674    -2.18532942683327    0.038448134346477    80.4615704183958     
22.8411772453699     0.038845177170715    80.495548504596      0.994324085803877    -2.20818951223095    0.994324085803877    -2.20818951223095    0.038845177170715    80.495548504596      
23.0806239697083     0.039246386442588    80.5288094548095     0.994295812467488    -2.23128813923981    0.994295812467488    -2.23128813923981    0.039246386442588    80.5288094548095     
23.3225808419772     0.039651804925698    80.5613549331394     0.994267146922094    -2.2546277806431     0.994267146922094    -2.2546277806431     0.039651804925698    80.5613549331394     
23.5670741763503     0.04006147581408     80.5931865462493     0.994238082004441    -2.27821093437611    0.994238082004441    -2.27821093437611    0.04006147581408     80.5931865462493     
23.8141305628555     0.040475442736117    80.6243058432413     0.994208610407537    -2.30204012376733    0.994208610407537    -2.30204012376733    0.040475442736117    80.6243058432413     
24.0637768702671     0.040893749758471    80.6547143155351     0.994178724677709    -2.32611789778131    0.994178724677709    -2.32611789778131    0.040893749758471    80.6547143155351     
24.3160402490281     0.041316441390051    80.6844133967495     0.994148417211646    -2.35044683126364    0.994148417211646    -2.35044683126364    0.041316441390051    80.6844133967495     
24.5709481342024     0.041743562585987    80.713404462586      0.994117680253334    -2.3750295251874     0.994117680253334    -2.3750295251874     0.041743562585987    80.713404462586      
24.8285282484592     0.042175158751637    80.7416888307132     0.994086505890896    -2.39986860690182    0.994086505890896    -2.39986860690182    0.042175158751637    80.7416888307132     
25.0888086050875     0.04261127574661     80.7692677606533     0.994054886053491    -2.42496673038249    0.994054886053491    -2.42496673038249    0.04261127574661     80.7692677606533     
25.3518175110429     0.043051959888814    80.7961424536696     0.994022812507996    -2.45032657648359    0.994022812507996    -2.45032657648359    0.043051959888814    80.7961424536696     
25.6175835700263     0.043497257958522    80.8223140526553     0.993990276855768    -2.47595085319186    0.993990276855768    -2.47595085319186    0.043497257958522    80.8223140526553     
25.8861356855942     0.043947217202462    80.847783642023      0.993957270529219    -2.50184229588239    0.993957270529219    -2.50184229588239    0.043947217202462    80.847783642023      
26.1575030643028     0.044401885337921    80.8725522475957     0.993923784788403    -2.52800366757633    0.993923784788403    -2.52800366757633    0.044401885337921    80.8725522475957     
26.4317152188836     0.044861310556875    80.896620836498      0.993889810717487    -2.5544377592001     0.993889810717487    -2.5544377592001     0.044861310556875    80.896620836498      
26.7088019714541     0.045325541530135    80.9199903170485     0.993855339221201    -2.5811473898469     0.993855339221201    -2.5811473898469     0.045325541530135    80.9199903170485     
26.98879345676       0.045794627411508    80.942661538652      0.99382036102117     -2.60813540703962    0.99382036102117     -2.60813540703962    0.045794627411508    80.942661538652      
27.2717201254532     0.046268617841987    80.964635291693      0.993784866652185    -2.63540468699555    0.993784866652185    -2.63540468699555    0.046268617841987    80.964635291693      
27.5576127474036     0.04674756295394     80.985912307429      0.993748846458403    -2.66295813489305    0.993748846458403    -2.66295813489305    0.04674756295394     80.985912307429      
27.8465024150448     0.047231513375337    81.006493257884      0.993712290589499    -2.69079868513986    0.993712290589499    -2.69079868513986    0.047231513375337    81.006493257884      
28.1384205467564     0.047720520233976    81.0263787557425     0.99367518899669     -2.71892930164321    0.99367518899669     -2.71892930164321    0.047720520233976    81.0263787557425     
28.4333988902803     0.048214635161732    81.0455693542431     0.993637531428731    -2.74735297808155    0.993637531428731    -2.74735297808155    0.048214635161732    81.0455693542431     
28.7314695261738     0.048713910298819    81.0640655470726     0.993599307427763    -2.77607273817806    0.993599307427763    -2.77607273817806    0.048713910298819    81.0640655470726     
29.0326648712983     0.049218398298068    81.0818677682595     0.993560506325181    -2.80509163597595    0.993560506325181    -2.80509163597595    0.049218398298068    81.0818677682595     
29.337017682345      0.049728152329212    81.098976392067      0.993521117237312    -2.83441275611528    0.993521117237312    -2.83441275611528    0.049728152329212    81.098976392067      
29.6445610593974     0.050243226083192    81.1153917328872     0.993481129061103    -2.86403921411151    0.993481129061103    -2.86403921411151    0.050243226083192    81.1153917328872     
29.9553284495309     0.050763673776466    81.1311140451327     0.993440530469628    -2.89397415663572    0.993440530469628    -2.89397415663572    0.050763673776466    81.1311140451327     
30.2693536504506     0.051289550155336    81.1461435231297     0.993399309907597    -2.92422076179641    0.993399309907597    -2.92422076179641    0.051289550155336    81.1461435231297     
30.5866708141667     0.051820910500272    81.1604803010101     0.993357455586717    -2.95478223942287    0.993357455586717    -2.95478223942287    0.051820910500272    81.1604803010101     
30.9073144507092     0.052357810630266    81.1741244526019     0.993314955480986    -2.98566183135021    0.993314955480986    -2.98566183135021    0.052357810630266    81.1741244526019     
31.2313194318806     0.052900306907167    81.1870759913209     0.9932717973219      -3.01686281170585    0.9932717973219      -3.01686281170585    0.052900306907167    81.1870759913209     
31.5587209950484     0.053448456240044    81.1993348700602     0.993227968593531    -3.04838848719745    0.993227968593531    -3.04838848719745    0.053448456240044    81.1993348700602     
31.8895547469779     0.054002316089546    81.21090098108       0.993183456527571    -3.08024219740274    0.993183456527571    -3.08024219740274    0.054002316089546    81.21090098108       
32.223856667704      0.054561944472261    81.2217741558959     0.993138248098194    -3.11242731506002    0.993138248098194    -3.11242731506002    0.054561944472261    81.2217741558959     
32.5616631144445     0.055127399965088    81.2319541651669     0.993092330016929    -3.14494724636105    0.993092330016929    -3.14494724636105    0.055127399965088    81.2319541651669     
32.9030108255544     0.055698741709604    81.2414407185827     0.993045688727288    -3.17780543124446    0.993045688727288    -3.17780543124446    0.055698741709604    81.2414407185827     
33.2479369245209     0.056276029416432    81.2502334647495     0.992998310399455    -3.21100534369113    0.992998310399455    -3.21100534369113    0.056276029416432    81.2502334647495     
33.5964789240011     0.056859323369609    81.2583319910757     0.992950180924734    -3.24455049202046    0.992950180924734    -3.24455049202046    0.056859323369609    81.2583319910757     
33.9486747299018     0.057448684430953    81.2657358236561     0.992901285909956    -3.27844441918825    0.992901285909956    -3.27844441918825    0.057448684430953    81.2657358236561     
34.3045626455017     0.058044174044424    81.2724444271556     0.992851610671778    -3.31269070308567    0.992851610671778    -3.31269070308567    0.058044174044424    81.2724444271556     
34.6641813756173     0.058645854240477    81.2784572046919     0.992801140230834    -3.34729295683911    0.992801140230834    -3.34729295683911    0.058645854240477    81.2784572046919     
35.0275700308121     0.059253787640415    81.2837734977169     0.992749859305849    -3.38225482911198    0.992749859305849    -3.38225482911198    0.059253787640415    81.2837734977169     
35.3947681316503     0.059868037460727    81.2883925858977     0.992697752307524    -3.41758000440663    0.992697752307524    -3.41758000440663    0.059868037460727    81.2883925858977     
35.7658156129949     0.060488667517416    81.2923136869962     0.992644803332399    -3.45327220336794    0.992644803332399    -3.45327220336794    0.060488667517416    81.2923136869962     
36.1407528283504     0.061115742230318    81.2955359567483     0.992590996156596    -3.48933518308788    0.992590996156596    -3.48933518308788    0.061115742230318    81.2955359567483     
36.519620554252      0.061749326627405    81.2980584887415     0.992536314229367    -3.52577273741054    0.992536314229367    -3.52577273741054    0.061749326627405    81.2980584887415     
36.9024599947002     0.06238948634907     81.2998803142919     0.992480740666588    -3.56258869723865    0.992480740666588    -3.56258869723865    0.06238948634907     81.2998803142919     
37.2893127856415     0.063036287652401    81.3010004023205     0.99242425824412     -3.59978693084047    0.99242425824412     -3.59978693084047    0.063036287652401    81.3010004023205     
37.6802209994972     0.063689797415419    81.3014176592285     0.992366849390996    -3.63737134415748    0.992366849390996    -3.63737134415748    0.063689797415419    81.3014176592285     
38.0752271497386     0.064350083141318    81.3011309287712     0.992308496182564    -3.67534588111308    0.992308496182564    -3.67534588111308    0.064350083141318    81.3011309287712     
38.4743741955105     0.065017212962654    81.3001389919318     0.992249180333398    -3.71371452392144    0.992249180333398    -3.71371452392144    0.065017212962654    81.3001389919318     
38.8777055463037     0.06569125564553     81.2984405667945     0.992188883190154    -3.7524812933972     0.992188883190154    -3.7524812933972     0.06569125564553     81.2984405667945     
39.2852650666756     0.066372280593733    81.2960343084156     0.992127585724284    -3.79165024926566    0.992127585724284    -3.79165024926566    0.066372280593733    81.2960343084156     
39.6970970810209     0.067060357852856    81.2929188086953     0.992065268524551    -3.83122549047303    0.992065268524551    -3.83122549047303    0.067060357852856    81.2929188086953     
40.1132463783921     0.067755558114371    81.2890925962482     0.99200191178948     -3.87121115549746    0.99200191178948     -3.87121115549746    0.067755558114371    81.2890925962482     
40.5337582173705     0.068457952719673    81.2845541362732     0.991937495319602    -3.91161142265974    0.991937495319602    -3.91161142265974    0.068457952719673    81.2845541362732     
40.9586783309885     0.069167613664086    81.2793018304225     0.991871998509632    -3.95243051043473    0.991871998509632    -3.95243051043473    0.069167613664086    81.2793018304225     
41.3880529317031     0.06988461360082     81.273334016671      0.991805400340412    -3.99367267776234    0.991805400340412    -3.99367267776234    0.06988461360082     81.273334016671      
41.821928716422      0.070609025844886    81.2666489691842     0.991737679370783    -4.03534222435867    0.991737679370783    -4.03534222435867    0.070609025844886    81.2666489691842     
42.2603528715819     0.071340924376963    81.2592448981866     0.991668813729233    -4.07744349102704    0.991668813729233    -4.07744349102704    0.071340924376963    81.2592448981866     
42.7033730782804     0.072080383847212    81.2511199498293     0.991598781105468    -4.11998085996857    0.991598781105468    -4.11998085996857    0.072080383847212    81.2511199498293     
43.1510375174618     0.072827479579036    81.2422722060571     0.991527558741767    -4.16295875509265    0.991527558741767    -4.16295875509265    0.072827479579036    81.2422722060571     
43.6033948751568     0.07358228757278     81.2326996844766     0.991455123424215    -4.2063816423266     0.991455123424215    -4.2063816423266     0.07358228757278     81.2326996844766     
44.0604943477771     0.074344884509369    81.2224003382232     0.991381451473734    -4.25025402992512    0.991381451473734    -4.25025402992512    0.074344884509369    81.2224003382232     
44.5223856474667     0.075115347753886    81.2113720558281     0.991306518737033    -4.29458046877876    0.991306518737033    -4.29458046877876    0.075115347753886    81.2113720558281     
44.9891190075072     0.075893755359071    81.1996126610867     0.991230300577281    -4.33936555272155    0.991230300577281    -4.33936555272155    0.075893755359071    81.1996126610867     
45.4607451877821     0.076680186068757    81.1871199129253     0.991152771864716    -4.38461391883787    0.991152771864716    -4.38461391883787    0.076680186068757    81.1871199129253     
45.9373154802963     0.07747471932122     81.1738915052706     0.991073906966994    -4.43033024776785    0.991073906966994    -4.43033024776785    0.07747471932122     81.1738915052706     
46.4188817147548     0.078277435252458    81.1599250669172     0.990993679739458    -4.47651926401201    0.990993679739458    -4.47651926401201    0.078277435252458    81.1599250669172     
46.9054962641997     0.079088414699374    81.1452181613978     0.990912063515166    -4.5231857362342     0.990912063515166    -4.5231857362342     0.079088414699374    81.1452181613978     
47.3972120507056     0.079907739202875    81.1297682868526     0.990829031094735    -4.57033447756285    0.990829031094735    -4.57033447756285    0.079907739202875    81.1297682868526     
47.8940825511353     0.080735491010879    81.1135728759009     0.990744554736058    -4.617970345891      0.990744554736058    -4.617970345891      0.080735491010879    81.1135728759009     
48.3961618029559     0.08157175308122     81.0966292955125     0.990658606143816    -4.66609824417415    0.990658606143816    -4.66609824417415    0.08157175308122     81.0966292955125     
48.9035044101158     0.082416609084442    81.0789348468817     0.990571156458774    -4.71472312072588    0.990571156458774    -4.71472312072588    0.082416609084442    81.0789348468817     
49.4161655489825     0.083270143406506    81.0604867653006     0.990482176246949    -4.76384996951221    0.990482176246949    -4.76384996951221    0.083270143406506    81.0604867653006     
49.9342009743441     0.084132441151352    81.0412822200366     0.990391635488517    -4.81348383044207    0.990391635488517    -4.81348383044207    0.084132441151352    81.0412822200366     
50.4576670254725     0.085003588143374    81.021318314209      0.990299503566596    -4.86362978965688    0.990299503566596    -4.86362978965688    0.085003588143374    81.021318314209      
50.9866206322509     0.085883670929747    81.0005920846692     0.990205749255806    -4.91429297981608    0.990205749255806    -4.91429297981608    0.085883670929747    81.0005920846692     
51.521119321365      0.086772776782636    80.9791005018821     0.99011034071059     -4.96547858038048    0.99011034071059     -4.96547858038048    0.086772776782636    80.9791005018821     
52.0612212225595     0.087670993701259    80.9568404698104     0.990013245453441    -5.01719181789196    0.990013245453441    -5.01719181789196    0.087670993701259    80.9568404698104     
52.60698507496       0.088578410413831    80.9338088257999     0.989914430362816    -5.06943796625067    0.989914430362816    -5.06943796625067    0.088578410413831    80.9338088257999     
53.1584702334611     0.089495116379322    80.9100023404694     0.989813861660912    -5.12222234698727    0.989813861660912    -5.12222234698727    0.089495116379322    80.9100023404694     
53.7157366751818     0.090421201789101    80.8854177176024     0.989711504901213    -5.17555032953269    0.989711504901213    -5.17555032953269    0.090421201789101    80.8854177176024     
54.2788450059882     0.091356757568391    80.8600515940413     0.989607324955826    -5.22942733148335    0.989607324955826    -5.22942733148335    0.091356757568391    80.8600515940413     
54.8478564670847     0.092301875377567    80.8339005395865     0.989501286002612    -5.2838588188617     0.989501286002612    -5.2838588188617     0.092301875377567    80.8339005395865     
55.4228329416745     0.093256647613283    80.8069610568976     0.989393351512142    -5.33885030637306    0.989393351512142    -5.33885030637306    0.093256647613283    80.8069610568976     
56.0038369616894     0.094221167409413    80.7792295813988     0.989283484234339    -5.39440735765721    0.989283484234339    -5.39440735765721    0.094221167409413    80.7792295813988     
56.5909317145911     0.095195528637799    80.7507024811891     0.989171646185       -5.45053558553477    0.989171646185       -5.45053558553477    0.095195528637799    80.7507024811891     
57.1841810502426     0.096179825908811    80.7213760569556     0.989057798632075    -5.50724065224874    0.989057798632075    -5.50724065224874    0.096179825908811    80.7213760569556     
57.7836494878524     0.097174154571697    80.6912465418926     0.988941902081662    -5.5645282697        0.988941902081662    -5.5645282697        0.097174154571697    80.6912465418926     
58.3894022229915     0.098178610714729    80.6603101016245     0.98882391626388     -5.6224041996776     0.98882391626388     -5.6224041996776     0.098178610714729    80.6603101016245     
59.0015051346837     0.099193291165116    80.6285628341346     0.988703800118438    -5.68087425408186    0.988703800118438    -5.68087425408186    0.099193291165116    80.6285628341346     
59.6200247925702     0.100218293488698    80.5960007696993     0.988581511779997    -5.73994429514188    0.988581511779997    -5.73994429514188    0.100218293488698    80.5960007696993     
60.2450284641495     0.101253715989399    80.5626198708278     0.988457008563323    -5.79962023562584    0.988457008563323    -5.79962023562584    0.101253715989399    80.5626198708278     
60.8765841220933     0.102299657708438    80.5284160322079     0.988330246948187    -5.85990803904427    0.988330246948187    -5.85990803904427    0.102299657708438    80.5284160322079     
61.5147604516386     0.103356218423278    80.4933850806588     0.988201182564047    -5.92081371984571    0.988201182564047    -5.92081371984571    0.103356218423278    80.4933850806588     
62.1596268580576     0.104423498646313    80.4575227750903     0.988069770174445    -5.98234334360469    0.988069770174445    -5.98234334360469    0.104423498646313    80.4575227750903     
62.8112534742064     0.105501599623286    80.4208248064687     0.987935963661308    -6.04450302720178    0.987935963661308    -6.04450302720178    0.105501599623286    80.4208248064687     
63.4697111681517     0.10659062333141     80.3832867977912     0.987799716008786    -6.10729893899419    0.987799716008786    -6.10729893899419    0.10659062333141     80.3832867977912     
64.1350715508787     0.107690672477212    80.3449043040677     0.987660979287103    -6.17073729897884    0.987660979287103    -6.17073729897884    0.107690672477212    80.3449043040677     
64.8074069840787     0.108801850494049    80.3056728123105     0.987519704635946    -6.23482437894457    0.987519704635946    -6.23482437894457    0.108801850494049    80.3056728123105     
65.4867905880189     0.109924261539336    80.2655877415333     0.987375842247782    -6.2995665026162     0.987375842247782    -6.2995665026162     0.109924261539336    80.2655877415333     
66.1732962494953     0.111058010491417    80.2246444427592     0.987229341350828    -6.36497004578659    0.987229341350828    -6.36497004578659    0.111058010491417    80.2246444427592     
66.8669986298673     0.112203202946126    80.1828381990383     0.98708015019182     -6.43104143644033    0.98708015019182     -6.43104143644033    0.112203202946126    80.1828381990383     
67.5679731731783     0.113359945212983    80.1401642254743     0.986928216018548    -6.49778715486464    0.986928216018548    -6.49778715486464    0.113359945212983    80.1401642254743     
68.2762961143602     0.114528344311019    80.0966176692632     0.986773485062104    -6.56521373374935    0.986773485062104    -6.56521373374935    0.114528344311019    80.0966176692632     
68.9920444875247     0.115708507964257    80.0521936097414     0.986615902518964    -6.63332775827563    0.986615902518964    -6.63332775827563    0.115708507964257    80.0521936097414     
69.7152961343412     0.116900544596774    80.0068870584462     0.986455412532709    -6.70213586619106    0.986455412532709    -6.70213586619106    0.116900544596774    80.0068870584462     
70.4461297125024     0.118104563327385    79.9606929591875     0.986291958175623    -6.77164474787305    0.986291958175623    -6.77164474787305    0.118104563327385    79.9606929591875     
71.1846247042783     0.119320673963906    79.913606188132      0.986125481429988    -6.84186114637821    0.986125481429988    -6.84186114637821    0.119320673963906    79.913606188132      
71.9308614251613     0.120548986996993    79.8656215539004     0.985955923169123    -6.91279185747772    0.985955923169123    -6.91279185747772    0.120548986996993    79.8656215539004     
72.6849210326003     0.121789613593541    79.8167337976784     0.985783223138181    -6.98444372967853    0.985783223138181    -6.98444372967853    0.121789613593541    79.8167337976784     
73.4468855348273     0.123042665589627    79.7669375933407     0.985607319934776    -7.05682366422942    0.985607319934776    -7.05682366422942    0.123042665589627    79.7669375933407     
74.216837799776      0.124308255482997    79.7162275475901     0.98542815098929     -7.12993861511213    0.98542815098929     -7.12993861511213    0.124308255482997    79.7162275475901     
74.9948615640944     0.125586496425042    79.6645982001123     0.985245652544923    -7.2037955890148     0.985245652544923    -7.2037955890148     0.125586496425042    79.6645982001123     
75.7810414422514     0.12687750221231     79.6120440237451     0.985059759637605    -7.27840164529032    0.985059759637605    -7.27840164529032    0.12687750221231     79.6120440237451     
76.5754629357395     0.128181387277484    79.558559424665      0.9848704060756      -7.35376389589675    0.9848704060756      -7.35376389589675    0.128181387277484    79.558559424665      
77.3782124423733     0.129498266679825    79.5041387425901     0.984677524418866    -7.42988950531949    0.984677524418866    -7.42988950531949    0.129498266679825    79.5041387425901     
78.1893772656854     0.130828256095094    79.448776251001      0.984481045958218    -7.50678569047507    0.984481045958218    -7.50678569047507    0.130828256095094    79.448776251001      
79.0090456244219     0.132171471804881    79.3924661573798     0.98428090069426     -7.58445972059578    0.98428090069426     -7.58445972059578    0.132171471804881    79.3924661573798     
79.8373066621362     0.133528030685384    79.3352026034676     0.98407701731607     -7.66291891709458    0.98407701731607     -7.66291891709458    0.133528030685384    79.3352026034676     
80.6742504568838     0.134898050195562    79.2769796655427     0.983869323179664    -7.74217065340848    0.983869323179664    -7.74217065340848    0.134898050195562    79.2769796655427     
81.5199680310193     0.136281648364705    79.2177913547175     0.983657744286299    -7.82222235482185    0.983657744286299    -7.82222235482185    0.136281648364705    79.2177913547175     
82.3745513610947     0.137678943779345    79.157631617258      0.98344220526044     -7.90308149826682    0.98344220526044     -7.90308149826682    0.137678943779345    79.157631617258      
83.2380933878636     0.139090055569532    79.0964943349241     0.983222629327658    -7.98475561210119    0.983222629327658    -7.98475561210119    0.139090055569532    79.0964943349241     
84.1106880263879     0.14051510339443     79.0343733253331     0.982998938292185    -8.06725227586236    0.982998938292185    -8.06725227586236    0.14051510339443     79.0343733253331     
84.992430176252      0.141954207427241    78.9712623423457     0.982771052514421    -8.15057911999812    0.982771052514421    -8.15057911999812    0.141954207427241    78.9712623423457     
85.8834157318842     0.143407488339402    78.9071550764771     0.982538890888089    -8.23474382557068    0.982538890888089    -8.23474382557068    0.143407488339402    78.9071550764771     
86.7837415929847     0.144875067284067    78.8420451553325     0.982302370817306    -8.31975412393608    0.982302370817306    -8.31975412393608    0.144875067284067    78.8420451553325     
87.6935056750648     0.146357065878836    78.775926144068      0.98206140819346     -8.40561779639653    0.98206140819346     -8.40561779639653    0.146357065878836    78.775926144068      
88.6128069200957     0.14785360618771     78.7087915458792     0.981815917371871    -8.49234267382433    0.981815917371871    -8.49234267382433    0.14785360618771     78.7087915458792     
89.5417453072686     0.149364810702276    78.6406348025162     0.981565811148315    -8.57993663625853    0.981565811148315    -8.57993663625853    0.149364810702276    78.6406348025162     
90.480421863868      0.150890802322054    78.5714492948281     0.981311000735384    -8.66840761247126    0.981311000735384    -8.66840761247126    0.150890802322054    78.5714492948281     
91.4289386762598     0.152431704334039    78.5012283433352     0.981051395738721    -8.75776357950476    0.981051395738721    -8.75776357950476    0.152431704334039    78.5012283433352     
92.3873989009926     0.153987640391355    78.4299652088338     0.980786904133034    -8.84801256217536    0.980786904133034    -8.84801256217536    0.153987640391355    78.4299652088338     
93.3559067760176     0.155558734491077    78.3576530930295     0.980517432238097    -8.93916263254816    0.980517432238097    -8.93916263254816    0.155558734491077    78.3576530930295     
94.3345676320242     0.157145110951109    78.2842851392048     0.980242884694559    -9.03122190937585    0.980242884694559    -9.03122190937585    0.157145110951109    78.2842851392048     
95.3234879038959     0.158746894386164    78.209854432919      0.979963164439598    -9.12419855750464    0.979963164439598    -9.12419855750464    0.158746894386164    78.209854432919      
96.3227751422855     0.160364209682796    78.1343540027419     0.979678172682627    -9.21810078724554    0.979678172682627    -9.21810078724554    0.160364209682796    78.1343540027419     
97.3325380253117     0.161997181973455    78.0577768210235     0.979387808880754    -9.31293685370844    0.979387808880754    -9.31293685370844    0.161997181973455    78.0577768210235     
98.3528863703787     0.163645936609556    77.9801158046995     0.979091970714277    -9.40871505609983    0.979091970714277    -9.40871505609983    0.163645936609556    77.9801158046995     
99.3839311461195     0.165310599133521    77.9013638161337     0.978790554062074    -9.5054437369819     0.978790554062074    -9.5054437369819     0.165310599133521    77.9013638161337     
100.425784484464     0.166991295249787    77.8215136639998     0.978483452976975    -9.60313128149234    0.978483452976975    -9.60313128149234    0.166991295249787    77.8215136639998     
101.478559692834     0.168688150794748    77.7405581042015     0.978170559661101    -9.70178611652432    0.978170559661101    -9.70178611652432    0.168688150794748    77.7405581042015     
102.542371266467     0.170401291705582    77.6584898408347     0.977851764441151    -9.801416709863      0.977851764441151    -9.801416709863      0.170401291705582    77.6584898408347     
103.617334900866     0.172130843988001    77.5753015271896     0.977526955743801    -9.90203156928258    0.977526955743801    -9.90203156928258    0.172130843988001    77.5753015271896     
104.703567504385     0.173876933682816    77.4909857667973     0.977196020071023    -10.0036392415966    0.977196020071023    -10.0036392415966    0.173876933682816    77.4909857667973     
105.801187210941     0.175639686831361    77.40553511452       0.976858841975465    -10.1062483116642    0.976858841975465    -10.1062483116642    0.175639686831361    77.40553511452       
106.910313392864     0.177419229439704    77.3189420776859     0.976515304035989    -10.2098674013509    0.976515304035989    -10.2098674013509    0.177419229439704    77.3189420776859     
108.031066673875     0.179215687441651    77.2311991172716     0.976165286833154    -10.3145051684411    0.976165286833154    -10.3145051684411    0.179215687441651    77.2311991172716     
109.16356894221      0.181029186660487    77.142298649132      0.975808668924918    -10.4201703055018    0.975808668924918    -10.4201703055018    0.181029186660487    77.142298649132      
110.307943363874     0.182859852769462    77.052233045278      0.975445326822428    -10.5268715386978    0.975445326822428    -10.5268715386978    0.182859852769462    77.052233045278      
111.464314396034     0.184707811250945    76.9609946352068     0.975075134965927    -10.634617626553     0.975075134965927    -10.634617626553     0.184707811250945    76.9609946352068     
112.632807800557     0.186573187354294    76.8685757072815     0.974697965700939    -10.7434173586628    0.974697965700939    -10.7434173586628    0.186573187354294    76.8685757072815     
113.813550657685     0.188456106052339    76.7749685101646     0.974313689254571    -10.85327955435      0.974313689254571    -10.85327955435      0.188456106052339    76.7749685101646     
115.006671379859     0.190356691996482    76.6801652543063     0.973922173712046    -10.9642130612666    0.973922173712046    -10.9642130612666    0.190356691996482    76.6801652543063     
116.212299725681     0.192275069470419    76.5841581134867     0.973523284993588    -11.0762267539393    0.973523284993588    -11.0762267539393    0.192275069470419    76.5841581134867     
117.430566814028     0.194211362342402    76.486939226416      0.973116886831489    -11.1893295322576    0.973116886831489    -11.1893295322576    0.194211362342402    76.486939226416      
118.661605138312     0.196165694016051    76.3885006983926     0.972702840747591    -11.3035303199019    0.972702840747591    -11.3035303199019    0.196165694016051    76.3885006983926     
119.905548580888     0.198138187379679    76.2888346030211     0.972281006031037    -11.4188380627124    0.972281006031037    -11.4188380627124    0.198138187379679    76.2888346030211     
121.162532427616     0.200128964754098    76.1879329839901     0.971851239716469    -11.5352617269947    0.971851239716469    -11.5352617269947    0.200128964754098    76.1879329839901     
122.432693382574     0.202138147838896    76.0857878569141     0.971413396562625    -11.6528102977635    0.971413396562625    -11.6528102977635    0.202138147838896    76.0857878569141     
123.716169582922     0.204165857657147    75.9823912112374     0.970967329031409    -11.7714927769218    0.970967329031409    -11.7714927769218    0.204165857657147    75.9823912112374     
125.013100613932     0.206212214498525    75.8777350122036     0.970512887267442    -11.8913181813731    0.970512887267442    -11.8913181813731    0.206212214498525    75.8777350122036     
126.323627524162     0.208277337860813    75.7718112028929     0.970049919078158    -12.0122955410668    0.970049919078158    -12.0122955410668    0.208277337860813    75.7718112028929     
127.647892840799     0.210361346389762    75.6646117063254     0.969578269914429    -12.134433896975     0.969578269914429    -12.134433896975     0.210361346389762    75.6646117063254     
128.986040585159     0.212464357817303    75.5561284276349     0.969097782851887    -12.2577422989992    0.969097782851887    -12.2577422989992    0.212464357817303    75.5561284276349     
130.338216288351     0.214586488898055    75.4463532563131     0.968608298572865    -12.3822298038047    0.968608298572865    -12.3822298038047    0.214586488898055    75.4463532563131     
131.704567007102     0.216727855344142    75.335278068526      0.968109655349017    -12.5079054725829    0.968109655349017    -12.5079054725829    0.216727855344142    75.335278068526      
133.085241339755     0.218888571758259    75.222894729504      0.967601689024704    -12.6347783687388    0.967601689024704    -12.6347783687388    0.218888571758259    75.222894729504      
134.480389442423     0.221068751565006    75.1091950960072     0.967084233001205    -12.7628575555022    0.967084233001205    -12.7628575555022    0.221068751565006    75.1091950960072     
135.890163045325     0.223268506940436    74.9941710188658     0.966557118221754    -12.892152093463     0.966557118221754    -12.892152093463     0.223268506940436    74.9941710188658     
137.314715469285     0.225487948739812    74.8778143456008     0.966020173157452    -13.0226710380262    0.966020173157452    -13.0226710380262    0.225487948739812    74.8778143456008     
138.754201642409     0.227727186423559    74.7601169231207     0.965473223794165    -13.1544234367886    0.965473223794165    -13.1544234367886    0.227727186423559    74.7601169231207     
140.208778116929     0.229986327981379    74.6410706005019     0.964916093620386    -13.2874183268326    0.964916093620386    -13.2874183268326    0.229986327981379    74.6410706005019     
141.678603086234     0.232265479854539    74.5206672318481     0.964348603616232    -13.4216647319392    0.964348603616232    -13.4216647319392    0.232265479854539    74.5206672318481     
143.163836402074     0.234564746856268    74.3988986792352     0.963770572243444    -13.5571716597146    0.963770572243444    -13.5571716597146    0.234564746856268    74.3988986792352     
144.664639591942     0.236884232090311    74.2757568157393     0.963181815436646    -13.6939480986335    0.963181815436646    -13.6939480986335    0.236884232090311    74.2757568157393     
146.181175876642     0.23922403686758     74.1512335285517     0.962582146595826    -13.8320030149951    0.962582146595826    -13.8320030149951    0.23922403686758     74.1512335285517     
147.713610188043     0.241584260620916    74.0253207221795     0.961971376580058    -13.9713453497903    0.961971376580058    -13.9713453497903    0.241584260620916    74.0253207221795     
149.262109187011     0.243965000817937    73.8980103217361     0.961349313702688    -14.1119840154817    0.961349313702688    -14.1119840154817    0.243965000817937    73.8980103217361     
150.826841281541     0.246366352871989    73.7692942763198     0.960715763727831    -14.2539278926915    0.960715763727831    -14.2539278926915    0.246366352871989    73.7692942763198     
152.407976645064     0.248788410051149    73.639164562485      0.960070529868426    -14.3971858267982    0.960070529868426    -14.3971858267982    0.248788410051149    73.639164562485      
154.005687234963     0.25123126338535     73.5076131878022     0.959413412785861    -14.5417666244426    0.959413412785861    -14.5417666244426    0.25123126338535     73.5076131878022     
155.620146811269     0.253695001571527    73.3746321945147     0.958744210591176    -14.6876790499367    0.958744210591176    -14.6876790499367    0.253695001571527    73.3746321945147     
157.251530955559     0.256179710876893    73.2402136632864     0.958062718847989    -14.8349318215808    0.958062718847989    -14.8349318215808    0.256179710876893    73.2402136632864     
158.900017090052     0.258685475040265    73.104349717045      0.95736873057723     -14.9835336078842    0.95736873057723     -14.9835336078842    0.258685475040265    73.104349717045      
160.565784496907     0.261212375171482    72.9670325249221     0.956662036263686    -15.133493023688     0.956662036263686    -15.133493023688     0.261212375171482    72.9670325249221     
162.249014337715     0.263760489648919    72.8282543062895     0.955942423864469    -15.2848186261917    0.955942423864469    -15.2848186261917    0.263760489648919    72.8282543062895     
163.949889673209     0.266329894015103    72.6880073348929     0.955209678819494    -15.4375189108814    0.955209678819494    -15.4375189108814    0.266329894015103    72.6880073348929     
165.668595483166     0.268920660870459    72.546283943083      0.954463584064055    -15.5916023073584    0.954463584064055    -15.5916023073584    0.268920660870459    72.546283943083      
167.405318686529     0.271532859765176    72.403076526148      0.953703920043524    -15.7470771750685    0.953703920043524    -15.7470771750685    0.271532859765176    72.403076526148      
169.160248161735     0.274166557089236    72.2583775467424     0.952930464730347    -15.9039517989309    0.952930464730347    -15.9039517989309    0.274166557089236    72.2583775467424     
170.933574767254     0.276821815960626    72.1121795394191     0.952142993643272    -16.0622343848664    0.952142993643272    -16.0622343848664    0.276821815960626    72.1121795394191     
172.725491362348     0.279498696111744    71.9644751152589     0.951341279869089    -16.2219330552238    0.951341279869089    -16.2219330552238    0.279498696111744    71.9644751152589     
174.536192828046     0.282197253774057    71.8152569666027     0.950525094086786    -16.3830558441065    0.950525094086786    -16.3830558441065    0.282197253774057    71.8152569666027     
176.365876088335     0.284917541561015    71.6645178718842     0.949694204594303    -16.5456106925954    0.949694204594303    -16.5456106925954    0.284917541561015    71.6645178718842     
178.214740131583     0.287659608349278    71.5122507005626     0.948848377337982    -16.7096054438713    0.948848377337982    -16.7096054438713    0.287659608349278    71.5122507005626     
180.082986032173     0.290423499158281    71.358448418159      0.94798737594468     -16.8750478382337    0.94798737594468     -16.8750478382337    0.290423499158281    71.358448418159      
181.970816972376     0.293209255028229    71.2031040913899     0.947110961756832    -17.0419455080216    0.947110961756832    -17.0419455080216    0.293209255028229    71.2031040913899     
183.878438264445     0.296016912896488    71.0462108934052     0.946218893870336    -17.2103059724284    0.946218893870336    -17.2103059724284    0.296016912896488    71.0462108934052     
185.806057372948     0.298846505472517    70.8877621091236     0.945310929175528    -17.3801366322184    0.945310929175528    -17.3801366322184    0.298846505472517    70.8877621091236     
187.753883937325     0.301698061111337    70.7277511406702     0.944386822401179    -17.551444764342     0.944386822401179    -17.551444764342     0.301698061111337    70.7277511406702     
189.722129794692     0.304571603685643    70.5661715129109     0.943446326161794    -17.7242375164514    0.943446326161794    -17.7242375164514    0.304571603685643    70.5661715129109     
191.711009002879     0.307467152456582    70.4030168790876     0.942489191008057    -17.8985219013158    0.942489191008057    -17.8985219013158    0.307467152456582    70.4030168790876     
193.720737863708     0.310384721943332    70.2382810265489     0.941515165480757    -18.0743047911405    0.941515165480757    -18.0743047911405    0.310384721943332    70.2382810265489     
195.75153494652      0.313324321791493    70.071957882578      0.940523996168081    -18.2515929117863    0.940523996168081    -18.2515929117863    0.313324321791493    70.071957882578      
197.80362111194      0.316285956640452    69.9040415203156     0.939515427766528    -18.4303928368963    0.939515427766528    -18.4303928368963    0.316285956640452    69.9040415203156     
199.877219535906     0.319269625989713    69.734526164777      0.938489203145372    -18.6107109819243    0.938489203145372    -18.6107109819243    0.319269625989713    69.734526164777      
201.972555733931     0.322275324064407    69.5634061989592     0.937445063414905    -18.7925535980744    0.937445063414905    -18.7925535980744    0.322275324064407    69.5634061989592     
204.089857585635     0.325303039679982    69.3906761700404     0.936382747998438    -18.9759267661475    0.936382747998438    -18.9759267661475    0.325303039679982    69.3906761700404     
206.229355359528     0.328352756106214    69.2163307956672     0.93530199470818     -19.1608363902981    0.93530199470818     -19.1608363902981    0.328352756106214    69.2163307956672     
208.391281738049     0.331424450930704    69.0403649703257     0.934202539825134    -19.3472881917075    0.934202539825134    -19.3472881917075    0.331424450930704    69.0403649703257     
210.575871842876     0.334518095921872    68.8627737717997     0.933084118182933    -19.5352877021686    0.933084118182933    -19.5352877021686    0.334518095921872    68.8627737717997     
212.783363260495     0.337633656891695    68.683552467706      0.931946463255889    -19.7248402575927    0.931946463255889    -19.7248402575927    0.337633656891695    68.683552467706      
215.013996068038     0.340771093558221    68.5026965221108     0.930789307251182    -19.9159509914349    0.930789307251182    -19.9159509914349    0.340771093558221    68.5026965221108     
217.268012859393     0.343930359408068    68.3202016022191     0.929612381205333    -20.1086248280454    0.929612381205333    -20.1086248280454    0.343930359408068    68.3202016022191     
219.54565877159      0.347111401558989    68.136063585137      0.928415415084971    -20.3028664759469    0.928415415084971    -20.3028664759469    0.347111401558989    68.136063585137      
221.847181511457     0.350314160622729    67.9502785647014     0.927198137892057    -20.4986804210438    0.927198137892057    -20.4986804210438    0.350314160622729    67.9502785647014     
224.172831382563     0.353538570568274    67.7628428583735     0.925960277773513    -20.6960709197675    0.925960277773513    -20.6960709197675    0.353538570568274    67.7628428583735     
226.522861312438     0.356784558585641    67.5737530141951     0.924701562135371    -20.8950419921566    0.924701562135371    -20.8950419921566    0.356784558585641    67.5737530141951     
228.897526880082     0.360052044950481    67.383005817797      0.923421717761535    -21.095597414886     0.923421717761535    -21.095597414886     0.360052044950481    67.383005817797      
231.297086343755     0.363340942889535    67.1905982994633     0.922120470937079    -21.2977407142383    0.922120470937079    -21.2977407142383    0.363340942889535    67.1905982994633     
233.721800669075     0.366651158447249    66.9965277412375     0.920797547576308    -21.5014751590315    0.920797547576308    -21.5014751590315    0.366651158447249    66.9965277412375     
236.171933557388     0.36998259035364     66.8007916840748     0.919452673355407    -21.7068037535019    0.919452673355407    -21.7068037535019    0.36998259035364     66.8007916840748     
238.647751474454     0.373335129893689    66.6033879350276     0.91808557384988     -21.913729230151     0.91808557384988     -21.913729230151     0.373335129893689    66.6033879350276     
241.149523679424     0.376708660778411    66.4043145744625     0.91669597467676     -22.1222540425614    0.91669597467676     -22.1222540425614    0.376708660778411    66.4043145744625     
243.677522254125     0.380103059017834    66.2035699633022     0.915283601641536    -22.3323803581852    0.915283601641536    -22.3323803581852    0.380103059017834    66.2035699633022     
246.232022132649     0.383518192796111    66.0011527502855     0.913848180889926    -22.5441100511164    0.913848180889926    -22.5441100511164    0.383518192796111    66.0011527502855     
248.813301131253     0.386953922348946    65.7970618792392     0.912389439064394    -22.7574446948462    0.912389439064394    -22.7574446948462    0.386953922348946    65.7970618792392     
251.421639978575     0.390410099843614    65.591296596357      0.910907103465479    -22.9723855550151    0.910907103465479    -22.9723855550151    0.390410099843614    65.591296596357      
254.057322346167     0.393886569261776    65.3838564574729     0.90940090221791     -23.1889335821651    0.90940090221791     -23.1889335821651    0.393886569261776    65.3838564574729     
256.720634879337     0.397383166285349    65.1747413353293     0.907870564441508    -23.4070894045001    0.907870564441508    -23.4070894045001    0.397383166285349    65.1747413353293     
259.411867228334     0.400899718185612    64.9639514268272     0.906315820426715    -23.6268533206608    0.906315820426715    -23.6268533206608    0.400899718185612    64.9639514268272     
262.131312079842     0.404436043715923    64.7514872602498     0.904736401814988    -23.8482252925259    0.904736401814988    -23.8482252925259    0.404436043715923    64.7514872602498     
264.879265188816     0.407991953008148    64.5373497024569     0.903132041783692    -24.0712049380423    0.903132041783692    -24.0712049380423    0.407991953008148    64.5373497024569     
267.656025410641     0.411567247473179    64.3215399660352     0.90150247523567     -24.2957915240967    0.90150247523567     -24.2957915240967    0.411567247473179    64.3215399660352     
270.461894733641     0.415161719705753    64.1040596163996     0.899847438993337    -24.5219839594372    0.899847438993337    -24.5219839594372    0.415161719705753    64.1040596163996     
273.297178311918     0.418775153393831    63.8849105788351     0.89816667199722     -24.7497807876517    0.89816667199722     -24.7497807876517    0.418775153393831    63.8849105788351     
276.16218449854      0.422407323232806    63.6640951454732     0.896459915508819    -24.9791801802119    0.896459915508819    -24.9791801802119    0.422407323232806    63.6640951454732     
279.057224879074     0.426057994844868    63.4416159821849     0.894726913317838    -25.2101799295986    0.894726913317838    -25.2101799295986    0.426057994844868    63.4416159821849     
281.982614305479     0.429726924703684    63.2174761353927     0.892967411953452    -25.4427774425076    0.892967411953452    -25.4427774425076    0.429726924703684    63.2174761353927     
284.93867093034      0.433413860064811    62.9916790387796     0.891181160899714    -25.6769697331575    0.891181160899714    -25.6769697331575    0.433413860064811    62.9916790387796     
287.925716241475     0.43711853890198     62.7642285198943     0.889367912814772    -25.9127534167       0.889367912814772    -25.9127534167       0.43711853890198     62.7642285198943     
290.944075096895     0.440840689849637    62.5351288066354     0.887527423753913    -26.1501247027505    0.887527423753913    -26.1501247027505    0.440840689849637    62.5351288066354     
293.994075760137     0.444580032151952    62.3043845336078     0.885659453396142    -26.3890793890439    0.885659453396142    -26.3890793890439    0.444580032151952    62.3043845336078     
297.07604993596      0.448336275618598    62.0720007483397     0.883763765274239    -26.6296128552312    0.883763765274239    -26.6296128552312    0.448336275618598    62.0720007483397     
300.190332806427     0.452109120587568    61.837982917347      0.881840127007963    -26.8717200568248    0.881840127007963    -26.8717200568248    0.452109120587568    61.837982917347      
303.337263067348     0.455898257895314    61.6023369320376     0.879888310540382    -27.1153955193045    0.879888310540382    -27.1153955193045    0.455898257895314    61.6023369320376     
306.517182965127     0.45970336885446     61.3650691144399     0.877908092376992    -27.3606333323975    0.877908092376992    -27.3606333323975    0.45970336885446     61.3650691144399     
309.730438333971     0.463524125239384    61.1261862227477     0.875899253827409    -27.6074271445403    0.875899253827409    -27.6074271445403    0.463524125239384    61.1261862227477     
312.977378633512     0.467360189279876    60.8856954566687     0.873861581249437    -27.8557701575367    0.873861581249437    -27.8557701575367    0.467360189279876    60.8856954566687     
316.258356986805     0.471211213663232    60.6436044625611     0.871794866295273    -28.1056551214252    0.871794866295273    -28.1056551214252    0.471211213663232    60.6436044625611     
319.573730218737     0.4750768415449      60.3999213383547     0.869698906159491    -28.3570743295618    0.869698906159491    -28.3570743295618    0.4750768415449      60.3999213383547     
322.923858894831     0.478956706568066    60.1546546382346     0.86757350382862     -28.6100196139372    0.86757350382862     -28.6100196139372    0.478956706568066    60.1546546382346     
326.309107360461     0.482850432892287    59.9078133770848     0.865418468332004    -28.864482340735     0.865418468332004    -28.864482340735     0.482850432892287    59.9078133770848     
329.729843780474     0.48675763523151     59.6594070346726     0.863233614993584    -29.120453406145     0.863233614993584    -29.120453406145     0.48675763523151     59.6594070346726     
333.186440179236     0.490677918901633    59.4094455595658     0.861018765684348    -29.3779232324444    0.861018765684348    -29.3779232324444    0.490677918901633    59.4094455595658     
336.679272481084     0.494610879877833    59.1579393727697     0.858773749075077    -29.6368817643567    0.858773749075077    -29.6368817643567    0.494610879877833    59.1579393727697     
340.208720551216     0.498556104861852    58.9048993710728     0.856498400889063    -29.8973184656999    0.856498400889063    -29.8973184656999    0.498556104861852    58.9048993710728     
343.775168237        0.502513171359497    58.6503369300866     0.854192564154437    -30.1592223163409    0.854192564154437    -30.1592223163409    0.502513171359497    58.6503369300866     
347.37900340972      0.506481647768394    58.394263906972      0.851856089455728    -30.4225818094584    0.851856089455728    -30.4225818094584    0.506481647768394    58.394263906972      
351.020618006762     0.5104610934763      58.1366926428381     0.849488835184305    -30.6873849491357    0.849488835184305    -30.6873849491357    0.5104610934763      58.1366926428381     
354.700408074237     0.514451058970022    57.8776359648027     0.847090667787272    -30.9536192482869    0.847090667787272    -30.9536192482869    0.514451058970022    57.8776359648027     
358.418773810051     0.518451085955135    57.6171071877031     0.844661462014423    -31.221271726933     0.844661462014423    -31.221271726933     0.518451085955135    57.6171071877031     
362.176119607434     0.52246070748655     57.3551201154475     0.842201101162909    -31.4903289108338    0.842201101162909    -31.4903289108338    0.52246070748655     57.3551201154475     
365.972854098917     0.526479448110113    57.0916890419951     0.839709477319085    -31.7607768304914    0.839709477319085    -31.7607768304914    0.526479448110113    57.0916890419951     
369.809390200773     0.530506824015238    56.8268287519548     0.837186491597251    -32.0326010205312    0.837186491597251    -32.0326010205312    0.530506824015238    56.8268287519548     
373.686145157922     0.534542343198671    56.5605545207942     0.834632054374701    -32.3057865194724    0.834632054374701    -32.3057865194724    0.534542343198671    56.5605545207942     
377.603540589317     0.538585505639429    56.2928821146469     0.832046085522777    -32.5803178698968    0.832046085522777    -32.5803178698968    0.538585505639429    56.2928821146469     
381.562002533786     0.542635803484942    56.0238277897093     0.829428514633402    -32.8561791190261    0.829428514633402    -32.8561791190261    0.542635803484942    56.0238277897093     
385.561961496374     0.546692721248322    55.7534082912226     0.826779281240644    -33.1333538197137    0.826779281240644    -33.1333538197137    0.546692721248322    55.7534082912226     
389.603852495162     0.550755736016886    55.481640852023      0.824098335036933    -33.4118250318634    0.824098335036933    -33.4118250318634    0.550755736016886    55.481640852023      
393.688115108573     0.554824317671722    55.2085431906621     0.82138563608336     -33.6915753242778    0.82138563608336     -33.6915753242778    0.554824317671722    55.2085431906621     
397.815193523184     0.558897929118342    54.9341335090834     0.818641155013696    -33.9725867769472    0.818641155013696    -33.9725867769472    0.558897929118342    54.9341335090834     
401.985536582032     0.562976026528313    54.65843048985       0.815864873231632    -34.2548409837849    0.815864873231632    -34.2548409837849    0.562976026528313    54.65843048985       
406.199597833427     0.567058059591697    54.3814532929209     0.813056783100811    -34.5383190558127    0.813056783100811    -34.5383190558127    0.567058059591697    54.3814532929209     
410.457835580279     0.571143471780222    54.1032215519641     0.810216888127137    -34.823001624805     0.810216888127137    -34.823001624805     0.571143471780222    54.1032215519641     
414.76071292994      0.575231700620982    53.8237553702094     0.807345203132971    -35.1088688473925    0.807345203132971    -35.1088688473925    0.575231700620982    53.8237553702094     
419.108697844572     0.579322177980509    53.5430753158284     0.804441754422796    -35.3959004096346    0.804441754422796    -35.3959004096346    0.579322177980509    53.5430753158284     
423.502263192038     0.583414330358972    53.2612024168466     0.801506579939773    -35.6840755320583    0.801506579939773    -35.6840755320583    0.583414330358972    53.2612024168466     
427.94188679733      0.587507579194271    52.9781581555789     0.798539729412942    -35.9733729751691    0.798539729412942    -35.9733729751691    0.587507579194271    52.9781581555789     
432.428051494535     0.591601341175772    52.69396446259       0.795541264494484    -36.2637710454358    0.795541264494484    -36.2637710454358    0.591601341175772    52.69396446259       
436.961245179347     0.595695028567375    52.4086437101793     0.792511258886742    -36.5552476017464    0.792511258886742    -36.5552476017464    0.595695028567375    52.4086437101793     
441.541960862125     0.599788049539647    52.1222187053836     0.789449798458513    -36.8477800623442    0.789449798458513    -36.8477800623442    0.599788049539647    52.1222187053836     
446.170696721517     0.603879808510596    51.834712682509      0.786356981350342    -37.1413454122299    0.786356981350342    -37.1413454122299    0.603879808510596    51.834712682509      
450.847956158631     0.607969706494789    51.5461492951847     0.78323291806826     -37.4359202110404    0.78323291806826     -37.4359202110404    0.607969706494789    51.5461492951847     
455.574247851793     0.61205714146042     51.2565526079445     0.780077731565789    -37.731480601395     0.780077731565789    -37.731480601395     0.61205714146042     51.2565526079445     
460.350085811858     0.616141508693895    50.965947087337      0.776891557313809    -38.0280023177091    0.776891557313809    -38.0280023177091    0.616141508693895    50.965947087337      
465.17598943812      0.620222201171474    50.6743575925752     0.773674543357883    -38.3254606954662    0.773674543357883    -38.3254606954662    0.620222201171474    50.6743575925752     
470.052483574795     0.624298609937609    50.3818093657195     0.770426850362871    -38.6238306809514    0.770426850362871    -38.6238306809514    0.624298609937609    50.3818093657195     
474.980098568102     0.62837012448935     50.0883280214121     0.767148651644442    -38.9230868414302    0.767148651644442    -38.9230868414302    0.62837012448935     50.0883280214121     
479.959370323943     0.632436133166498    49.7939395361584     0.763840133187291    -39.2232033757755    0.763840133187291    -39.2232033757755    0.632436133166498    49.7939395361584     
484.990840366183     0.636496023546804    49.4986702371733     0.760501493649811    -39.5241541255261    0.760501493649811    -39.5241541255261    0.636496023546804    49.4986702371733     
490.075055895543     0.640549182845836    49.2025467907919     0.757132944354922    -39.8259125863765    0.757132944354922    -39.8259125863765    0.640549182845836    49.2025467907919     
495.212569849115     0.64459499832083     48.9055961904625     0.753734709267046    -40.1284519200787    0.753734709267046    -40.1284519200787    0.64459499832083     48.9055961904625     
500.403940960496     0.648632857678052    48.6078457443248     0.750307024954866    -40.4317449667554    0.750307024954866    -40.4317449667554    0.648632857678052    48.6078457443248     
505.64973382055      0.652662149483016    48.3093230623911     0.746850140539875    -40.7357642576048    0.746850140539875    -40.7357642576048    0.652662149483016    48.3093230623911     
510.950518938813     0.656682263573022    48.0100560433358     0.743364317630557    -41.0404820279915    0.743364317630557    -41.0404820279915    0.656682263573022    48.0100560433358     
516.306872805542     0.6606925914713      47.7100728609156     0.739849830242134    -41.3458702309018    0.739849830242134    -41.3458702309018    0.6606925914713      47.7100728609156     
521.719377954404     0.664692526802283    47.4094019500236     0.736306964701792    -41.6519005507608    0.736306964701792    -41.6519005507608    0.664692526802283    47.4094019500236     
527.18862302584      0.668681465707255    47.1080719923983     0.732736019539422    -41.9585444175862    0.732736019539422    -41.9585444175862    0.668681465707255    47.1080719923983     
532.715202831071     0.672658807259784    46.8061119020036     0.729137305363881    -42.2657730214679    0.729137305363881    -42.2657730214679    0.672658807259784    46.8061119020036     
538.299718416798     0.676623953880256    46.5035508100951     0.72551114472476     -42.5735573273543    0.72551114472476     -42.5735573273543    0.676623953880256    46.5035508100951     
543.942777130564     0.68057631174901     46.2004180499809     0.7218578719598      -42.8818680901368    0.7218578719598      -42.8818680901368    0.68057631174901     46.2004180499809     
549.644992686805     0.684515291217139    45.8967431415137     0.71817783302803     -43.1906758699978    0.71817783302803     -43.1906758699978    0.684515291217139    45.8967431415137     
555.406985233599     0.688440307214644    45.5925557753107     0.714471385328746    -43.4999510480236    0.714471385328746    -43.4999510480236    0.688440307214644    45.5925557753107     
561.229381420108     0.692350779654999    45.2878857967368     0.710738897506566    -43.8096638420464    0.710738897506566    -43.8096638420464    0.692350779654999    45.2878857967368     
567.112814464729     0.696246133835684    44.9827631896602     0.706980749242662    -44.1197843227073    0.706980749242662    -44.1197843227073    0.696246133835684    44.9827631896602     
573.057924223965     0.700125800833906    44.6772180600084     0.703197331032469    -44.430282429711     0.703197331032469    -44.430282429711     0.700125800833906    44.6772180600084     
579.065357262004     0.703989217896988    44.3712806191351     0.699389043950117    -44.741127988261     0.699389043950117    -44.741127988261     0.703989217896988    44.3712806191351     
585.135766921047     0.707835828826693    44.0649811670308     0.695556299399896    -45.0522907256439    0.695556299399896    -45.0522907256439    0.707835828826693    44.0649811670308     
591.269813392353     0.711665084356943    43.7583500753883     0.691699518854969    -45.3637402879496    0.691699518854969    -45.3637402879496    0.711665084356943    43.7583500753883     
597.468163788046     0.715476442524338    43.4514177705474     0.687819133583833    -45.6754462569036    0.687819133583833    -45.6754462569036    0.715476442524338    43.4514177705474     
603.731492213663     0.719269369030744    43.1442147163485     0.68391558436482     -45.9873781667804    0.68391558436482     -45.9873781667804    0.719269369030744    43.1442147163485     
610.060479841469     0.72304333759761     42.836771396902      0.679989321189       -46.2995055213925    0.679989321189       -46.2995055213925    0.72304333759761     42.836771396902      
616.455814984534     0.726797830311238    42.5291182993112     0.676040802952034    -46.6117978111154    0.676040802952034    -46.6117978111154    0.726797830311238    42.5291182993112     
622.918193171599     0.730532337958585    42.2212858963604     0.672070497135291    -46.9242245299359    0.672070497135291    -46.9242245299359    0.730532337958585    42.2212858963604     
629.448317222711     0.734246360353091    41.9133046291942     0.668078879476816    -47.2367551925007    0.668078879476816    -47.2367551925007    0.734246360353091    41.9133046291942     
636.046897325661     0.737939406649892    41.6052048900165     0.664066433632616    -47.5493593511311    0.664066433632616    -47.5493593511311    0.737939406649892    41.6052048900165     
642.714651113223     0.741610995650164    41.2970170048177     0.660033650828704    -47.8620066127994    0.660033650828704    -47.8620066127994    0.741610995650164    41.2970170048177     
649.452303741198     0.745260656093938    40.9887712161682     0.655981029504605    -48.1746666560266    0.655981029504605    -48.1746666560266    0.745260656093938    40.9887712161682     
656.26058796728      0.748887926941123    40.6804976660879     0.651909074948687    -48.4873092476905    0.651909074948687    -48.4873092476905    0.748887926941123    40.6804976660879     
663.14024423075      0.752492357640224    40.3722263790213     0.647818298926048    -48.7999042597151    0.647818298926048    -48.7999042597151    0.752492357640224    40.3722263790213     
670.092020732994     0.756073508384422    40.0639872449393     0.643709219299473    -49.1124216856197    0.643709219299473    -49.1124216856197    0.756073508384422    40.0639872449393     
677.116673518888     0.759630950354745    39.7558100025818     0.639582359644041    -49.4248316569118    0.639582359644041    -49.4248316569118    0.759630950354745    39.7558100025818     
684.214966559008     0.763164265949878    39.4477242228742     0.635438248856072    -49.7371044592921    0.635438248856072    -49.7371044592921    0.763164265949878    39.4477242228742     
691.387671832728     0.766673049002446    39.1397592925283     0.631277420756933    -50.0492105486574    0.631277420756933    -50.0492105486574    0.766673049002446    39.1397592925283     
698.635569412166     0.77015690498148     38.8319443978517     0.627100413692453    -50.3611205668808    0.627100413692453    -50.3611205668808    0.77015690498148     38.8319443978517     
705.959447547033     0.773615451180804    38.5243085087883     0.622907770128438    -50.6728053573408    0.622907770128438    -50.6728053573408    0.773615451180804    38.5243085087883     
713.36010275035      0.777048316893225    38.2168803632028     0.618700036243082    -50.9842359801907    0.618700036243082    -50.9842359801907    0.777048316893225    38.2168803632028     
720.838339885078     0.780455143570314    37.9096884514328     0.614477761516764    -51.2953837273399    0.614477761516764    -51.2953837273399    0.780455143570314    37.9096884514328     
728.394972251649     0.783835584967651    37.6027610011269     0.610241498320012    -51.6062201371307    0.610241498320012    -51.6062201371307    0.783835584967651    37.6027610011269     
736.030821676422     0.787189307275494    37.2961259623788     0.605991801500134    -51.9167170086967    0.605991801500134    -51.9167170086967    0.787189307275494    37.2961259623788     
743.746718601051     0.790515989234722    36.9898109931858     0.601729227967304    -52.2268464159779    0.601729227967304    -52.2268464159779    0.790515989234722    36.9898109931858     
751.543502172813     0.793815322238095    36.683843445236      0.597454336280625    -52.5365807213811    0.597454336280625    -52.5365807213811    0.793815322238095    36.683843445236      
759.42202033586      0.797087010416768    36.3782503500495     0.593167686234816    -52.8458925890664    0.593167686234816    -52.8458925890664    0.797087010416768    36.3782503500495     
767.383129923445     0.800330770712176    36.0730584054756     0.588869838448181    -53.1547549978497    0.588869838448181    -53.1547549978497    0.800330770712176    36.0730584054756     
775.427696751098     0.803546332933199    35.768293962577      0.584561353952465    -53.4631412536951    0.584561353952465    -53.4631412536951    0.803546332933199    35.768293962577      
783.556595710801     0.806733439798894    35.4639830128921     0.580242793785131    -53.7710250017993    0.580242793785131    -53.7710250017993    0.806733439798894    35.4639830128921     
791.770710866125     0.809891846966708    35.1601511761093     0.575914718584746    -54.0783802382387    0.575914718584746    -54.0783802382387    0.809891846966708    35.1601511761093     
800.070935548387     0.813021323046463    34.8568236881473     0.571577688189953    -54.3851813211783    0.571577688189953    -54.3851813211783    0.813021323046463    34.8568236881473     
808.458172453796     0.81612164960025     34.5540253896584     0.567232261242651    -54.6914029816283    0.567232261242651    -54.6914029816283    0.81612164960025     34.5540253896584     
816.933333741635     0.819192621128361    34.2517807149663     0.562878994795908    -54.9970203337312    0.562878994795908    -54.9970203337312    0.819192621128361    34.2517807149663     
825.497341133455     0.822234045041589    33.9501136814415     0.558518443927088    -55.3020088845807    0.558518443927088    -55.3020088845807    0.822234045041589    33.9501136814415     
834.151126013325     0.825245741620061    33.6490478793247     0.554151161356793    -55.6063445435527    0.554151161356793    -55.6063445435527    0.825245741620061    33.6490478793247     
842.895629529119     0.828227543958944    33.3486064620025     0.549777697073975    -55.9100036311497    0.549777697073975    -55.9100036311497    0.828227543958944    33.3486064620025     
851.731802694876     0.831179297901209    33.0488121367475     0.54539859796782     -56.2129628873387    0.54539859796782     -56.2129628873387    0.831179297901209    33.0488121367475     
860.660606494226     0.83410086195792     32.7496871559151     0.541014407466733    -56.5151994793926    0.541014407466733    -56.5151994793926    0.83410086195792     32.7496871559151     
869.6830119849       0.836992107216234    32.4512533086147     0.536625665184901    -56.8166910092134    0.536625665184901    -56.8166910092134    0.836992107216234    32.4512533086147     
878.800000404342     0.839852917235563    32.1535319128469     0.532232906576845    -57.1174155201423    0.532232906576845    -57.1174155201423    0.839852917235563    32.1535319128469     
888.012563276425     0.842683187932197    31.8565438081175     0.527836662600269    -57.4173515032468    0.527836662600269    -57.4173515032468    0.842683187932197    31.8565438081175     
897.321702519277     0.845482827452818    31.5603093485222     0.523437459387664    -57.7164779030847    0.523437459387664    -57.7164779030847    0.845482827452818    31.5603093485222     
906.728430554256     0.848251756037296    31.2648483963061     0.519035817926841    -58.0147741229414    0.519035817926841    -58.0147741229414    0.848251756037296    31.2648483963061     
916.233770416047     0.850989905871124    30.9701803159        0.514632253750881    -58.3122200295335    0.514632253750881    -58.3122200295335    0.850989905871124    30.9701803159        
925.83875586393      0.853697220927991    30.6763239684249     0.51022727663759     -58.6087959571865    0.51022727663759     -58.6087959571865    0.853697220927991    30.6763239684249     
935.5444314942       0.856373656802863    30.383297706669      0.505821390318874    -58.9044827114757    0.505821390318874    -58.9044827114757    0.856373656802863    30.383297706669      
945.351852853783     0.859019180536032    30.091119370533      0.501415092200144    -59.1992615723363    0.501415092200144    -59.1992615723363    0.859019180536032    30.091119370533      
955.262086555021     0.86163377042858     29.7998062829376     0.497008873090017    -59.49311429664      0.497008873090017    -59.49311429664      0.86163377042858     29.7998062829376     
965.27621039168      0.864217415849695    29.509375246192      0.492603216940457    -59.7860231202397    0.492603216940457    -59.7860231202397    0.864217415849695    29.509375246192      
975.395313456161     0.866770117036322    29.2198425388152     0.488198600597549    -60.0779707594836    0.488198600597549    -60.0779707594836    0.866770117036322    29.2198425388152     
985.620496257954     0.869291884885558    28.9312239128104     0.483795493562984    -60.3689404121967    0.483795493562984    -60.3689404121967    0.869291884885558    28.9312239128104     
995.95287084331      0.87178274074032     28.6435345913764     0.479394357766395    -60.6589157581384    0.479394357766395    -60.6589157581384    0.87178274074032     28.6435345913764     
1006.3935609162      0.874242716168668    28.3567892670608     0.474995647348629    -60.9478809589304    0.474995647348629    -60.9478809589304    0.874242716168668    28.3567892670608     
1016.9437019605      0.876671852737316    28.0710021003373     0.470599808455968    -61.2358206574643    0.470599808455968    -61.2358206574643    0.876671852737316    28.0710021003373     
1027.60444136351     0.879070201779721    27.786186718608      0.466207279045423    -61.5227199767836    0.466207279045423    -61.5227199767836    0.879070201779721    27.786186718608      
1038.37693854073     0.881437824159277    27.5023562156136     0.461818488700988    -61.8085645184522    0.461818488700988    -61.8085645184522    0.881437824159277    27.5023562156136     
1049.26236506192     0.883774790027993    27.2195231512499     0.457433858460985    -62.093340360404     0.457433858460985    -62.093340360404     0.883774790027993    27.2195231512499     
1060.26190477858     0.886081178581151    26.9376995517789     0.453053800656372    -62.3770340542803    0.453053800656372    -62.3770340542803    0.886081178581151    26.9376995517789     
1071.37675395262     0.888357077808366    26.656896910423      0.448678718760018    -62.6596326222562    0.448678718760018    -62.6596326222562    0.888357077808366    26.656896910423      
1082.60812138655     0.890602584241493    26.377126188333      0.444309007246842    -62.9411235533626    0.444309007246842    -62.9411235533626    0.890602584241493    26.377126188333      
1093.95722855486     0.892817802699774    26.0983978159234     0.439945051464786    -63.2214947992981    0.439945051464786    -63.2214947992981    0.892817802699774    26.0983978159234     
1105.42530973692     0.895002846032687    25.8207216945578     0.435587227516448    -63.5007347697418    0.435587227516448    -63.5007347697418    0.895002846032687    25.8207216945578     
1117.01361215118     0.897157834860876    25.5441071985797     0.431235902151335    -63.7788323271627    0.431235902151335    -63.7788323271627    0.897157834860876    25.5441071985797     
1128.72339609085     0.899282897315572    25.2685631776726     0.426891432668528    -64.0557767811314    0.426891432668528    -64.0557767811314    0.899282897315572    25.2685631776726     
1140.55593506092     0.901378168776882    24.9940979595414     0.42255416682967     -64.3315578821314    0.42255416682967     -64.3315578821314    0.901378168776882    24.9940979595414     
1152.51251591667     0.903443791611338    24.7207193529031     0.418224442782068    -64.6061658148721    0.418224442782068    -64.6061658148721    0.903443791611338    24.7207193529031     
1164.59443900368     0.905479914909064    24.4484346507722     0.41390258899177     -64.8795911911055    0.41390258899177     -64.8795911911055    0.905479914909064    24.4484346507722     
1176.80301829915     0.907486694220907    24.1772506340346     0.409588924186408    -65.1518250419407    0.409588924186408    -65.1518250419407    0.907486694220907    24.1772506340346     
1189.1395815549      0.909464291295896    23.9071735752914     0.405283757307598    -65.4228588096589    0.405283757307598    -65.4228588096589    0.909464291295896    23.9071735752914     
1201.60547044169     0.911412873819324    23.6382092429678     0.400987387472727    -65.6926843390234    0.400987387472727    -65.6926843390234    0.911412873819324    23.6382092429678     
1214.20204069521     0.913332615151799    23.3703629056691     0.396700103945866    -65.9612938680815    0.396700103945866    -65.9612938680815    0.913332615151799    23.3703629056691     
1226.93066226345     0.915223694069558    23.103639336776      0.392422186117582    -66.2286800184547    0.392422186117582    -66.2286800184547    0.915223694069558    23.103639336776      
1239.79271945574     0.917086294506315    22.8380428192646     0.388153903493477    -66.4948357851083    0.388153903493477    -66.4948357851083    0.917086294506315    22.8380428192646     
1252.78961109329     0.918920605296954    22.5735771507422     0.383895515691101    -66.759754525594     0.383895515691101    -66.759754525594     0.918920605296954    22.5735771507422     
1265.92275066131     0.920726819923286    22.3102456486836     0.379647272445107    -67.0234299487569    0.379647272445107    -67.0234299487569    0.920726819923286    22.3102456486836     
1279.19356646275     0.922505136262161    22.0480511558595     0.3754094136203      -67.2858561028944    0.3754094136203      -67.2858561028944    0.922505136262161    22.0480511558595     
1292.6035017736      0.924255756336142    21.7869960459435     0.371182169232391    -67.5470273633546    0.371182169232391    -67.5470273633546    0.924255756336142    21.7869960459435     
1306.15401499991     0.925978886066955    21.5270822292874     0.36696575947615     -67.8069384195594    0.36696575947615     -67.8069384195594    0.925978886066955    21.5270822292874     
1319.84657983637     0.927674735031968    21.2683111588518     0.362760394760704    -68.0655842614349    0.362760394760704    -68.0655842614349    0.927674735031968    21.2683111588518     
1333.68268542655     0.929343516223835    21.0106838362833     0.358566275751733    -68.3229601652291    0.358566275751733    -68.3229601652291    0.929343516223835    21.0106838362833     
1347.66383652492     0.930985445813522    20.7542008181265     0.354383593420276    -68.5790616786936    0.354383593420276    -68.5790616786936    0.930985445813522    20.7542008181265     
1361.79155366044     0.932600742916877    20.4988622221582     0.350212529097868    -68.8338846056065    0.350212529097868    -68.8338846056065    0.932600742916877    20.4988622221582     
1376.067373302       0.934189629364896    20.2446677338357     0.346053254537772    -69.0874249896051    0.346053254537772    -69.0874249896051    0.934189629364896    20.2446677338357     
1390.49284802541     0.93575232947781     19.9916166128492     0.341905931982013    -69.3396790972967    0.341905931982013    -69.3396790972967    0.93575232947781     19.9916166128492     
1405.06954668235     0.937289069843163    19.7397076997659     0.337770714233947    -69.5906434006125    0.337770714233947    -69.5906434006125    0.937289069843163    19.7397076997659     
1419.79905457095     0.938800079097953    19.4889394227562     0.333647744736107    -69.8403145583653    0.333647744736107    -69.8403145583653    0.938800079097953    19.4889394227562     
1434.68297360821     0.940285587714969    19.2393098043973     0.329537157653071    -70.0886893969604    0.329537157653071    -70.0886893969604    0.940285587714969    19.2393098043973     
1449.72292250419     0.941745827793418    18.9908164685361     0.325439077959054    -70.3357648902199    0.325439077959054    -70.3357648902199    0.941745827793418    18.9908164685361     
1464.9205369381      0.943181032853904    18.7434566472112     0.32135362153002     -70.5815381382547    0.32135362153002     -70.5815381382547    0.943181032853904    18.7434566472112     
1480.27746973616     0.944591437637854    18.49722718762       0.317280895240014    -70.8260063453286    0.317280895240014    -70.8260063453286    0.944591437637854    18.49722718762       
1495.79539105136     0.945977277911434    18.2521245591228     0.313220997061483    -71.0691667966462    0.313220997061483    -71.0691667966462    0.945977277911434    18.2521245591228     
1511.47598854509     0.947338790274014    18.0081448602796     0.309174016169352    -71.3110168339844    0.309174016169352    -71.3110168339844    0.947338790274014    18.0081448602796     
1527.32096757071     0.948676211971232    17.765283825905      0.305140033048581    -71.5515538300924    0.305140033048581    -71.5515538300924    0.948676211971232    17.765283825905      
1543.33205135896     0.949989780712662    17.5235368341409     0.301119119604999    -71.7907751617575    0.301119119604999    -71.7907751617575    0.949989780712662    17.5235368341409     
1559.51098120546     0.951279734494136    17.2828989135333     0.297111339279168    -72.0286781814443    0.297111339279168    -72.0286781814443    0.951279734494136    17.2828989135333     
1575.85951666        0.952546311424722    17.043364750111      0.29311674716307     -72.2652601873857    0.29311674716307     -72.2652601873857    0.952546311424722    17.043364750111      
1592.37943571794     0.953789749558349    16.8049286944568     0.289135390119353    -72.5005183920071    0.289135390119353    -72.5005183920071    0.953789749558349    16.8049286944568     
1609.07253501359     0.955010286730117    16.5675847687643     0.285167306902994    -72.7344498885411    0.285167306902994    -72.7344498885411    0.955010286730117    16.5675847687643     
1625.94063001556     0.956208160397223    16.3313266738772     0.281212528285112    -72.9670516156815    0.281212528285112    -72.9670516156815    0.956208160397223    16.3313266738772     
1642.98555522425     0.957383607484544    16.0961477963015     0.277271077178756    -73.1983203201068    0.277271077178756    -73.1983203201068    0.957383607484544    16.0961477963015     
1660.20916437134     0.958536864234816    15.8620412151871     0.273342968766481    -73.4282525166836    0.273342968766481    -73.4282525166836    0.958536864234816    15.8620412151871     
1677.61333062139     0.959668166063382    15.6289997092739     0.269428210629523    -73.6568444461439    0.269428210629523    -73.6568444461439    0.959668166063382    15.6289997092739     
1695.19994677555     0.960777747417496    15.3970157637958     0.265526802878381    -73.8840920300024    0.265526802878381    -73.8840920300024    0.960777747417496    15.3970157637958     
1712.97092547746     0.961865841640107    15.1660815773377     0.261638738284654    -74.1099908224615    0.261638738284654    -74.1099908224615    0.961865841640107    15.1660815773377     
1730.92819942119     0.962932680838105    14.936189068644      0.257764002413969    -74.3345359590124    0.257764002413969    -74.3345359590124    0.962932680838105    14.936189068644      
1749.07372156148     0.963978495754953    14.7073298833709     0.253902573759833    -74.5577221014209    0.253902573759833    -74.5577221014209    0.963978495754953    14.7073298833709     
1767.40946532614     0.965003515647669    14.4794954007794     0.250054423878266    -74.7795433787426    0.250054423878266    -74.7795433787426    0.965003515647669    14.4794954007794     
1785.93742483062     0.966007968168079    14.2526767403677     0.246219517523084    -74.9999933239718    0.246219517523084    -74.9999933239718    0.966007968168079    14.2526767403677     
1804.65961509494     0.966992079248291    14.0268647684351     0.242397812781698    -75.2190648058895    0.242397812781698    -75.2190648058895    0.966992079248291    14.0268647684351     
1823.57807226281     0.967956072990301    13.8020501045791     0.238589261211298    -75.4367499556143    0.238589261211298    -75.4367499556143    0.967956072990301    13.8020501045791     
1842.69485382305     0.968900171559684    13.5782231281198     0.234793807975318    -75.6530400873096    0.234793807975318    -75.6530400873096    0.968900171559684    13.5782231281198     
1862.0120388334      0.969824595083276    13.3553739844477     0.231011391980082    -75.8679256124329    0.231011391980082    -75.8679256124329    0.969824595083276    13.3553739844477     
1881.53172814659     0.970729561550781    13.1334925912972     0.227241946011512    -76.0813959468329    0.227241946011512    -76.0813959468329    0.970729561550781    13.1334925912972     
1901.25604463885     0.971615286720204    12.9125686449387     0.223485396871855    -76.2934394099209    0.223485396871855    -76.2934394099209    0.971615286720204    12.9125686449387     
1921.18713344074     0.972481984027066    12.6925916262887     0.219741665516287    -76.5040431150423    0.219741665516287    -76.5040431150423    0.972481984027066    12.6925916262887     
1941.3271621705      0.973329864497261    12.4735508069385     0.216010667189421    -76.7131928500616    0.216010667189421    -76.7131928500616    0.973329864497261    12.4735508069385     
1961.67832116976     0.974159136663536    12.2554352550958     0.212292311561554    -76.9208729470508    0.212292311561554    -76.9208729470508    0.974159136663536    12.2554352550958     
1982.24282374175     0.974970006485437    12.0382338414412     0.20858650286471     -77.1270661398185    0.20858650286471     -77.1270661398185    0.974970006485437    12.0382338414412     
2003.02290639201     0.975762677272696    11.8219352448967     0.20489314002838     -77.3317534078563    0.20489314002838     -77.3317534078563    0.975762677272696    11.8219352448967     
2024.02082907165     0.976537349611925    11.6065279583054     0.20121211681498     -77.5349138050778    0.20121211681498     -77.5349138050778    0.976537349611925    11.6065279583054     
2045.23887542309     0.977294221296558    11.3920002940211     0.197543321954981    -77.7365242715085    0.197543321954981    -77.7365242715085    0.977294221296558    11.3920002940211     
2066.67935302845     0.978033487259916    11.1783403894095     0.193886639281775    -77.9365594258173    0.193886639281775    -77.9365594258173    0.978033487259916    11.1783403894095     
2088.34459366051     0.978755339511356    10.9655362122565     0.190241947866259    -78.1349913362918    0.190241947866259    -78.1349913362918    0.978755339511356    10.9655362122565     
2110.23695353627     0.979459967075352    10.7535755660868     0.186609122151198    -78.3317892674938    0.186609122151198    -78.3317892674938    0.979459967075352    10.7535755660868     
2132.35881357325     0.980147555933479    10.5424460953906     0.182988032085429    -78.5269193994387    0.182988032085429    -78.5269193994387    0.980147555933479    10.5424460953906     
2154.7125796484      0.980818288969148    10.3321352907599     0.179378543258011    -78.720344515653     0.179378543258011    -78.720344515653     0.980818288969148    10.3321352907599     
2177.30068285976     0.981472345915068    10.1226304939319     0.175780517032396    -78.9120236559116    0.175780517032396    -78.9120236559116    0.981472345915068    10.1226304939319     
2200.12557979085     0.982109903303284    9.91391890274389     0.172193810680807    -79.1019117287928    0.172193810680807    -79.1019117287928    0.982109903303284    9.91391890274389     
2223.18975277785     0.982731134417748    9.70598757599473     0.168618277518956    -79.2899590784158    0.168618277518956    -79.2899590784158    0.982731134417748    9.70598757599473     
2246.49571017955     0.983336209249304    9.49882343821893     0.165053767041361    -79.4761109988008    0.165053767041361    -79.4761109988008    0.983336209249304    9.49882343821893     
2270.04598665016     0.983925294453031    9.29241328436923     0.161500125057466    -79.6603071882036    0.161500125057466    -79.6603071882036    0.983925294453031    9.29241328436923     
2293.84314341496     0.984498553307817    9.08674378441173     0.157957193828936    -79.8424811344721    0.157957193828936    -79.8424811344721    0.984498553307817    9.08674378441173     
2317.88976854887     0.985056145678132    8.88180148783288     0.154424812208438    -80.0225594209184    0.154424812208438    -80.0225594209184    0.985056145678132    8.88180148783288     
2342.18847725789     0.985598227977856    8.67757282805935     0.15090281578041     -80.2004609403323    0.15090281578041     -80.2004609403323    0.985598227977856    8.67757282805935     
2366.74191216353     0.986124953136142    8.47404412679147     0.147391037004288    -80.3760960025147    0.147391037004288    -80.3760960025147    0.986124953136142    8.47404412679147     
2391.55274359021     0.98663647056518     8.27120159825385     0.143889305360902    -80.5493653179884    0.143889305360902    -80.5493653179884    0.98663647056518     8.27120159825385     
2416.62366985568     0.987132926129813    8.06903135336083     0.140397447502731    -80.7201588372501    0.140397447502731    -80.7201588372501    0.987132926129813    8.06903135336083     
2441.95741756444     0.987614462118922    7.86751940380027     0.136915287408975    -80.8883544208978    0.136915287408975    -80.8883544208978    0.987614462118922    7.86751940380027     
2467.55674190435     0.988081217218504    7.66665166603701     0.133442646546527    -81.0538163110419    0.133442646546527    -81.0538163110419    0.988081217218504    7.66665166603701     
2493.42442694618     0.988533326486354    7.46641396523692     0.129979344038192    -81.2163933683488    0.129979344038192    -81.2163933683488    0.988533326486354    7.46641396523692     
2519.56328594648     0.988970921328298    7.26679203911315     0.126525196839719    -81.3759170315646    0.126525196839719    -81.3759170315646    0.988970921328298    7.26679203911315     
2545.97616165345     0.989394129475902    7.06777154169692     0.123080019927671    -81.5321989470525    0.123080019927671    -81.5321989470525    0.989394129475902    7.06777154169692     
2572.6659266162      0.989803074965576    6.86933804703326     0.119643626500451    -81.6850282042346    0.119643626500451    -81.6850282042346    0.989803074965576    6.86933804703326     
2599.63548349708     0.990197878119019    6.67147705280472     0.116215828195475    -81.8341680981985    0.116215828195475    -81.8341680981985    0.990197878119019    6.67147705280472     
2626.88776538737     0.990578655524931    6.47417398388461     0.112796435326103    -81.9793523222364    0.112796435326103    -81.9793523222364    0.990578655524931    6.47417398388461     
2654.42573612633     0.990945520021931    6.27741419582095     0.109385257142823    -82.1202804695571    0.109385257142823    -82.1202804695571    0.990945520021931    6.27741419582095     
2682.25239062348     0.991298580682624    6.08118297825349     0.105982102124318    -82.2566126932865    0.105982102124318    -82.2566126932865    0.991298580682624    6.08118297825349     
2710.37075518428     0.991637942798752    5.88546555826647     0.102586778305489    -82.3879633350242    0.102586778305489    -82.3879633350242    0.991637942798752    5.88546555826647     
2738.78388783938     0.99196370786737     5.69024710367787     0.099199093651389    -82.5138932817547    0.099199093651389    -82.5138932817547    0.99196370786737     5.69024710367787     
2767.49487867707     0.992275973577995    5.49551272626795     0.095818856488445    -82.6339007448371    0.095818856488445    -82.6339007448371    0.992275973577995    5.49551272626795     
2796.5068501794      0.992574833800678    5.30124748494962     0.092445876007675    -82.7474100675538    0.092445876007675    -82.7474100675538    0.992574833800678    5.30124748494962     
2825.82295756177     0.99286037857494     5.10743638888186     0.089079962858827    -82.8537580514923    0.089079962858827    -82.8537580514923    0.99286037857494     5.10743638888186     
2855.44638911609     0.993132694099524    4.91406440052838     0.08572092986028     -82.9521771357808    0.08572092986028     -82.9521771357808    0.993132694099524    4.91406440052838     
2885.38036655747     0.993391862722917    4.72111643866521     0.082368592857406    -83.0417745509491    0.082368592857406    -83.0417745509491    0.993391862722917    4.72111643866521     
2915.62814537467     0.993637962934604    4.52857738133756     0.079022771772967    -83.1215062777786    0.079022771772967    -83.1215062777786    0.993637962934604    4.52857738133756     
2946.19301518409     0.993871069356994    4.33643206876948     0.075683291908227    -83.190144236719     0.075683291908227    -83.190144236719     0.993871069356994    4.33643206876948     
2977.07830008758     0.994091252737996    4.14466530622791     0.072349985574704    -83.2462345641386    0.072349985574704    -83.2462345641386    0.994091252737996    4.14466530622791     
3008.28735903392     0.994298579944186    3.95326186684414     0.069022694166827    -83.2880440201298    0.069022694166827    -83.2880440201298    0.994298579944186    3.95326186684414     
3039.82358618417     0.994493113954551    3.76220649439438     0.06570127082962     -83.3134903987694    0.06570127082962     -83.3134903987694    0.994493113954551    3.76220649439438     
3071.69041128075     0.994674913854747    3.57148390604273     0.062385583940162    -83.3200510868928    0.062385583940162    -83.3200510868928    0.994674913854747    3.57148390604273     
3103.89130002049     0.994844034831873    3.38107879504745     0.059075521718132    -83.3046413388974    0.059075521718132    -83.3046413388974    0.994844034831873    3.38107879504745     
3136.42975443149     0.995000528169693    3.19097583343383     0.055770998428258    -83.263449907084     0.055770998428258    -83.263449907084     0.995000528169693    3.19097583343383     
3169.30931325406     0.995144441244309    3.00115967463739     0.052471962867093    -83.1917135583323    0.052471962867093    -83.1917135583323    0.995144441244309    3.00115967463739     
3202.53355232551     0.995275817520232    2.81161495611714     0.049178410192574    -83.0834022887284    0.049178410192574    -83.0834022887284    0.995275817520232    2.81161495611714     
3236.10608496909     0.995394696546859    2.62232630194344     0.045890398753575    -82.9307711882581    0.045890398753575    -82.9307711882581    0.995394696546859    2.62232630194344     
3270.03056238692     0.995501113955291    2.4332783253618      0.042608074584216    -82.7237082887961    0.042608074584216    -82.7237082887961    0.995501113955291    2.4332783253618      
3304.31067405711     0.995595101455514    2.24445563133655     0.039331707978954    -82.4487616162208    0.039331707978954    -82.4487616162208    0.995595101455514    2.24445563133655     
3338.95014813498     0.995676686833894    2.05584281907477     0.03606174972121     -82.0876458836537    0.03606174972121     -82.0876458836537    0.995676686833894    2.05584281907477     
3373.95275185857     0.99574589395099     1.8674244845348      0.032798920470598    -81.6148744870961    0.032798920470598    -81.6148744870961    0.99574589395099     1.8674244845348      
3409.32229195829     0.995802742739658    1.67918522292112     0.029544358509714    -80.9938593026285    0.029544358509714    -80.9938593026285    0.995802742739658    1.67918522292112     
3445.06261507095     0.995847249203444    1.49110963116765     0.026299875436684    -80.1701941313719    0.026299875436684    -80.1701941313719    0.995847249203444    1.49110963116765     
3481.17760815811     0.99587942541524     1.30318231041364     0.023068423694307    -79.0594583304702    0.023068423694307    -79.0594583304702    0.99587942541524     1.30318231041364     
3517.6711989288      0.995899279516221    1.11538786847213     0.019855010665993    -77.5236084191654    0.019855010665993    -77.5236084191654    0.995899279516221    1.11538786847213     
3554.54735626669     0.995906815715038    0.927710922296185    0.016668640860858    -75.3215733529501    0.016668640860858    -75.3215733529501    0.995906815715038    0.927710922296185    
3591.81009066169     0.995902034287257    0.740136100443603    0.0135269009185      -71.9954780847532    0.0135269009185      -71.9954780847532    0.995902034287257    0.740136100443603    
3629.46345464619     0.995884931575076    0.552648045542977    0.010468353730032    -66.5766789223912    0.010468353730032    -66.5766789223912    0.995884931575076    0.552648045542977    
3667.51154323571     0.995855499987277    0.365231416765026    0.00759226366413     -56.7324372539126    0.00759226366413     -56.7324372539126    0.995855499987277    0.365231416765026    
3705.95849437431     0.995813727999454    0.17787089229928     0.005207880838147    -36.41335397382      0.005207880838147    -36.41335397382      0.995813727999454    0.17787089229928     
3744.8084893846      0.995759600154488    -0.009448828159056   0.004243591860359    2.2177229555701      0.004243591860359    2.2177229555701      0.995759600154488    -0.009448828159056   
3784.06575342248     0.995693097063312    -0.196743020910631   0.005503607314662    38.4061668005174     0.005503607314662    38.4061668005174     0.995693097063312    -0.196743020910631   
3823.73455593665     0.995614195405942    -0.384026935739397   0.007997628069376    56.5516929416632     0.007997628069376    56.5516929416632     0.995614195405942    -0.384026935739397   
3863.81921113296     0.995522867932806    -0.571315793382858   0.010909921871388    65.4864248515092     0.010909921871388    65.4864248515092     0.995522867932806    -0.571315793382858   
3904.32407844354     0.995419083466368    -0.758624782983054   0.013981774186362    70.4958395816702     0.013981774186362    70.4958395816702     0.995419083466368    -0.758624782983054   
3945.253563001       0.99530280690309     -0.945969059515617   0.017127937035873    73.6107477912912     0.017127937035873    73.6107477912912     0.99530280690309     -0.945969059515617   
3986.61211611745     0.995173999215704    -1.13336374119442    0.020314388807201    75.6910965944004     0.020314388807201    75.6910965944004     0.995173999215704    -1.13336374119442    
4028.4042357686      0.995032617455873    -1.320823906849      0.023525302157673    77.1506191790133     0.023525302157673    77.1506191790133     0.995032617455873    -1.320823906849      
4070.63446708302     0.994878614757196    -1.50836459327282    0.0267524555229      78.2101816978716     0.0267524555229      78.2101816978716     0.994878614757196    -1.50836459327282    
4113.30740283634     0.994711940338641    -1.69600079253942    0.029991227714114    78.9976281610801     0.029991227714114    78.9976281610801     0.994711940338641    -1.69600079253942    
4156.4276839508      0.994532539508393    -1.88374744928388    0.03323887160538     79.5918110479908     0.03323887160538     79.5918110479908     0.994532539508393    -1.88374744928388    
4200.00000000001     0.994340353668158    -2.07161945794824    0.036493690538929    80.0438985512802     0.036493690538929    80.0438985512802     0.994340353668158    -2.07161945794824    
