# MHz S MA R 50      
!Freq                MagS11               AngS11               MagS21               AngS21               MagS12               AngS12               MagS22               AngS22               
1                    0.001688981768274    16.4791744217835     0.998380511656452    -0.02749540077095    0.998380511656452    -0.02749540077095    0.001688981768274    16.4791744217835     
1.01128143333155     0.001691720097173    16.6426669239984     0.998379264363697    -0.027805553598989   0.998379264363697    -0.027805553598989   0.001691720097173    16.6426669239984     
1.02269013740111     0.001694496589478    16.8075327321223     0.998378010013669    -0.028119204806042   0.998378010013669    -0.028119204806042   0.001694496589478    16.8075327321223     
1.03422754800503     0.001697311903142    16.9737770584951     0.998376748565715    -0.028436393848816   0.998376748565715    -0.028436393848816   0.001697311903142    16.9737770584951     
1.0458951171375      0.001700166707487    17.1414049588776     0.998375479978905    -0.028757160628977   0.998375479978905    -0.028757160628977   0.001700166707487    17.1414049588776     
1.05769431317328     0.00170306168336     17.3104213271062     0.99837420421206     -0.029081545498163   0.99837420421206     -0.029081545498163   0.00170306168336     17.3104213271062     
1.0696266210525      0.001705997523303    17.4808308896771     0.998372921223759    -0.029409589263061   0.998372921223759    -0.029409589263061   0.001705997523303    17.4808308896771     
1.08169354246755     0.001708974931713    17.6526382002655     0.99837163097231     -0.029741333190537   0.99837163097231     -0.029741333190537   0.001708974931713    17.6526382002655     
1.09389659605206     0.001711994625006    17.8258476341778     0.99837033341577     -0.030076819012822   0.99837033341577     -0.030076819012822   0.001711994625006    17.8258476341778     
1.10623731757203     0.001715057331785    18.0004633827437     0.998369028511924    -0.030416088932762   0.998369028511924    -0.030416088932762   0.001715057331785    18.0004633827437     
1.11871726011909     0.001718163793004    18.1764894476463     0.998367716218313    -0.030759185629122   0.998367716218313    -0.030759185629122   0.001718163793004    18.1764894476463     
1.13133799430598     0.001721314762137    18.3539296351957     0.998366396492191    -0.031106152261951   0.998366396492191    -0.031106152261951   0.001721314762137    18.3539296351957     
1.14410110846419     0.001724511005345    18.5327875505482     0.998365069290552    -0.031457032478012   0.998365069290552    -0.031457032478012   0.001724511005345    18.5327875505482     
1.15700820884387     0.001727753301642    18.7130665918737     0.998363734570142    -0.031811870416266   0.998363734570142    -0.031811870416266   0.001727753301642    18.7130665918737     
1.170060919816       0.001731042443067    18.8947699444755     0.99836239228739     -0.032170710713421   0.99836239228739     -0.032170710713421   0.001731042443067    18.8947699444755     
1.18326088407675     0.001734379234853    19.0779005748654     0.998361042398507    -0.032533598509548   0.998361042398507    -0.032533598509548   0.001734379234853    19.0779005748654     
1.19660976285429     0.001737764495593    19.2624612247963     0.998359684859369    -0.032900579453751   0.998359684859369    -0.032900579453751   0.001737764495593    19.2624612247963     
1.21010923611781     0.001741199057416    19.448454405259      0.998358319625629    -0.033271699709909   0.998358319625629    -0.033271699709909   0.001741199057416    19.448454405259      
1.22376100278896     0.001744683766151    19.6358823904464     0.998356946652623    -0.03364700596248    0.998356946652623    -0.03364700596248    0.001744683766151    19.6358823904464     
1.23756678095568     0.001748219481503    19.8247472116857     0.998355565895412    -0.034026545422369   0.998355565895412    -0.034026545422369   0.001748219481503    19.8247472116857     
1.25152830808837     0.00175180707722     20.0150506513495     0.998354177308781    -0.034410365832862   0.998354177308781    -0.034410365832862   0.00175180707722     20.0150506513495     
1.26564734125861     0.001755447441265    20.2067942367442     0.998352780847217    -0.034798515475633   0.998352780847217    -0.034798515475633   0.001755447441265    20.2067942367442     
1.27992565736027     0.001759141475988    20.3999792339851     0.998351376464934    -0.035191043176807   0.998351376464934    -0.035191043176807   0.001759141475988    20.3999792339851     
1.29436505333312     0.001762890098296    20.5946066418608     0.998349964115833    -0.035587998313104   0.998349964115833    -0.035587998313104   0.001762890098296    20.5946066418608     
1.30896734638898     0.001766694239823    20.7906771856926     0.998348543753518    -0.035989430818044   0.998348543753518    -0.035989430818044   0.001766694239823    20.7906771856926     
1.32373437424044     0.001770554847101    20.9881913111953     0.998347115331334    -0.036395391188225   0.998347115331334    -0.036395391188225   0.001770554847101    20.9881913111953     
1.33866799533211     0.001774472881734    21.1871491783439     0.998345678802272    -0.036805930489669   0.998345678802272    -0.036805930489669   0.001774472881734    21.1871491783439     
1.35377008907452     0.00177844932056     21.3875506552534     0.998344234119071    -0.037221100364247   0.998344234119071    -0.037221100364247   0.00177844932056     21.3875506552534     
1.36904255608066     0.001782485155828    21.5893953120766     0.99834278123414     -0.037640953036165   0.99834278123414     -0.037640953036165   0.001782485155828    21.5893953120766     
1.38448731840514     0.001786581395363    21.7926824149263     0.998341320099564    -0.03806554131853    0.998341320099564    -0.03806554131853    0.001786581395363    21.7926824149263     
1.4001063197861      0.001790739062737    21.9974109198303     0.998339850667161    -0.038494918619995   0.998339850667161    -0.038494918619995   0.001790739062737    21.9974109198303     
1.41590152588984     0.001794959197437    22.2035794667244     0.998338372888399    -0.038929138951467   0.998338372888399    -0.038929138951467   0.001794959197437    22.2035794667244     
1.4318749245582      0.001799242855027    22.4111863734884     0.998336886714446    -0.039368256932897   0.998336886714446    -0.039368256932897   0.001799242855027    22.4111863734884     
1.44802852605872     0.001803591107324    22.6202296300385     0.998335392096159    -0.039812327800152   0.998335392096159    -0.039812327800152   0.001803591107324    22.6202296300385     
1.46436436333763     0.001808005042553    22.8307068924747     0.998333888984061    -0.040261407411948   0.998333888984061    -0.040261407411948   0.001808005042553    22.8307068924747     
1.48088449227572     0.001812485765521    23.0426154773004     0.998332377328364    -0.040715552256885   0.998332377328364    -0.040715552256885   0.001812485765521    23.0426154773004     
1.49759099194705     0.001817034397774    23.2559523557123     0.998330857078937    -0.041174819460536   0.998330857078937    -0.041174819460536   0.001817034397774    23.2559523557123     
1.51448596488063     0.001821652077762    23.4707141479771     0.998329328185331    -0.041639266792635   0.998329328185331    -0.041639266792635   0.001821652077762    23.4707141479771     
1.53157153732499     0.001826339961002    23.6868971178969     0.998327790596764    -0.042108952674337   0.998327790596764    -0.042108952674337   0.001826339961002    23.6868971178969     
1.54884985951582     0.001831099220234    23.9044971673748     0.998326244262104    -0.042583936185561   0.998326244262104    -0.042583936185561   0.001831099220234    23.9044971673748     
1.56632310594653     0.001835931045585    24.1235098310887     0.998324689129919    -0.043064277072417   0.998324689129919    -0.043064277072417   0.001835931045585    24.1235098310887     
1.58399347564192     0.001840836644721    24.3439302712794     0.998323125148396    -0.043550035754717   0.998323125148396    -0.043550035754717   0.001840836644721    24.3439302712794     
1.60186319243499     0.001845817243006    24.5657532726665     0.998321552265392    -0.044041273333569   0.998321552265392    -0.044041273333569   0.001845817243006    24.5657532726665     
1.6199345052467      0.001850874083657    24.7889732374952     0.998319970428424    -0.044538051599057   0.998319970428424    -0.044538051599057   0.001850874083657    24.7889732374952     
1.63820968836911     0.001856008427894    25.0135841807287     0.998318379584648    -0.045040433038007   0.998318379584648    -0.045040433038007   0.001856008427894    25.0135841807287     
1.65669104175155     0.001861221555093    25.2395797253889     0.998316779680861    -0.045548480841846   0.998316779680861    -0.045548480841846   0.001861221555093    25.2395797253889     
1.67538089129004     0.001866514762935    25.4669530980616     0.99831517066351     -0.046062258914538   0.99831517066351     -0.046062258914538   0.001866514762935    25.4669530980616     
1.69428158912007     0.001871889367553    25.6956971245683     0.998313552478699    -0.046581831880624   0.998313552478699    -0.046581831880624   0.001871889367553    25.6956971245683     
1.7133955139126      0.001877346703678    25.9258042258204     0.998311925072137    -0.047107265093338   0.998311925072137    -0.047107265093338   0.001877346703678    25.9258042258204     
1.73272507117338     0.00188288812478     26.1572664138584     0.998310288389176    -0.047638624642826   0.998310288389176    -0.047638624642826   0.00188288812478     26.1572664138584     
1.75227269354572     0.001888515003216    26.3900752880928     0.998308642374812    -0.048175977364452   0.998308642374812    -0.048175977364452   0.001888515003216    26.3900752880928     
1.77204084111665     0.001894228730361    26.6242220317492     0.998306986973648    -0.048719390847199   0.998306986973648    -0.048719390847199   0.001894228730361    26.6242220317492     
1.79203200172649     0.001900030716752    26.8596974085302     0.998305322129926    -0.04926893344216    0.998305322129926    -0.04926893344216    0.001900030716752    26.8596974085302     
1.81224869128196     0.00190592239222     27.0964917595049     0.998303647787475    -0.049824674271138   0.998303647787475    -0.049824674271138   0.00190592239222     27.0964917595049     
1.83269345407284     0.001911905206025    27.334595000231      0.998301963889776    -0.050386683235325   0.998301963889776    -0.050386683235325   0.001911905206025    27.334595000231      
1.85336886309213     0.001917980626984    27.5739966181218     0.998300270379903    -0.050955031024093   0.998300270379903    -0.050955031024093   0.001917980626984    27.5739966181218     
1.87427752035987     0.001924150143602    27.8146856700669     0.998298567200539    -0.051529789123876   0.998298567200539    -0.051529789123876   0.001924150143602    27.8146856700669     
1.89542205725063     0.001930415264195    28.0566507803144     0.998296854293965    -0.052111029827156   0.998296854293965    -0.052111029827156   0.001930415264195    28.0566507803144     
1.91680513482465     0.001936777517019    28.2998801386235     0.998295131602074    -0.052698826241551   0.998295131602074    -0.052698826241551   0.001936777517019    28.2998801386235     
1.93842944416274     0.001943238450386    28.5443614986966     0.998293399066338    -0.053293252298998   0.998293399066338    -0.053293252298998   0.001943238450386    28.5443614986966     
1.96029770670497     0.001949799632783    28.7900821769011     0.998291656627822    -0.053894382765052   0.998291656627822    -0.053894382765052   0.001949799632783    28.7900821769011     
1.98241267459315     0.001956462652995    29.037029051285      0.998289904227207    -0.054502293248276   0.998289904227207    -0.054502293248276   0.001956462652995    29.037029051285      
2.00477713101718     0.00196322912021     29.285188560898      0.998288141804712    -0.055117060209748   0.998288141804712    -0.055117060209748   0.00196322912021     29.285188560898      
2.02739389056537     0.001970100664138    29.5345467054247     0.998286369300174    -0.055738760972671   0.998286369300174    -0.055738760972671   0.001970100664138    29.5345467054247     
2.05026579957857     0.001977078935114    29.7850890451371     0.998284586652978    -0.056367473732086   0.998284586652978    -0.056367473732086   0.001977078935114    29.7850890451371     
2.07339573650846     0.001984165604211    30.0368007011736     0.99828279380208     -0.057003277564704   0.99828279380208     -0.057003277564704   0.001984165604211    30.0368007011736     
2.0967866122798      0.001991362363339    30.2896663561523     0.998280990686037    -0.057646252438844   0.998280990686037    -0.057646252438844   0.001991362363339    30.2896663561523     
2.12044137065671     0.001998670925349    30.5436702551241     0.998279177242912    -0.058296479224479   0.998279177242912    -0.058296479224479   0.001998670925349    30.5436702551241     
2.14436298861323     0.002006093024133    30.7987962068732     0.998277353410366    -0.058954039703402   0.998277353410366    -0.058954039703402   0.002006093024133    30.7987962068732     
2.16855447670791     0.00201363041472     31.0550275855665     0.998275519125598    -0.059619016579507   0.998275519125598    -0.059619016579507   0.00201363041472     31.0550275855665     
2.19301887946272     0.002021284873371    31.3123473327658     0.998273674325346    -0.060291493489177   0.998273674325346    -0.060291493489177   0.002021284873371    31.3123473327658     
2.2177592757462      0.002029058197672    31.5707379597985     0.998271818945908    -0.060971555011796   0.998271818945908    -0.060971555011796   0.002029058197672    31.5707379597985     
2.24277877916095     0.002036952206625    31.8301815504953     0.998269952923101    -0.06165928668038    0.998269952923101    -0.06165928668038    0.002036952206625    31.8301815504953     
2.26808053843547     0.002044968740732    32.0906597643025     0.998268076192291    -0.062354774992325   0.998268076192291    -0.062354774992325   0.002044968740732    32.0906597643025     
2.29366773782041     0.002053109662088    32.3521538397639     0.998266188688353    -0.063058107420278   0.998266188688353    -0.063058107420278   0.002053109662088    32.3521538397639     
2.31954359748935     0.002061376854457    32.6146445983835     0.998264290345705    -0.063769372423125   0.998264290345705    -0.063769372423125   0.002061376854457    32.6146445983835     
2.34571137394404     0.002069772223361    32.8781124488665     0.998262381098263    -0.064488659457114   0.998262381098263    -0.064488659457114   0.002069772223361    32.8781124488665     
2.37217436042425     0.002078297696156    33.1425373917419     0.998260460879469    -0.065216058987089   0.998260460879469    -0.065216058987089   0.002078297696156    33.1425373917419     
2.39893588732218     0.002086955222111    33.4078990243699     0.998258529622259    -0.065951662497866   0.998258529622259    -0.065951662497866   0.002086955222111    33.4078990243699     
2.42599932260166     0.002095746772485    33.6741765463293     0.99825658725907     -0.066695562505722   0.99825658725907     -0.066695562505722   0.002095746772485    33.6741765463293     
2.45336807222197     0.002104674340603    33.9413487651911     0.99825463372186     -0.067447852570023   0.99825463372186     -0.067447852570023   0.002104674340603    33.9413487651911     
2.48104558056649     0.002113739941928    34.2093941026745     0.998252668942031    -0.068208627304985   0.998252668942031    -0.068208627304985   0.002113739941928    34.2093941026745     
2.50903533087618     0.002122945614134    34.4782906011861     0.998250692850504    -0.068977982391555   0.998250692850504    -0.068977982391555   0.002122945614134    34.4782906011861     
2.53734084568796     0.002132293417177    34.7480159307341     0.998248705377671    -0.069756014589441   0.998248705377671    -0.069756014589441   0.002132293417177    34.7480159307341     
2.565965687278       0.002141785433364    35.018547396227      0.998246706453388    -0.070542821749267   0.998246706453388    -0.070542821749267   0.002141785433364    35.018547396227      
2.59491345811007     0.002151423767425    35.2898619451405     0.998244696006984    -0.071338502824867   0.998244696006984    -0.071338502824867   0.002151423767425    35.2898619451405     
2.62418780128887     0.002161210546577    35.5619361755585     0.998242673967228    -0.072143157885724   0.998242673967228    -0.072143157885724   0.002161210546577    35.5619361755585     
2.65379240101857     0.002171147920594    35.834746344577      0.998240640262378    -0.072956888129539   0.998240640262378    -0.072956888129539   0.002171147920594    35.834746344577      
2.68373098306643     0.002181238061873    36.1082683770711     0.998238594820108    -0.073779795894947   0.998238594820108    -0.073779795894947   0.002181238061873    36.1082683770711     
2.7140073152317      0.002191483165503    36.3824778748156     0.998236537567545    -0.074611984674379   0.998236537567545    -0.074611984674379   0.002191483165503    36.3824778748156     
2.74462520781982     0.002201885449328    36.657350125953      0.998234468431252    -0.075453559127063   0.998234468431252    -0.075453559127063   0.002201885449328    36.657350125953      
2.77558851412192     0.002212447154017    36.9328601148031     0.9982323873372      -0.076304625092174   0.9982323873372      -0.076304625092174   0.002212447154017    36.9328601148031     
2.8069011308998      0.002223170543127    37.208982532005      0.998230294210807    -0.077165289602133   0.998230294210807    -0.077165289602133   0.002223170543127    37.208982532005      
2.83856699887629     0.002234057903174    37.485691784985      0.998228188976897    -0.078035660896055   0.998228188976897    -0.078035660896055   0.002234057903174    37.485691784985      
2.87059010323124     0.002245111543698    37.7629620087374     0.998226071559678    -0.078915848433347   0.998226071559678    -0.078915848433347   0.002245111543698    37.7629620087374     
2.90297447410305     0.002256333797334    38.0407670769105     0.99822394188278     -0.079805962907465   0.99822394188278     -0.079805962907465   0.002256333797334    38.0407670769105     
2.93572418709583     0.002267727019879    38.319080613189      0.998221799869215    -0.080706116259814   0.998221799869215    -0.080706116259814   0.002267727019879    38.319080613189      
2.96884336379236     0.002279293590363    38.5978760029593     0.998219645441392    -0.081616421693818   0.998219645441392    -0.081616421693818   0.002279293590363    38.5978760029593     
3.00233617227279     0.002291035911125    38.8771264052463     0.998217478521066    -0.082536993689142   0.998217478521066    -0.082536993689142   0.002291035911125    38.8771264052463     
3.03620682763918     0.002302956407881    39.1568047649082     0.998215299029404    -0.083467948016072   0.998215299029404    -0.083467948016072   0.002302956407881    39.1568047649082     
3.07045959254598     0.002315057529802    39.4368838250821     0.99821310688688     -0.084409401750062   0.99821310688688     -0.084409401750062   0.002315057529802    39.4368838250821     
3.1050987777365      0.002327341749594    39.7173361398578     0.998210902013381    -0.085361473286441   0.998210902013381    -0.085361473286441   0.002327341749594    39.7173361398578     
3.1401287425854      0.002339811563574    39.9981340871754     0.998208684328072    -0.086324282355287   0.998208684328072    -0.086324282355287   0.002339811563574    39.9981340871754     
3.17555389564735     0.002352469491755    40.2792498819263     0.998206453749524    -0.087297950036474   0.998206453749524    -0.087297950036474   0.002352469491755    40.2792498819263     
3.21137869521184     0.002365318077929    40.5606555892417     0.998204210195571    -0.088282598774871   0.998204210195571    -0.088282598774871   0.002365318077929    40.5606555892417     
3.24760764986422     0.002378359889758    40.8423231379627     0.998201953583413    -0.089278352395737   0.998201953583413    -0.089278352395737   0.002378359889758    40.8423231379627     
3.28424531905319     0.002391597518861    41.1242243342634     0.998199683829538    -0.090285336120272   0.998199683829538    -0.090285336120272   0.002391597518861    41.1242243342634     
3.32129631366453     0.002405033580914    41.4063308754202     0.998197400849725    -0.091303676581341   0.998197400849725    -0.091303676581341   0.002405033580914    41.4063308754202     
3.35876529660145     0.002418670715743    41.6886143637095     0.998195104559082    -0.092333501839396   0.998195104559082    -0.092333501839396   0.002418670715743    41.6886143637095     
3.39665698337138     0.002432511587429    41.9710463204129     0.99819279487196     -0.093374941398547   0.99819279487196     -0.093374941398547   0.002432511587429    41.9710463204129     
3.43497614267942     0.002446558884414    42.25359819992       0.998190471701996    -0.094428126222842   0.998190471701996    -0.094428126222842   0.002446558884414    42.25359819992       
3.47372759702851     0.002460815319612    42.5362414039042     0.998188134962103    -0.095493188752716   0.998188134962103    -0.095493188752716   0.002460815319612    42.5362414039042     
3.51291622332635     0.00247528363052     42.8189472955607     0.998185784564428    -0.096570262921622   0.998185784564428    -0.096570262921622   0.00247528363052     42.8189472955607     
3.55254695349911     0.002489966579344    43.1016872138865     0.998183420420382    -0.09765948417286    0.998183420420382    -0.09765948417286    0.002489966579344    43.1016872138865     
3.5926247751122      0.00250486695312     43.3844324879831     0.998181042440589    -0.098760989476591   0.998181042440589    -0.098760989476591   0.00250486695312     43.3844324879831     
3.6331547319979      0.002519987563843    43.6671544513691     0.998178650534908    -0.099874917347037   0.998178650534908    -0.099874917347037   0.002519987563843    43.6671544513691     
3.67414192489013     0.002535331248606    43.9498244562824     0.998176244612401    -0.101001407859884   0.998176244612401    -0.101001407859884   0.002535331248606    43.9498244562824     
3.71559151206642     0.00255090086974     44.2324138879518     0.998173824581349    -0.102140602669876   0.998173824581349    -0.102140602669876   0.00255090086974     44.2324138879518     
3.75750870999706     0.002566699314957    44.514894178828      0.998171390349214    -0.103292645028606   0.998171390349214    -0.103292645028606   0.002566699314957    44.514894178828      
3.7998987940016      0.002582729497507    44.7972368227478     0.998168941822621    -0.104457679802508   0.998168941822621    -0.104457679802508   0.002582729497507    44.7972368227478     
3.84276709891276     0.002598994356338    45.0794133890227     0.998166478907379    -0.105635853491056   0.998166478907379    -0.105635853491056   0.002598994356338    45.0794133890227     
3.88611901974781     0.002615496856257    45.3613955364274     0.998164001508462    -0.106827314245162   0.998164001508462    -0.106827314245162   0.002615496856257    45.3613955364274     
3.92996001238755     0.002632239988107    45.6431550270777     0.998161509529958    -0.108032211885783   0.998161509529958    -0.108032211885783   0.002632239988107    45.6431550270777     
3.97429559426295     0.002649226768943    45.9246637401777     0.998159002875123    -0.109250697922742   0.998159002875123    -0.109250697922742   0.002649226768943    45.9246637401777     
4.01913134504949     0.002666460242217    46.20589368562       0.998156481446313    -0.110482925573751   0.998156481446313    -0.110482925573751   0.002666460242217    46.20589368562       
4.0644729073694      0.002683943477977    46.4868170174247     0.998153945144986    -0.111729049783656   0.998153945144986    -0.111729049783656   0.002683943477977    46.4868170174247     
4.11032598750177     0.00270167957306     46.7674060470007     0.9981513938717      -0.112989227243899   0.9981513938717      -0.112989227243899   0.00270167957306     46.7674060470007     
4.1566963561007      0.002719671651307    47.0476332562163     0.998148827526109    -0.114263616412199   0.998148827526109    -0.114263616412199   0.002719671651307    47.0476332562163     
4.20358984892153     0.002737922863773    47.3274713102577     0.998146246006913    -0.115552377532441   0.998146246006913    -0.115552377532441   0.002737922863773    47.3274713102577     
4.25101236755531     0.002756436388954    47.6068930702704     0.998143649211869    -0.116855672654814   0.998143649211869    -0.116855672654814   0.002756436388954    47.6068930702704     
4.29896988017147     0.002775215433017    47.8858716057634     0.99814103703779     -0.118173665656153   0.99814103703779     -0.118173665656153   0.002775215433017    47.8858716057634     
4.34746842226895     0.002794263230041    48.1643802067644     0.998138409380507    -0.119506522260522   0.998138409380507    -0.119506522260522   0.002794263230041    48.1643802067644     
4.39651409743579     0.002813583042264    48.442392395714      0.998135766134847    -0.120854410060026   0.998135766134847    -0.120854410060026   0.002813583042264    48.442392395714      
4.44611307811722     0.002833178160338    48.7198819390857     0.998133107194665    -0.122217498535854   0.998133107194665    -0.122217498535854   0.002833178160338    48.7198819390857     
4.49627160639252     0.002853051903595    48.9968228587218     0.998130432452768    -0.123595959079564   0.998130432452768    -0.123595959079564   0.002853051903595    48.9968228587218     
4.54699599476057     0.00287320762032     49.2731894428714     0.998127741800953    -0.124989965014606   0.998127741800953    -0.124989965014606   0.00287320762032     49.2731894428714     
4.59829262693427     0.002893648688035    49.548956256923      0.998125035129955    -0.126399691618086   0.998125035129955    -0.126399691618086   0.002893648688035    49.548956256923      
4.65016795864398     0.002914378513785    49.8240981538204     0.998122312329443    -0.12782531614277    0.998122312329443    -0.12782531614277    0.002914378513785    49.8240981538204     
4.70262851844992     0.00293540053444     50.0985902841518     0.998119573288016    -0.129267017839352   0.998119573288016    -0.129267017839352   0.00293540053444     50.0985902841518     
4.75568090856385     0.002956718217007    50.3724081059074     0.998116817893163    -0.130724977978949   0.998116817893163    -0.130724977978949   0.002956718217007    50.3724081059074     
4.80933180567992     0.002978335058941    50.6455273938922     0.998114046031281    -0.132199379875872   0.998114046031281    -0.132199379875872   0.002978335058941    50.6455273938922     
4.86358796181499     0.003000254588478    50.917924248792      0.998111257587607    -0.133690408910639   0.998111257587607    -0.133690408910639   0.003000254588478    50.917924248792      
4.91845620515832     0.003022480364965    51.1895751058825     0.998108452446241    -0.135198252553251   0.998108452446241    -0.135198252553251   0.003022480364965    51.1895751058825     
4.97394344093095     0.00304501597921     51.4604567433787     0.998105630490114    -0.136723100386728   0.998105630490114    -0.136723100386728   0.00304501597921     51.4604567433787     
5.0300566522547      0.003067865053834    51.7305462904158     0.998102791600993    -0.138265144130918   0.998102791600993    -0.138265144130918   0.003067865053834    51.7305462904158     
5.08680290103102     0.003091031243635    51.9998212346618     0.998099935659407    -0.139824577666561   0.998099935659407    -0.139824577666561   0.003091031243635    51.9998212346618     
5.14418932882973     0.003114518235961    52.2682594295533     0.998097062544676    -0.141401597059632   0.998097062544676    -0.141401597059632   0.003114518235961    52.2682594295533     
5.20222315778778     0.003138329751093    52.5358391011552     0.998094172134898    -0.142996400585964   0.998094172134898    -0.142996400585964   0.003138329751093    52.5358391011552     
5.26091169151819     0.003162469542637    52.8025388546399     0.998091264306873    -0.144609188756126   0.998091264306873    -0.144609188756126   0.003162469542637    52.8025388546399     
5.32026231602921     0.003186941397922    53.068337680384      0.998088338936138    -0.146240164340608   0.998088338936138    -0.146240164340608   0.003186941397922    53.068337680384      
5.38028250065384     0.003211749138417    53.3332149596845     0.998085395896943    -0.147889532395276   0.998085395896943    -0.147889532395276   0.003211749138417    53.3332149596845     
5.44097979898986     0.003236896620146    53.5971504700879     0.998082435062182    -0.149557500287103   0.998082435062182    -0.149557500287103   0.003236896620146    53.5971504700879     
5.50236184985046     0.00326238773412     53.8601243903396     0.998079456303421    -0.151244277720213   0.998079456303421    -0.151244277720213   0.00326238773412     53.8601243903396     
5.5644363782256      0.003288226406774    54.1221173049489     0.998076459490853    -0.152950076762199   0.998076459490853    -0.152950076762199   0.003288226406774    54.1221173049489     
5.62721119625419     0.00331441660042     54.3831102083738     0.9980734444933      -0.154675111870748   0.9980734444933      -0.154675111870748   0.00331441660042     54.3831102083738     
5.69069420420727     0.003340962313701    54.6430845088259     0.998070411178159    -0.156419599920557   0.998070411178159    -0.156419599920557   0.003340962313701    54.6430845088259     
5.75489339148226     0.003367867582058    54.9020220316995     0.998067359411371    -0.158183760230555   0.998067359411371    -0.158183760230555   0.003367867582058    54.9020220316995     
5.81981683760842     0.003395136478213    55.1599050226263     0.998064289057445    -0.159967814591439   0.998064289057445    -0.159967814591439   0.003395136478213    55.1599050226263     
5.88547271326372     0.003422773112647    55.4167161501616     0.998061199979405    -0.161771987293508   0.998061199979405    -0.161771987293508   0.003422773112647    55.4167161501616     
5.95186928130305     0.003450781634103    55.6724385081021     0.998058092038755    -0.163596505154815   0.998058092038755    -0.163596505154815   0.003450781634103    55.6724385081021     
6.01901489779816     0.003479166230087    55.9270556174442     0.998054965095481    -0.165441597549638   0.998054965095481    -0.165441597549638   0.003479166230087    55.9270556174442     
6.08691801308926     0.003507931127384    56.1805514279854     0.998051819007976    -0.167307496437263   0.998051819007976    -0.167307496437263   0.003507931127384    56.1805514279854     
6.15558717284852     0.003537080592581    56.432910319574      0.998048653633098    -0.16919443639111    0.998048653633098    -0.16919443639111    0.003537080592581    56.432910319574      
6.22503101915554     0.0035666189326      56.6841171030156     0.998045468826062    -0.171102654628156   0.998045468826062    -0.171102654628156   0.0035666189326      56.6841171030156     
6.29525829158496     0.003596550495244    56.9341570206379     0.998042264440435    -0.173032391038717   0.998042264440435    -0.173032391038717   0.003596550495244    56.9341570206379     
6.36627782830634     0.003626879669741    57.1830157465258     0.998039040328141    -0.174983888216551   0.998039040328141    -0.174983888216551   0.003626879669741    57.1830157465258     
6.43809856719649     0.003657610887312    57.4306793864292     0.99803579633939     -0.176957391489307   0.99803579633939     -0.176957391489307   0.003657610887312    57.4306793864292     
6.51072954696425     0.003688748621738    57.6771344773546     0.998032532322674    -0.1789531489493     0.998032532322674    -0.1789531489493     0.003688748621738    57.6771344773546     
6.58417990828806     0.003720297389936    57.9223679868441     0.998029248124729    -0.180971411484661   0.998029248124729    -0.180971411484661   0.003720297389936    57.9223679868441     
6.65845889496633     0.003752261752555    58.1663673119533     0.998025943590511    -0.183012432810803   0.998025943590511    -0.183012432810803   0.003752261752555    58.1663673119533     
6.73357585508074     0.003784646314562    58.4091202779342     0.998022618563162    -0.185076469502273   0.998022618563162    -0.185076469502273   0.003784646314562    58.4091202779342     
6.80954024217275     0.003817455725857    58.6506151366312     0.998019272883947    -0.187163781024934   0.998019272883947    -0.187163781024934   0.003817455725857    58.6506151366312     
6.88636161643331     0.003850694681886    58.8908405646001     0.998015906392288    -0.18927462976853    0.998015906392288    -0.18927462976853    0.003850694681886    58.8908405646001     
6.96404964590603     0.003884367924259    59.1297856609569     0.998012518925683    -0.191409281079612   0.998012518925683    -0.191409281079612   0.003884367924259    59.1297856609569     
7.04261410770391     0.003918480241392    59.3674399449677     0.998009110319662    -0.193568003294818   0.998009110319662    -0.193568003294818   0.003918480241392    59.3674399449677     
7.12206488923979     0.003953036469139    59.6037933533851     0.998005680407804    -0.195751067774557   0.998005680407804    -0.195751067774557   0.003953036469139    59.6037933533851     
7.2024119894707      0.003988041491452    59.8388362375455     0.998002229021648    -0.197958748937041   0.998002229021648    -0.197958748937041   0.003988041491452    59.8388362375455     
7.28366552015625     0.004023500241029    60.0725593602285     0.997998755990703    -0.200191324292724   0.997998755990703    -0.200191324292724   0.004023500241029    60.0725593602285     
7.36583570713119     0.004059417699993    60.3049538922971     0.997995261142366    -0.202449074479105   0.997995261142366    -0.202449074479105   0.004059417699993    60.3049538922971     
7.44893289159232     0.004095798900558    60.5360114091204     0.997991744301926    -0.204732283295955   0.997991744301926    -0.204732283295955   0.004095798900558    60.5360114091204     
7.53296753139999     0.004132648925723    60.7657238867912     0.997988205292485    -0.207041237740894   0.997988205292485    -0.207041237740894   0.004132648925723    60.7657238867912     
7.61795020239419     0.00416997290996     60.9940836981478     0.997984643934978    -0.209376228045416   0.997984643934978    -0.209376228045416   0.00416997290996     60.9940836981478     
7.70389159972555     0.004207776039916    61.22108360861       0.997981060048064    -0.211737547711285   0.997981060048064    -0.211737547711285   0.004207776039916    61.22108360861       
7.79080253920132     0.004246063555127    61.4467167718338     0.997977453448131    -0.214125493547351   0.997977453448131    -0.214125493547351   0.004246063555127    61.4467167718338     
7.87869395864657     0.004284840748738    61.6709767252029     0.997973823949237    -0.216540365706784   0.997973823949237    -0.216540365706784   0.004284840748738    61.6709767252029     
7.96757691928071     0.004324112968224    61.8938573851567     0.99797017136308     -0.21898246772472    0.99797017136308     -0.21898246772472    0.004324112968224    61.8938573851567     
8.05746260710955     0.004363885616136    62.1153530423702     0.997966495498944    -0.221452106556338   0.997966495498944    -0.221452106556338   0.004363885616136    62.1153530423702     
8.14836233433309     0.004404164150838    62.3354583567919     0.99796279616364     -0.223949592615346   0.99796279616364     -0.223949592615346   0.004404164150838    62.3354583567919     
8.24028754076916     0.004444954087263    62.5541683525498     0.997959073161521    -0.22647523981293    0.997959073161521    -0.22647523981293    0.004444954087263    62.5541683525498     
8.33324979529313     0.004486260997677    62.7714784127339     0.997955326294341    -0.229029365597108   0.997955326294341    -0.229029365597108   0.004486260997677    62.7714784127339     
8.42726079729387     0.004528090512446    62.9873842740636     0.997951555361306    -0.23161229099255    0.997951555361306    -0.23161229099255    0.004528090512446    62.9873842740636     
8.5223323781461      0.004570448320815    63.2018820214483     0.997947760158943    -0.234224340640831   0.997947760158943    -0.234224340640831   0.004570448320815    63.2018820214483     
8.61847650269944     0.004613340171699    63.414968082451      0.997943940481116    -0.236865842841147   0.997943940481116    -0.236865842841147   0.004613340171699    63.414968082451      
8.71570527078416     0.004656771874473    63.6266392216617     0.997940096118932    -0.239537129591481   0.997940096118932    -0.239537129591481   0.004656771874473    63.6266392216617     
8.81403091873392     0.00470074929978     63.836892534988      0.99793622686071     -0.242238536630228   0.99793622686071     -0.242238536630228   0.00470074929978     63.836892534988      
8.91346582092582     0.004745278380343    64.0457254438742     0.997932332491927    -0.244970403478302   0.997932332491927    -0.244970403478302   0.004745278380343    64.0457254438742     
9.01402249133762     0.004790365111783    64.2531356894513     0.997928412795151    -0.247733073481695   0.997928412795151    -0.247733073481695   0.004790365111783    64.2531356894513     
9.11571358512272     0.004836015553453    64.4591213266306     0.997924467549997    -0.250526893854536   0.997924467549997    -0.250526893854536   0.004836015553453    64.4591213266306     
9.21855190020276     0.004882235829275    64.663680718145      0.997920496533102    -0.253352215722621   0.997920496533102    -0.253352215722621   0.004882235829275    64.663680718145      
9.32255037887831     0.004929032128583    64.866812528546      0.997916499517989    -0.256209394167426   0.997916499517989    -0.256209394167426   0.004929032128583    64.866812528546      
9.42772210945762     0.004976410706983    65.068515718163      0.997912476275098    -0.259098788270629   0.997912476275098    -0.259098788270629   0.004976410706983    65.068515718163      
9.53408032790382     0.005024377887213    65.2687895370335     0.997908426571647    -0.262020761159118   0.997908426571647    -0.262020761159118   0.005024377887213    65.2687895370335     
9.64163841950069     0.005072940060018    65.4676335188077     0.997904350171643    -0.26497568005052    0.997904350171643    -0.26497568005052    0.005072940060018    65.4676335188077     
9.75040992053717     0.005122103685031    65.665047474635      0.997900246835778    -0.267963916299229   0.997900246835778    -0.267963916299229   0.005122103685031    65.665047474635      
9.86040852001097     0.005171875291662    65.8610314870404     0.997896116321348    -0.270985845442937   0.997896116321348    -0.270985845442937   0.005171875291662    65.8610314870404     
9.9716480613513      0.005222261479994    66.055585903794      0.997891958382239    -0.274041847249729   0.997891958382239    -0.274041847249729   0.005222261479994    66.055585903794      
10.0841425441611     0.005273268921696    66.2487113317798     0.997887772768839    -0.277132305765666   0.997887772768839    -0.277132305765666   0.005273268921696    66.2487113317798     
10.1979061259789     0.005324904360936    66.4404086308707     0.997883559227954    -0.280257609362915   0.997883559227954    -0.280257609362915   0.005324904360936    66.4404086308707     
10.3129531240605     0.005377174615305    66.6306789078139     0.997879317502746    -0.283418150788432   0.997879317502746    -0.283418150788432   0.005377174615305    66.6306789078139     
10.4292980171809     0.005430086576756    66.8195235101303     0.997875047332685    -0.286614327213167   0.997875047332685    -0.286614327213167   0.005430086576756    66.8195235101303     
10.5469554474566     0.005483647212539    67.0069440200366     0.997870748453447    -0.289846540281846   0.997870748453447    -0.289846540281846   0.005483647212539    67.0069440200366     
10.6659402221879     0.005537863566163    67.19294224839       0.997866420596863    -0.293115196163288   0.997866420596863    -0.293115196163288   0.005537863566163    67.19294224839       
10.7862673157228     0.00559274275835     67.3775202286637     0.99786206349082     -0.296420705601305   0.99786206349082     -0.296420705601305   0.00559274275835     67.3775202286637     
10.9079518713413     0.005648291988009    67.5606802109544     0.997857676859196    -0.299763483966163   0.997857676859196    -0.299763483966163   0.005648291988009    67.5606802109544     
11.0310092031616     0.005704518533216    67.7424246560293     0.997853260421808    -0.30314395130663    0.997853260421808    -0.30314395130663    0.005704518533216    67.7424246560293     
11.1554547980668     0.005761429752202    67.9227562294116     0.997848813894283    -0.306562532402587   0.997848813894283    -0.306562532402587   0.005761429752202    67.9227562294116     
11.2813043176542     0.005819033084354    68.1016777955126     0.997844336988002    -0.310019656818247   0.997844336988002    -0.310019656818247   0.005819033084354    68.1016777955126     
11.4085736002068     0.005877336051222    68.2791924118121     0.997839829410027    -0.313515758955982   0.997839829410027    -0.313515758955982   0.005877336051222    68.2791924118121     
11.5372786626855     0.005936346257536    68.4553033230879     0.997835290862965    -0.317051278110698   0.997835290862965    -0.317051278110698   0.005936346257536    68.4553033230879     
11.6674357027461     0.005996071392238    68.6300139557029     0.997830721044969    -0.320626658524914   0.997830721044969    -0.320626658524914   0.005996071392238    68.6300139557029     
11.7990611007768     0.006056519229513    68.8033279119458     0.997826119649565    -0.324242349444354   0.997826119649565    -0.324242349444354   0.006056519229513    68.8033279119458     
11.93217142196       0.006117697629845    68.9752489644344     0.997821486365586    -0.327898805174233   0.997821486365586    -0.327898805174233   0.006117697629845    68.9752489644344     
12.0667834183575     0.006179614541067    69.1457810505793     0.997816820877091    -0.331596485136148   0.997816820877091    -0.331596485136148   0.006179614541067    69.1457810505793     
12.2029140310179     0.006242277999435    69.314928267113      0.997812122863281    -0.335335853925624   0.997812122863281    -0.335335853925624   0.006242277999435    69.314928267113      
12.3405803921094     0.006305696130699    69.4826948646854     0.997807391998344    -0.339117381370256   0.997807391998344    -0.339117381370256   0.006305696130699    69.4826948646854     
12.4797998270756     0.006369877151201    69.6490852425272     0.99780262795144     -0.342941542588584   0.99780262795144     -0.342941542588584   0.006369877151201    69.6490852425272     
12.6205898568158     0.006434829368964    69.8141039431849     0.997797830386519    -0.346808818049543   0.997797830386519    -0.346808818049543   0.006434829368964    69.8141039431849     
12.7629681998903     0.006500561184808    69.977755647327      0.99779299896226     -0.35071969363263    0.99779299896226     -0.35071969363263    0.006500561184808    69.977755647327      
12.90695277475       0.006567081093468    70.1400451686235     0.99778813333195     -0.354674660688734   0.99778813333195     -0.354674660688734   0.006567081093468    70.1400451686235     
13.0525617019918     0.006634397684724    70.3009774487005     0.997783233143395    -0.35867421610164    0.997783233143395    -0.35867421610164    0.006634397684724    70.3009774487005     
13.1998133066387     0.006702519644545    70.4605575521719     0.99777829803878     -0.362718862350237   0.99777829803878     -0.362718862350237   0.006702519644545    70.4605575521719     
13.3487261204464     0.006771455756241    70.6187906617459     0.997773327654574    -0.366809107571389   0.997773327654574    -0.366809107571389   0.006771455756241    70.6187906617459     
13.4993188842353     0.006841214901628    70.7756820734124     0.997768321621402    -0.370945465623554   0.997768321621402    -0.370945465623554   0.006841214901628    70.7756820734124     
13.6516105502491     0.006911806062199    70.9312371917068     0.997763279563957    -0.375128456151091   0.997763279563957    -0.375128456151091   0.006911806062199    70.9312371917068     
13.80562028454       0.00698323832032     71.0854615250551     0.997758201100821    -0.379358604649269   0.997758201100821    -0.379358604649269   0.00698323832032     71.0854615250551     
13.9613674693807     0.00705552086042     71.2383606811988     0.997753085844394    -0.383636442530045   0.997753085844394    -0.383636442530045   0.00705552086042     71.2383606811988     
14.1188717057038     0.007128662970204    71.3899403627002     0.997747933400741    -0.387962507188546   0.997747933400741    -0.387962507188546   0.007128662970204    71.3899403627002     
14.2781528155684     0.007202674041878    71.5402063625289     0.997742743369486    -0.392337342070309   0.997742743369486    -0.392337342070309   0.007202674041878    71.5402063625289     
14.4392308446548     0.00727756357338     71.6891645597302     0.997737515343639    -0.396761496739272   0.997737515343639    -0.396761496739272   0.00727756357338     71.6891645597302     
14.6021260647876     0.007353341169627    71.8368209151739     0.997732248909492    -0.4012355269465     0.997732248909492    -0.4012355269465     0.007353341169627    71.8368209151739     
14.7668589764864     0.007430016543775    71.9831814673863     0.997726943646481    -0.405759994699732   0.997726943646481    -0.405759994699732   0.007430016543775    71.9831814673863     
14.933450311546      0.007507599518488    72.128252328462      0.99772159912704     -0.410335468333663   0.99772159912704     -0.410335468333663   0.007507599518488    72.128252328462      
15.1019210356457     0.007586100027224    72.2720396800591     0.997716214916424    -0.414962522581005   0.997716214916424    -0.414962522581005   0.007586100027224    72.2720396800591     
15.2722923509876     0.00766552811553     72.414549769474      0.997710790572622    -0.419641738644394   0.997710790572622    -0.419641738644394   0.00766552811553     72.414549769474      
15.4445856989652     0.007745893942353    72.5557889057987     0.997705325646175    -0.424373704269049   0.997705325646175    -0.424373704269049   0.007745893942353    72.5557889057987     
15.6188227628614     0.007827207781359    72.6957634561584     0.997699819679984    -0.429159013816246   0.997699819679984    -0.429159013816246   0.007827207781359    72.6957634561584     
15.7950254705779     0.007909480022275    72.8344798420292     0.997694272209238    -0.433998268337664   0.997694272209238    -0.433998268337664   0.007909480022275    72.8344798420292     
15.9732159973943     0.007992721172231    72.9719445356366     0.997688682761168    -0.438892075650495   0.997688682761168    -0.438892075650495   0.007992721172231    72.9719445356366     
16.1534167687593     0.008076941857129    73.1081640564321     0.997683050854937    -0.44384105041343    0.997683050854937    -0.44384105041343    0.008076941857129    73.1081640564321     
16.3356504631128     0.008162152823014    73.2431449676507     0.997677376001437    -0.448845814203491   0.997677376001437    -0.448845814203491   0.008162152823014    73.2431449676507     
16.5199400147399     0.008248364937471    73.3768938729446     0.99767165770316     -0.453906995593722   0.99767165770316     -0.453906995593722   0.008248364937471    73.3768938729446     
16.7063086166573     0.008335589191023    73.5094174130968     0.997665895453961    -0.459025230231715   0.997665895453961    -0.459025230231715   0.008335589191023    73.5094174130968     
16.8947797235324     0.008423836698553    73.6407222628087     0.997660088738939    -0.464201160919068   0.997660088738939    -0.464201160919068   0.008423836698553    73.6407222628087     
17.0853770546346     0.008513118700738    73.7708151275669     0.997654237034202    -0.469435437691688   0.997654237034202    -0.469435437691688   0.008513118700738    73.7708151275669     
17.2781245968208     0.008603446565493    73.8997027405835     0.997648339806731    -0.474728717900984   0.997648339806731    -0.474728717900984   0.008603446565493    73.8997027405835     
17.473046607554      0.008694831789439    74.0273918598115     0.997642396514137    -0.480081666296009   0.997642396514137    -0.480081666296009   0.008694831789439    74.0273918598115     
17.6701676179562     0.008787285999376    74.1538892650339     0.997636406604496    -0.485494955106486   0.997636406604496    -0.485494955106486   0.008787285999376    74.1538892650339     
17.8695124358954     0.008880820953777    74.279201755025      0.997630369516144    -0.490969264126746   0.997630369516144    -0.490969264126746   0.008880820953777    74.279201755025      
18.0711061491082     0.008975448544299    74.403336144785      0.997624284677464    -0.496505280800645   0.997624284677464    -0.496505280800645   0.008975448544299    74.403336144785      
18.2749741283567     0.0090711807973      74.5262992628436     0.997618151506668    -0.502103700307378   0.997618151506668    -0.502103700307378   0.0090711807973      74.5262992628436     
18.4811420306215     0.009168029875386    74.648097948635      0.997611969411614    -0.507765225648302   0.997611969411614    -0.507765225648302   0.009168029875386    74.648097948635      
18.6896358023308     0.00926600807896     74.7687390499409     0.99760573778956     -0.513490567734671   0.99760573778956     -0.513490567734671   0.00926600807896     74.7687390499409     
18.9004816826257     0.009365127847795    74.8882294204022     0.99759945602694     -0.519280445476387   0.99759945602694     -0.519280445476387   0.009365127847795    74.8882294204022     
19.1137062066624     0.009465401762625    75.0065759170963     0.997593123499163    -0.525135585871739   0.997593123499163    -0.525135585871739   0.009465401762625    75.0065759170963     
19.3293362089516     0.009566842546744    75.123785398182      0.99758673957033     -0.531056724098095   0.99758673957033     -0.531056724098095   0.009566842546744    75.123785398182      
19.547398826736      0.00966946306763     75.2398647206068     0.997580303593033    -0.53704460360366    0.997580303593033    -0.53704460360366    0.00966946306763     75.2398647206068     
19.767921503405      0.009773276338578    75.3548207378803     0.997573814908116    -0.543099976200228   0.997573814908116    -0.543099976200228   0.009773276338578    75.3548207378803     
19.9909319919489     0.009878295520363    75.4686602979089     0.997567272844399    -0.549223602156986   0.997567272844399    -0.549223602156986   0.009878295520363    75.4686602979089     
20.2164583584516     0.009984533922903    75.581390240891      0.997560676718421    -0.55541625029528    0.997560676718421    -0.55541625029528    0.009984533922903    75.581390240891      
20.4445289856225     0.010092005006954    75.6930173972748     0.997554025834208    -0.56167869808459    0.997554025834208    -0.56167869808459    0.010092005006954    75.6930173972748     
20.6751725763686     0.010200722385814    75.8035485857738     0.997547319482982    -0.568011731739409   0.997547319482982    -0.568011731739409   0.010200722385814    75.8035485857738     
20.9084181574072     0.010310699827052    75.9129906114405     0.997540556942885    -0.574416146317279   0.997540556942885    -0.574416146317279   0.010310699827052    75.9129906114405     
21.1442950829181     0.010421951254243    76.0213502637974     0.997533737478719    -0.580892745817929   0.997533737478719    -0.580892745817929   0.010421951254243    76.0213502637974     
21.3828330382386     0.010534490748741    76.1286343150253     0.997526860341657    -0.587442343283495   0.997526860341657    -0.587442343283495   0.010534490748741    76.1286343150253     
21.6240620435991     0.010648332551448    76.234849518203      0.997519924768925    -0.594065760899807   0.997519924768925    -0.594065760899807   0.010648332551448    76.234849518203      
21.8680124579012     0.010763491064619    76.3400026056039     0.997512929983553    -0.600763830098853   0.997512929983553    -0.600763830098853   0.010763491064619    76.3400026056039     
22.1147149825385     0.010879980853676    76.4441002870446     0.997505875194004    -0.607537391662405   0.997505875194004    -0.607537391662405   0.010879980853676    76.4441002870446     
22.3642006652602     0.01099781664905     76.5471492482831     0.997498759593928    -0.614387295826723   0.997498759593928    -0.614387295826723   0.01099781664905     76.5471492482831     
22.6165009040786     0.011117013348029    76.649156149469      0.997491582361804    -0.621314402388419   0.997491582361804    -0.621314402388419   0.011117013348029    76.649156149469      
22.8716474512209     0.011237586016644    76.7501276236439     0.997484342660631    -0.628319580811621   0.997484342660631    -0.628319580811621   0.011237586016644    76.7501276236439     
23.1296724171245     0.011359549891553    76.8500702752874     0.997477039637573    -0.635403710336146   0.997477039637573    -0.635403710336146   0.011359549891553    76.8500702752874     
23.3906082744788     0.011482920381967    76.9489906789117     0.997469672423655    -0.642567680086959   0.997469672423655    -0.642567680086959   0.011482920381967    76.9489906789117     
23.6544878623117     0.011607713071581    77.0468953777031     0.997462240133377    -0.649812389184916   0.997462240133377    -0.649812389184916   0.011607713071581    77.0468953777031     
23.9213443901223     0.01173394372053     77.1437908822063     0.997454741864392    -0.657138746858566   0.997454741864392    -0.657138746858566   0.01173394372053     77.1437908822063     
24.1912114420604     0.011861628267367    77.2396836690547     0.997447176697122    -0.664547672557346   0.997447176697122    -0.664547672557346   0.011861628267367    77.2396836690547     
24.4641229811534     0.011990782831064    77.3345801797428     0.997439543694376    -0.672040096065922   0.997439543694376    -0.672040096065922   0.011990782831064    77.3345801797428     
24.74011335358       0.012121423713027    77.4284868194393     0.997431841900996    -0.67961695761983    0.997431841900996    -0.67961695761983    0.012121423713027    77.4284868194393     
25.0192172929934     0.012253567399139    77.5214099558433     0.997424070343455    -0.687279208022454   0.997424070343455    -0.687279208022454   0.012253567399139    77.5214099558433     
25.3014699248918     0.012387230561823    77.6133559180787     0.997416228029463    -0.695027808763173   0.997416228029463    -0.695027808763173   0.012387230561823    77.6133559180787     
25.5869067710396     0.012522430062124    77.7043309956275     0.997408313947564    -0.702863732136914   0.997408313947564    -0.702863732136914   0.012522430062124    77.7043309956275     
25.8755637539376     0.01265918295182     77.7943414373021     0.997400327066691    -0.710787961364983   0.997400327066691    -0.710787961364983   0.01265918295182     77.7943414373021     
26.1674772013439     0.012797506475547    77.8833934502529     0.997392266335813    -0.718801490717259   0.997392266335813    -0.718801490717259   0.012797506475547    77.8833934502529     
26.4626838508456     0.012937418072952    77.9714931990129     0.997384130683406    -0.72690532563565    0.997384130683406    -0.72690532563565    0.012937418072952    77.9714931990129     
26.7612208544828     0.013078935380868    78.0586468045771     0.997375919017083    -0.735100482859038   0.997375919017083    -0.735100482859038   0.013078935380868    78.0586468045771     
27.0631257834234     0.01322207623551     78.144860343515      0.997367630223114    -0.743387990549491   0.997367630223114    -0.743387990549491   0.01322207623551     78.144860343515      
27.3684366326924     0.013366858674698    78.2301398471181     0.997359263165964    -0.75176888841994    0.997359263165964    -0.75176888841994    0.013366858674698    78.2301398471181     
27.6771918259528     0.013513300940102    78.3144913005775     0.997350816687808    -0.760244227863181   0.997350816687808    -0.760244227863181   0.013513300940102    78.3144913005775     
27.9894302203417     0.013661421479506    78.3979206421941     0.997342289608073    -0.768815072082394   0.997342289608073    -0.768815072082394   0.013661421479506    78.3979206421941     
28.3051911113605     0.013811238949107    78.4804337626192     0.997333680722917    -0.777482496223024   0.997333680722917    -0.777482496223024   0.013811238949107    78.4804337626192     
28.62451423782       0.013962772215829    78.5620365041241     0.997324988804727    -0.786247587506108   0.997324988804727    -0.786247587506108   0.013962772215829    78.5620365041241     
28.9474397868419     0.014116040359662    78.6427346598984     0.997316212601619    -0.795111445363136   0.997316212601619    -0.795111445363136   0.014116040359662    78.6427346598984     
29.2740083989162     0.014271062676033    78.7225339733768     0.997307350836894    -0.804075181572306   0.997307350836894    -0.804075181572306   0.014271062676033    78.7225339733768     
29.6042611730157     0.014427858678197    78.8014401375934     0.997298402208485    -0.813139920396357   0.997298402208485    -0.813139920396357   0.014427858678197    78.8014401375934     
29.9382396717688     0.01458644809965     78.8794587945597     0.997289365388424    -0.822306798721804   0.997289365388424    -0.822306798721804   0.01458644809965     78.8794587945597     
30.2759859266898     0.014746850896577    78.956595534672      0.997280239022289    -0.831576966199871   0.997280239022289    -0.831576966199871   0.014746850896577    78.956595534672      
30.6175424434686     0.014909087250317    79.0328558961398     0.997271021728573    -0.840951585388743   0.997271021728573    -0.840951585388743   0.014909087250317    79.0328558961398     
30.9629522073204     0.01507317756986     79.1082453644409     0.997261712098157    -0.850431831897579   0.997261712098157    -0.850431831897579   0.01507317756986     79.1082453644409     
31.3122586883952     0.015239142494368    79.1827693717974     0.997252308693645    -0.860018894531944   0.997252308693645    -0.860018894531944   0.015239142494368    79.1827693717974     
31.6655058472485     0.015407002895723    79.2564332966764     0.997242810048798    -0.869713975440987   0.997242810048798    -0.869713975440987   0.015407002895723    79.2564332966764     
32.0227381403739     0.015576779881098    79.3292424633108     0.997233214667868    -0.879518290266067   0.997233214667868    -0.879518290266067   0.015576779881098    79.3292424633108     
32.3840005257982     0.015748494795569    79.4012021412416     0.997223521024964    -0.889433068291082   0.997223521024964    -0.889433068291082   0.015748494795569    79.4012021412416     
32.7493384687388     0.015922169224733    79.4723175448811     0.99721372756341     -0.899459552594508   0.99721372756341     -0.899459552594508   0.015922169224733    79.4723175448811     
33.1187979473261     0.016097824997375    79.5425938330948     0.997203832695009    -0.909599000202866   0.997203832695009    -0.909599000202866   0.016097824997375    79.5425938330948     
33.4924254583899     0.01627548418815     79.6120361088033     0.997193834799444    -0.919852682246195   0.997193834799444    -0.919852682246195   0.01627548418815     79.6120361088033     
33.8702680233105     0.016455169120294    79.6806494186018     0.997183732223489    -0.930221884114871   0.997183732223489    -0.930221884114871   0.016455169120294    79.6806494186018     
34.2523731939372     0.016636902368375    79.7484387523978     0.997173523280324    -0.940707905618399   0.997173523280324    -0.940707905618399   0.016636902368375    79.7484387523978     
34.6387890585718     0.016820706761054    79.8154090430655     0.997163206248824    -0.951312061145787   0.997163206248824    -0.951312061145787   0.016820706761054    79.8154090430655     
35.0295642480217     0.017006605383894    79.8815651661175     0.997152779372734    -0.962035679827704   0.997152779372734    -0.962035679827704   0.017006605383894    79.8815651661175     
35.4247479417189     0.017194621582188    79.9469119393913     0.997142240859965    -0.97288010570038    0.997142240859965    -0.97288010570038    0.017194621582188    79.9469119393913     
35.8243898739103     0.017384778963815    80.0114541227519     0.997131588881787    -0.983846697871359   0.997131588881787    -0.983846697871359   0.017384778963815    80.0114541227519     
36.2285403399161     0.017577101402135    80.0751964178091     0.997120821571991    -0.994936830686876   0.997120821571991    -0.994936830686876   0.017577101402135    80.0751964178091     
36.6372502024602     0.017771613038907    80.1381434676488     0.99710993702611     -1.00615189390126    0.99710993702611     -1.00615189390126    0.017771613038907    80.1381434676488     
37.0505708980704     0.017968338287239    80.2002998565778     0.99709893330055     -1.01749329284801    0.99709893330055     -1.01749329284801    0.017968338287239    80.2002998565778     
37.4685544435528     0.018167301834571    80.2616701098826     0.997087808411745    -1.02896244861279    0.997087808411745    -1.02896244861279    0.018167301834571    80.2616701098826     
37.8912534425372     0.018368528645687    80.3222586935994     0.997076560335256    -1.04056079820826    0.997076560335256    -1.04056079820826    0.018368528645687    80.3222586935994     
38.318721092098      0.018572043965759    80.3820700142975     0.997065187004899    -1.05228979475084    0.997065187004899    -1.05228979475084    0.018572043965759    80.3820700142975     
38.7510111894486     0.018777873323423    80.4411084188738     0.997053686311786    -1.06415090763927    0.997053686311786    -1.06415090763927    0.018777873323423    80.4411084188738     
39.1881781387124     0.018986042533885    80.4993781943582     0.997042056103431    -1.07614562273526    0.997042056103431    -1.07614562273526    0.018986042533885    80.4993781943582     
39.6302769577691     0.019196577702064    80.5568835677303     0.997030294182738    -1.08827544254593    0.997030294182738    -1.08827544254593    0.019196577702064    80.5568835677303     
40.077363285179      0.019409505225764    80.6136287057454     0.997018398307075    -1.10054188640828    0.997018398307075    -1.10054188640828    0.019409505225764    80.6136287057454     
40.5294933871849     0.019624851798877    80.6696177147712     0.997006366187226    -1.11294649067565    0.997006366187226    -1.11294649067565    0.019624851798877    80.6696177147712     
40.9867241647938     0.019842644414623    80.7248546406333     0.996994195486356    -1.1254908089061     0.996994195486356    -1.1254908089061     0.019842644414623    80.7248546406333     
41.4491131609375     0.020062910368821    80.7793434684696     0.996981883819005    -1.1381764120529     0.996981883819005    -1.1381764120529     0.020062910368821    80.7793434684696     
41.9167185677144     0.020285677263197    80.833088122593      0.996969428749984    -1.15100488865707    0.996969428749984    -1.15100488865707    0.020285677263197    80.833088122593      
42.3895992337133     0.020510973008719    80.8860924663629     0.996956827793261    -1.16397784504179    0.996956827793261    -1.16397784504179    0.020510973008719    80.8860924663629     
42.8678146714194     0.020738825828977    80.9383603020633     0.996944078410895    -1.17709690550915    0.996944078410895    -1.17709690550915    0.020738825828977    80.9383603020633     
43.3514250647042     0.020969264263583    80.9898953707892     0.996931178011832    -1.1903637125388     0.996931178011832    -1.1903637125388     0.020969264263583    80.9898953707892     
43.8404912763992     0.021202317171621    81.0407013523397     0.996918123950728    -1.20377992698877    0.996918123950728    -1.20377992698877    0.021202317171621    81.0407013523397     
44.3350748559562     0.021438013735123    81.090781865116      0.996904913526827    -1.2173472282985     0.996904913526827    -1.2173472282985     0.021438013735123    81.090781865116      
44.8352380471928     0.021676383462579    81.1401404660286     0.996891543982628    -1.23106731469385    0.996891543982628    -1.23106731469385    0.021676383462579    81.1401404660286     
45.3410437961263     0.021917456192492    81.1887806504078     0.996878012502722    -1.2449419033945     0.996878012502722    -1.2449419033945     0.021917456192492    81.1887806504078     
45.8525557588951     0.022161262096958    81.2367058519206     0.996864316212454    -1.25897273082336    0.996864316212454    -1.25897273082336    0.022161262096958    81.2367058519206     
46.3698383097701     0.022407831685288    81.2839194424929     0.99685045217663     -1.27316155281827    0.99685045217663     -1.27316155281827    0.022407831685288    81.2839194424929     
46.8929565492564     0.02265719580767     81.3304247322363     0.9968364173982      -1.28751014484602    0.9968364173982      -1.28751014484602    0.02265719580767     81.3304247322363     
47.421976312286      0.022909385658855    81.3762249693791     0.996822208816838    -1.30202030221841    0.996822208816838    -1.30202030221841    0.022909385658855    81.3762249693791     
47.9569641765033     0.023164432781898    81.4213233402026     0.996807823307592    -1.31669384031079    0.996807823307592    -1.31669384031079    0.023164432781898    81.4213233402026     
48.4979874706439     0.023422369071917    81.4657229689797     0.996793257679425    -1.33153259478279    0.996793257679425    -1.33153259478279    0.023422369071917    81.4657229689797     
49.0451142830082     0.023683226779909    81.5094269179186     0.996778508673753    -1.34653842180143    0.996778508673753    -1.34653842180143    0.023683226779909    81.5094269179186     
49.5984134700301     0.023947038516584    81.552438187109      0.996763572962978    -1.36171319826645    0.996763572962978    -1.36171319826645    0.023947038516584    81.552438187109      
50.1579546649428     0.024213837256254    81.5947597144716     0.996748447148904    -1.37705882203812    0.996748447148904    -1.37705882203812    0.024213837256254    81.5947597144716     
50.7238082865421     0.024483656340751    81.6363943757101     0.996733127761233    -1.39257721216742    0.996733127761233    -1.39257721216742    0.024483656340751    81.6363943757101     
51.2960455480489     0.024756529483386    81.6773449842665     0.996717611255922    -1.40827030912846    0.996717611255922    -1.40827030912846    0.024756529483386    81.6773449842665     
51.8747384660713     0.025032490772946    81.7176142912777     0.996701894013576    -1.42414007505356    0.996701894013576    -1.42414007505356    0.025032490772946    81.7176142912777     
52.4599598696677     0.025311574677732    81.7572049855351     0.996685972337773    -1.44018849397056    0.996685972337773    -1.44018849397056    0.025311574677732    81.7572049855351     
53.0517834095131     0.025593816049635    81.7961196934448     0.996669842453354    -1.4564175720427     0.996669842453354    -1.4564175720427     0.025593816049635    81.7961196934448     
53.6502835671672     0.025879250128251    81.8343609789906     0.996653500504661    -1.47282933781096    0.996653500504661    -1.47282933781096    0.025879250128251    81.8343609789906     
54.2555356644488     0.026167912545035    81.8719313436976     0.996636942553788    -1.48942584243883    0.996636942553788    -1.48942584243883    0.026167912545035    81.8719313436976     
54.8676158729146     0.026459839327502    81.908833226597      0.996620164578719    -1.50620915995972    0.996620164578719    -1.50620915995972    0.026459839327502    81.908833226597      
55.4866012234459     0.026755066903455    81.945069004192      0.996603162471508    -1.52318138752689    0.996603162471508    -1.52318138752689    0.026755066903455    81.945069004192      
56.1125696159424     0.02705363210527     81.980640990424      0.996585932036327    -1.54034464566576    0.996585932036327    -1.54034464566576    0.02705363210527     81.980640990424      
56.7455998291264     0.027355572174204    82.0155514366398     0.996568468987544    -1.55770107852908    0.996568468987544    -1.55770107852908    0.027355572174204    82.0155514366398     
57.3857715304574     0.02766092476476     82.0498025315585     0.996550768947737    -1.5752528541545     0.996550768947737    -1.5752528541545     0.02766092476476     82.0498025315585     
58.0331652861577     0.027969727949083    82.0833964012391     0.996532827445635    -1.59300216472486    0.996532827445635    -1.59300216472486    0.027969727949083    82.0833964012391     
58.6878625713521     0.0282820202214      82.1163351090476     0.996514639914039    -1.61095122683104    0.996514639914039    -1.61095122683104    0.0282820202214      82.1163351090476     
59.3499457803219     0.028597840502503    82.1486206556237     0.996496201687743    -1.6291022817376     0.996496201687743    -1.6291022817376     0.028597840502503    82.1486206556237     
60.0194982368735     0.028917228144272    82.1802549788475     0.99647750800127     -1.64745759565094    0.99647750800127     -1.64745759565094    0.028917228144272    82.1802549788475     
60.6966042048258     0.029240222934242    82.2112399538052     0.99645855398675     -1.66601945999038    0.99645855398675     -1.66601945999038    0.029240222934242    82.2112399538052     
61.3813488986138     0.029566865100206    82.241577392754      0.996439334671565    -1.68479019166167    0.996439334671565    -1.68479019166167    0.029566865100206    82.241577392754      
62.073818494014      0.029897195314872    82.2712690450868     0.996419844976075    -1.70377213333353    0.996419844976075    -1.70377213333353    0.029897195314872    82.2712690450868     
62.7741001389888     0.030231254700547    82.3003165972942     0.996400079711227    -1.72296765371679    0.996400079711227    -1.72296765371679    0.030231254700547    82.3003165972942     
63.4822819646547     0.030569084833878    82.3287216729271     0.996380033576115    -1.74237914784634    0.996380033576115    -1.74237914784634    0.030569084833878    82.3287216729271     
64.1984530963734     0.030910727750627    82.3564858325565     0.996359701155551    -1.76200903736593    0.996359701155551    -1.76200903736593    0.030910727750627    82.3564858325565     
64.9227036649686     0.03125622595049     82.3836105737323     0.996339076917454    -1.78185977081571    0.996339076917454    -1.78185977081571    0.03125622595049     82.3836105737323     
65.6551248180688     0.031605622401959    82.4100973309407     0.99631815521032     -1.80193382392267    0.99631815521032     -1.80193382392267    0.031605622401959    82.4100973309407     
66.3958087315783     0.031958960547233    82.4359474755588     0.996296930260544    -1.82223369989394    0.996296930260544    -1.82223369989394    0.031958960547233    82.4359474755588     
67.1448486212777     0.032316284307161    82.4611623158086     0.996275396169711    -1.84276192971291    0.996275396169711    -1.84276192971291    0.032316284307161    82.4611623158086     
67.9023387545555     0.032677638086237    82.4857430967078     0.996253546911845    -1.86352107243829    0.996253546911845    -1.86352107243829    0.032677638086237    82.4857430967078     
68.6683744622712     0.033043066777636    82.5096910000187     0.996231376330577    -1.88451371550614    0.996231376330577    -1.88451371550614    0.033043066777636    82.5096910000187     
69.4430521507531     0.033412615768293    82.5330071441952     0.99620887813624     -1.90574247503469    0.99620887813624     -1.90574247503469    0.033412615768293    82.5330071441952     
70.226469313931      0.033786330944019    82.5556925843268     0.996186045902927    -1.92720999613217    0.996186045902927    -1.92720999613217    0.033786330944019    82.5556925843268     
71.0187245456061     0.034164258694674    82.5777483120805     0.996162873065452    -1.94891895320769    0.996162873065452    -1.94891895320769    0.034164258694674    82.5777483120805     
71.8199175518589     0.034546445919372    82.5991752556396     0.996139352916297    -1.97087205028497    0.996139352916297    -1.97087205028497    0.034546445919372    82.5991752556396     
72.6301491635974     0.034932940031734    82.6199742796403     0.996115478602426    -1.99307202131921    0.996115478602426    -1.99307202131921    0.034932940031734    82.6199742796403     
73.4495213492469     0.035323788965182    82.640146185105      0.996091243122055    -2.01552163051672    0.996091243122055    -2.01552163051672    0.035323788965182    82.640146185105      
74.2781372275824     0.035719041178278    82.6596917093724     0.996066639321406    -2.03822367265796    0.996066639321406    -2.03822367265796    0.035719041178278    82.6596917093724     
75.1161010807069     0.036118745660106    82.6786115260258     0.996041659891281    -2.06118097342328    0.996041659891281    -2.06118097342328    0.036118745660106    82.6786115260258     
75.9635183671747     0.036522951935697    82.6969062448165     0.996016297363635    -2.08439638972188    0.996016297363635    -2.08439638972188    0.036522951935697    82.6969062448165     
76.8204957352638     0.036931710071499    82.7145764115856     0.995990544108088    -2.10787281002384    0.995990544108088    -2.10787281002384    0.036931710071499    82.7145764115856     
77.6871410363976     0.037345070680883    82.7316225081813     0.995964392328293    -2.13161315469522    0.995964392328293    -2.13161315469522    0.037345070680883    82.7316225081813     
78.5635633387182     0.0377630849297      82.7480449523738     0.995937834058266    -2.15562037633616    0.995937834058266    -2.15562037633616    0.0377630849297      82.7480449523738     
79.4498729408128     0.03818580454188     82.7638440977655     0.995910861158662    -2.17989746012237    0.995910861158662    -2.17989746012237    0.03818580454188     82.7638440977655     
80.3461813855945     0.038613281805064    82.7790202336991     0.995883465312893    -2.20444742414937    0.995883465312893    -2.20444742414937    0.038613281805064    82.7790202336991     
81.2526014743405     0.03904556957629     82.7935735851613     0.995855638023241    -2.22927331978018    0.995855638023241    -2.22927331978018    0.03904556957629     82.7935735851613     
82.1692472808881     0.039482721287715    82.8075043126824     0.995827370606821    -2.25437823199597    0.995827370606821    -2.25437823199597    0.039482721287715    82.8075043126824     
83.0962341659909     0.03992479095238     82.8208125122334     0.995798654191494    -2.27976527974993    0.995798654191494    -2.27976527974993    0.03992479095238     82.8208125122334     
84.0336787918372     0.040371833170016    82.8334982151183     0.995769479711724    -2.3054376163244     0.995769479711724    -2.3054376163244     0.040371833170016    82.8334982151183     
84.9816991367319     0.040823903132889    82.8455613878626     0.995739837904218    -2.33139842969094    0.995739837904218    -2.33139842969094    0.040823903132889    82.8455613878626     
85.9404145099445     0.041281056631692    82.8570019320985     0.995709719303609    -2.35765094287377    0.995709719303609    -2.35765094287377    0.041281056631692    82.8570019320985     
86.909945566724      0.041743350061473    82.8678196844456     0.995679114238007    -2.38419841431644    0.995679114238007    -2.38419841431644    0.041743350061473    82.8678196844456     
87.8904143234835     0.0422108404276      82.8780144163878     0.995648012824384    -2.41104413825146    0.995648012824384    -2.41104413825146    0.0422108404276      82.8780144163878     
88.8819441731559     0.042683585351773    82.8875858341459     0.995616404963933    -2.43819144507334    0.995616404963933    -2.43819144507334    0.042683585351773    82.8875858341459     
89.8846599007237     0.04316164307807     82.8965335785466     0.995584280337313    -2.4656437017148     0.995584280337313    -2.4656437017148     0.04316164307807     82.8965335785466     
90.8986876989226     0.043645072479034    82.9048572248868     0.995551628399768    -2.49340431202608    0.995551628399768    -2.49340431202608    0.043645072479034    82.9048572248868     
91.9241551841231     0.044133933061795    82.9125562827939     0.99551843837615     -2.52147671715757    0.99551843837615     -2.52147671715757    0.044133933061795    82.9125562827939     
92.9611914123917     0.044628284974232    82.9196301960819     0.995484699255853    -2.5498643959456     0.995484699255853    -2.5498643959456     0.044628284974232    82.9196301960819     
94.0099268957318     0.045128189011171    82.9260783426035     0.995450399787574    -2.57857086530143    0.995450399787574    -2.57857086530143    0.045128189011171    82.9260783426035     
95.0704936185096     0.045633706620623    82.9319000340974     0.995415528474082    -2.60759968060352    0.995415528474082    -2.60759968060352    0.045633706620623    82.9319000340974     
96.1430250540642     0.046144899910048    82.9370945160317     0.995380073566711    -2.63695443609283    0.995380073566711    -2.63695443609283    0.046144899910048    82.9370945160317     
97.2276561815049     0.046661831652664    82.9416609674425     0.995344023059894    -2.66663876527165    0.995344023059894    -2.66663876527165    0.046661831652664    82.9416609674425     
98.3245235026992     0.047184565293784    82.9455985007688     0.995307364685453    -2.69665634130516    0.995307364685453    -2.69665634130516    0.047184565293784    82.9455985007688     
99.4337650594511     0.047713164957187    82.9489061616826     0.99527008590683     -2.72701087742656    0.99527008590683     -2.72701087742656    0.047713164957187    82.9489061616826     
100.555520450874     0.048247695451524    82.9515829289143     0.995232173913211    -2.7577061273453     0.995232173913211    -2.7577061273453     0.048247695451524    82.9515829289143     
101.68993085096      0.048788222276749    82.9536277140744     0.995193615613428    -2.78874588565831    0.995193615613428    -2.78874588565831    0.048788222276749    82.9536277140744     
102.837139026344     0.049334811630589    82.9550393614701     0.995154397629865    -2.82013398826458    0.995154397629865    -2.82013398826458    0.049334811630589    82.9550393614701     
103.997289354277     0.049887530415037    82.955816647918      0.995114506292124    -2.85187431278288    0.995114506292124    -2.85187431278288    0.049887530415037    82.955816647918      
105.170527840789     0.05044644624287     82.9559582825522     0.995073927630574    -2.88397077897231    0.995073927630574    -2.88397077897231    0.05044644624287     82.9559582825522     
106.357002139069     0.051011627444203    82.9554629066275     0.995032647369818    -2.91642734915645    0.995032647369818    -2.91642734915645    0.051011627444203    82.9554629066275     
107.556861568044     0.051583143073064    82.9543290933188     0.994990650921963    -2.94924802865021    0.994990650921963    -2.94924802865021    0.051583143073064    82.9543290933188     
108.770257131174     0.052161062913992    82.9525553475156     0.99494792337977     -2.98243686618998    0.99494792337977     -2.98243686618998    0.052161062913992    82.9525553475156     
109.997341535455     0.052745457488657    82.9501401056129     0.994904449509639    -3.01599795436661    0.994904449509639    -3.01599795436661    0.052745457488657    82.9501401056129     
111.238269210634     0.053336398062507    82.947081735296      0.994860213744447    -3.04993543006167    0.994860213744447    -3.04993543006167    0.053336398062507    82.947081735296      
112.493196328651     0.053933956651431    82.9433785353229     0.994815200176292    -3.0842534748866     0.994815200176292    -3.0842534748866     0.053933956651431    82.9433785353229     
113.762280823285     0.054538206028441    82.9390287353006     0.994769392548968    -3.11895631562469    0.994769392548968    -3.11895631562469    0.054538206028441    82.9390287353006     
115.045682410038     0.055149219730369    82.9340304954584     0.994722774250374    -3.15404822467628    0.994722774250374    -3.15404822467628    0.055149219730369    82.9340304954584     
116.343562606229     0.055767072064585    82.9283819064157     0.99467532830475     -3.1895335205066     0.99467532830475     -3.1895335205066     0.055767072064585    82.9283819064157     
117.656084751326     0.056391838115721    82.9220809889464     0.994627037364683    -3.22541656809664    0.994627037364683    -3.22541656809664    0.056391838115721    82.9220809889464     
118.983414027499     0.057023593752411    82.9151256937384     0.994577883703019    -3.2617017793968     0.994577883703019    -3.2617017793968     0.057023593752411    82.9151256937384     
120.32571748041      0.05766241563404     82.9075139011489     0.994527849204593    -3.29839361378336    0.994527849204593    -3.29839361378336    0.05766241563404     82.9075139011489     
121.683164040236     0.058308381217497    82.899243420956      0.994476915357704    -3.33549657851749    0.994476915357704    -3.33549657851749    0.058308381217497    82.899243420956      
123.055924542928     0.058961568763937    82.8903119921053     0.994425063245516    -3.37301522920736    0.994425063245516    -3.37301522920736    0.058961568763937    82.8903119921053     
124.444171751711     0.059622057345543    82.8807172824532     0.99437227353724     -3.41095417027243    0.99437227353724     -3.41095417027243    0.059622057345543    82.8807172824532     
125.848080378827     0.060289926852293    82.8704568885052     0.994318526479086    -3.44931805541074    0.994318526479086    -3.44931805541074    0.060289926852293    82.8704568885052     
127.267827107524     0.060965257998715    82.8595283351514     0.994263801885077    -3.48811158806831    0.994263801885077    -3.48811158806831    0.060965257998715    82.8595283351514     
128.703590614289     0.061648132330653    82.8479290753964     0.994208079127674    -3.52733952191146    0.994208079127674    -3.52733952191146    0.061648132330653    82.8479290753964     
130.155551591335     0.06233863223201     82.835656490087      0.994151337128138    -3.56700666130113    0.994151337128138    -3.56700666130113    0.06233863223201     82.835656490087      
131.623892769343     0.063036840931491    82.8227078876345     0.994093554346806    -3.60711786176996    0.994093554346806    -3.60711786176996    0.063036840931491    82.8227078876345     
133.108798940459     0.063742842509329    82.8090805037343     0.994034708773014    -3.64767803050103    0.994034708773014    -3.64767803050103    0.063742842509329    82.8090805037343     
134.610456981548     0.064456721903997    82.7947715010815     0.993974777914964    -3.68869212680946    0.993974777914964    -3.68869212680946    0.064456721903997    82.7947715010815     
136.129055877715     0.065178564918897    82.7797779690822     0.993913738789242    -3.73016516262557    0.993913738789242    -3.73016516262557    0.065178564918897    82.7797779690822     
137.664786746086     0.065908458229032    82.7640969235627     0.993851567910244    -3.77210220298051    0.993851567910244    -3.77210220298051    0.065908458229032    82.7640969235627     
139.217842859863     0.066646489387651    82.7477253064733     0.993788241279295    -3.81450836649358    0.993788241279295    -3.81450836649358    0.066646489387651    82.7477253064733     
140.788419672649     0.067392746832857    82.7306599855905     0.993723734373538    -3.85738882586112    0.993723734373538    -3.85738882586112    0.067392746832857    82.7306599855905     
142.37671484304      0.068147319894194    82.7128977542153     0.993658022134697    -3.90074880834785    0.993658022134697    -3.90074880834785    0.068147319894194    82.7128977542153     
143.982928259506     0.068910298799187    82.6944353308673     0.993591078957488    -3.94459359627929    0.993591078957488    -3.94459359627929    0.068910298799187    82.6944353308673     
145.607262065547     0.069681774679847    82.6752693589779     0.99352287867784     -3.98892852753569    0.99352287867784     -3.98892852753569    0.069681774679847    82.6752693589779     
147.249920685129     0.070461839579126    82.6553964065781     0.993453394560901    -4.03375899604784    0.993453394560901    -4.03375899604784    0.070461839579126    82.6553964065781     
148.911110848413     0.071250586457329    82.6348129659856     0.993382599288779    -4.07909045229374    0.993382599288779    -4.07909045229374    0.071250586457329    82.6348129659856     
150.591041617777     0.072048109198465    82.6135154534881     0.99331046494798     -4.1249284037965     0.99331046494798     -4.1249284037965     0.072048109198465    82.6135154534881     
152.289924414116     0.072854502616541    82.5915002090237     0.993236963016699    -4.17127841562354    0.993236963016699    -4.17127841562354    0.072854502616541    82.5915002090237     
154.00797304346      0.0736698624618      82.5687634958598     0.993162064351768    -4.21814611088658    0.993162064351768    -4.21814611088658    0.0736698624618      82.5687634958598     
155.745403723876     0.074494285426879    82.5453015002695     0.993085739175353    -4.2655371712422     0.993085739175353    -4.2655371712422     0.074494285426879    82.5453015002695     
157.502435112682     0.075327869152902    82.521110331205      0.993007957061419    -4.31345733739323    0.993007957061419    -4.31345733739323    0.075327869152902    82.521110331205      
159.279288333962     0.076170712235486    82.4961860199703     0.992928686921867    -4.36191240959055    0.992928686921867    -4.36191240959055    0.076170712235486    82.4961860199703     
161.076187006398     0.077022914230674    82.4705245198912     0.992847896992476    -4.41090824813528    0.992847896992476    -4.41090824813528    0.077022914230674    82.4705245198912     
162.893357271411     0.077884575660763    82.444121705984      0.992765554818443    -4.46045077388076    0.992765554818443    -4.46045077388076    0.077884575660763    82.444121705984      
164.73102782162      0.078755798020047    82.4169733746223     0.992681627239774    -4.51054596873508    0.992681627239774    -4.51054596873508    0.078755798020047    82.4169733746223     
166.589429929627     0.079636683780453    82.3890752432038     0.992596080376265    -4.56119987616281    0.992596080376265    -4.56119987616281    0.079636683780453    82.3890752432038     
168.468797477119     0.080527336397065    82.3604229498139     0.992508879612253    -4.61241860168652    0.992508879612253    -4.61241860168652    0.080527336397065    82.3604229498139     
170.369366984303     0.081427860313536    82.331012052891      0.992419989581058    -4.66420831338784    0.992419989581058    -4.66420831338784    0.081427860313536    82.331012052891      
172.291377639674     0.082338360967377    82.3008380308885     0.992329374149093    -4.71657524240746    0.992329374149093    -4.71657524240746    0.082338360967377    82.3008380308885     
174.235071330117     0.083258944795113    82.2698962819385     0.992236996399684    -4.76952568344421    0.992236996399684    -4.76952568344421    0.083258944795113    82.2698962819385     
176.200692671345     0.0841897192373      82.2381821235144     0.992142818616561    -4.82306599525278    0.992142818616561    -4.82306599525278    0.0841897192373      82.2381821235144     
178.188489038689     0.085130792743409    82.2056907920933     0.992046802267068    -4.87720260114015    0.992046802267068    -4.87720260114015    0.085130792743409    82.2056907920933     
180.198710598228     0.086082274776533    82.1724174428189     0.991948907984948    -4.93194198945987    0.991948907984948    -4.93194198945987    0.086082274776533    82.1724174428189     
182.231610338273     0.087044275817965    82.1383571491653     0.991849095552948    -4.98729071410499    0.991849095552948    -4.98729071410499    0.087044275817965    82.1383571491653     
184.287444101205     0.088016907371568    82.1035049026015     0.991747323884921    -5.04325539499785    0.991747323884921    -5.04325539499785    0.088016907371568    82.1035049026015     
186.366470615674     0.089000281968001    82.0678556122563     0.991643551007718    -5.09984271857813    0.991643551007718    -5.09984271857813    0.089000281968001    82.0678556122563     
188.46895152916      0.089994513168739    82.031404104585      0.991537734042686    -5.15705943828787    0.991537734042686    -5.15705943828787    0.089994513168739    82.031404104585      
190.595151440903     0.090999715569895    81.9941451230388     0.991429829186779    -5.214912375053      0.991429829186779    -5.214912375053      0.090999715569895    81.9941451230388     
192.7453379352       0.092016004805837    81.9560733277343     0.99131979169336     -5.27340841776174    0.99131979169336     -5.27340841776174    0.092016004805837    81.9560733277343     
194.919781615082     0.093043497552596    81.9171832951267     0.991207575852644    -5.33255452373948    0.991207575852644    -5.33255452373948    0.093043497552596    81.9171832951267     
197.118756136373     0.094082311531037    81.8774695176851     0.991093134971751    -5.39235771921928    0.991093134971751    -5.39235771921928    0.094082311531037    81.8774695176851     
199.342538242123     0.095132565509791    81.8369264035709     0.990976421354387    -5.45282509980805    0.990976421354387    -5.45282509980805    0.095132565509791    81.8369264035709     
201.591407797443     0.096194379307944    81.7955482763199     0.990857386280153    -5.51396383094783    0.990857386280153    -5.51396383094783    0.096194379307944    81.7955482763199     
203.865647824722     0.097267873797461    81.7533293745273     0.990735979983487    -5.57578114837233    0.990735979983487    -5.57578114837233    0.097267873797461    81.7533293745273     
206.16554453925      0.098353170905339    81.7102638515375     0.990612151632217    -5.63828435855754    0.990612151632217    -5.63828435855754    0.098353170905339    81.7102638515375     
208.491387385232     0.099450393615473    81.6663457751386     0.990485849305712    -5.70148083916684    0.990485849305712    -5.70148083916684    0.099450393615473    81.6663457751386     
210.84346907222      0.100559665970222    81.6215691272611     0.990357019972608    -5.76537803948917    0.990357019972608    -5.76537803948917    0.100559665970222    81.6215691272611     
213.22208561195      0.101681113071675    81.5759278036822     0.990225609468217    -5.82998348087146    0.990225609468217    -5.82998348087146    0.101681113071675    81.5759278036822     
215.627536355595     0.102814861082583    81.5294156137367     0.990091562471453    -5.89530475714282    0.990091562471453    -5.89530475714282    0.102814861082583    81.5294156137367     
218.060124031437     0.103961037226946    81.4820262800325     0.989954822481374    -5.96134953503182    0.989954822481374    -5.96134953503182    0.103961037226946    81.4820262800325     
220.520154782966     0.105119769790279    81.4337534381751     0.989815331793322    -6.02812555457553    0.989815331793322    -6.02812555457553    0.105119769790279    81.4337534381751     
223.007938207413     0.106291188119466    81.3845906364967     0.989673031474645    -6.0956406295199     0.989673031474645    -6.0956406295199     0.106291188119466    81.3845906364967     
225.523787394705     0.107475422622272    81.334531335796      0.989527861339946    -6.16390264771086    0.989527861339946    -6.16390264771086    0.107475422622272    81.334531335796      
228.068018966877     0.108672604766434    81.2835689090829     0.989379759925987    -6.23291957147632    0.989379759925987    -6.23291957147632    0.108672604766434    81.2835689090829     
230.64095311791      0.109882867078349    81.2316966413351     0.989228664466108    -6.30269943799785    0.989228664466108    -6.30269943799785    0.109882867078349    81.2316966413351     
233.242913654034     0.111106343141321    81.1789077292626     0.98907451086419     -6.37325035967125    0.98907451086419     -6.37325035967125    0.111106343141321    81.1789077292626     
235.874228034478     0.112343167593379    81.1251952810815     0.988917233668288    -6.44458052445671    0.988917233668288    -6.44458052445671    0.112343167593379    81.1251952810815     
238.535227412679     0.113593476124605    81.0705523163001     0.988756766043659    -6.51669819621621    0.988756766043659    -6.51669819621621    0.113593476124605    81.0705523163001     
241.226246677961     0.114857405474003    81.0149717655143     0.98859303974549     -6.58961171503914    0.98859303974549     -6.58961171503914    0.114857405474003    81.0149717655143     
243.947624497678     0.116135093425852    80.9584464702167     0.988425985091095    -6.66332949755468    0.988425985091095    -6.66332949755468    0.116135093425852    80.9584464702167     
246.699703359838     0.117426678805539    80.9009691826161     0.988255530931719    -6.73786003723012    0.988255530931719    -6.73786003723012    0.117426678805539    80.9009691826161     
249.482829616204     0.118732301474859    80.8425325654717     0.988081604623793    -6.81321190465539    0.988081604623793    -6.81321190465539    0.118732301474859    80.8425325654717     
252.297353525885     0.120052102326748    80.7831291919407     0.987904131999846    -6.88939374781185    0.987904131999846    -6.88939374781185    0.120052102326748    80.7831291919407     
255.143629299413     0.12138622327943     80.7227515454399     0.987723037338889    -6.96641429232553    0.987723037338889    -6.96641429232553    0.12138622327943     80.7227515454399     
258.022015143324     0.122734807269973    80.6613920195236     0.987538243336332    -7.04428234170393    0.987538243336332    -7.04428234170393    0.122734807269973    80.6613920195236     
260.932873305235     0.124097998247213    80.5990429177761     0.987349671073496    -7.12300677755575    0.987349671073496    -7.12300677755575    0.124097998247213    80.5990429177761     
263.876570119437     0.125475941164026    80.5356964537229     0.987157239986616    -7.20259655979177    0.987157239986616    -7.20259655979177    0.125475941164026    80.5356964537229     
266.853476052997     0.126868781968938    80.4713447507577     0.986960867835351    -7.28306072680741    0.986960867835351    -7.28306072680741    0.126868781968938    80.4713447507577     
269.86396575238      0.128276667597034    80.4059798420894     0.986760470670913    -7.36440839564562    0.986760470670913    -7.36440839564562    0.128276667597034    80.4059798420894     
272.908418090603     0.129699745960144    80.3395936707076     0.98655596280366     -7.44664876213863    0.98655596280366     -7.44664876213863    0.129699745960144    80.3395936707076     
275.98721621491      0.131138165936303    80.2721780893685     0.986347256770228    -7.52979110102913    0.986347256770228    -7.52979110102913    0.131138165936303    80.2721780893685     
279.100747594998     0.132592077358411    80.2037248606017     0.986134263300249    -7.61384476606819    0.986134263300249    -7.61384476606819    0.132592077358411    80.2037248606017     
282.249404071776     0.134061631002127    80.1342256567402     0.985916891282538    -7.69881919009034    0.985916891282538    -7.69881919009034    0.134061631002127    80.1342256567402     
285.433581906681     0.13554697857292     80.0636720599716     0.98569504773088     -7.78472388506431    0.98569504773088     -7.78472388506431    0.13554697857292     80.0636720599716     
288.653681831546     0.137048272692267    79.9920555624154     0.985468637749269    -7.87156844211851    0.985468637749269    -7.87156844211851    0.137048272692267    79.9920555624154     
291.910109099034     0.138565666882991    79.9193675662237     0.985237564496814    -7.95936253154032    0.985237564496814    -7.95936253154032    0.138565666882991    79.9193675662237     
295.20327353364      0.140099315553665    79.845599383709      0.98500172915205     -8.04811590274775    0.98500172915205     -8.04811590274775    0.140099315553665    79.845599383709      
298.533589583264     0.141649373982092    79.7707422374989     0.984761030876902    -8.13783838423304    0.984761030876902    -8.13783838423304    0.141649373982092    79.7707422374989     
301.901476371375     0.143215998297813    79.6947872607188     0.984515366780157    -8.2285398834768     0.984515366780157    -8.2285398834768     0.143215998297813    79.6947872607188     
305.307357749755     0.144799345463611    79.6177254972046     0.984264631880489    -8.32023038683133    0.984264631880489    -8.32023038683133    0.144799345463611    79.6177254972046     
308.751662351839     0.146399573255981    79.5395479017462     0.984008719069039    -8.41291995937169    0.984008719069039    -8.41291995937169    0.146399573255981    79.5395479017462     
312.234823646666     0.148016840244547    79.4602453403614     0.98374751907164     -8.50661874471524    0.98374751907164     -8.50661874471524    0.148016840244547    79.4602453403614     
315.757279993423     0.149651305770358    79.3798085906045     0.983480920410479    -8.60133696480543    0.983480920410479    -8.60133696480543    0.149651305770358    79.3798085906045     
319.31947469662      0.151303129923066    79.2982283419087     0.98320880936546     -8.69708491966028    0.98320880936546     -8.69708491966028    0.151303129923066    79.2982283419087     
322.921856061875     0.152972473516942    79.2154951959634     0.982931069935116    -8.79387298708558    0.982931069935116    -8.79387298708558    0.152972473516942    79.2154951959634     
326.564877452336     0.154659498065661    79.1315996671294     0.98264758379711     -8.89171162234791    0.98264758379711     -8.89171162234791    0.154659498065661    79.1315996671294     
330.24899734574      0.156364365755881    79.0465321828919     0.982358230268357    -8.99061135780977    0.982358230268357    -8.99061135780977    0.156364365755881    79.0465321828919     
333.974679392106     0.158087239419519    78.9602830843532     0.982062886264794    -9.09058280252314    0.982062886264794    -9.09058280252314    0.158087239419519    78.9602830843532     
337.742392472093     0.159828282504723    78.8728426267663     0.98176142626072     -9.19163664178102    0.98176142626072     -9.19163664178102    0.159828282504723    78.8728426267663     
341.552610756004     0.161587659045485    78.7842009801123     0.981453722247852    -9.29378363662494    0.981453722247852    -9.29378363662494    0.161587659045485    78.7842009801123     
345.405813763464     0.163365533629879    78.6943482297197     0.981139643694021    -9.397034623308      0.981139643694021    -9.397034623308      0.163365533629879    78.6943482297197     
349.302486423766     0.165162071366828    78.6032743769316     0.980819057501501    -9.50140051270985    0.980819057501501    -9.50140051270985    0.165162071366828    78.6032743769316     
353.243119136899     0.166977437851443    78.5109693398181     0.980491827965103    -9.60689228970509    0.980491827965103    -9.60689228970509    0.166977437851443    78.5109693398181     
357.22820783527      0.168811799128811    78.4174229539394     0.98015781672993     -9.71352101247979    0.98015781672993     -9.71352101247979    0.168811799128811    78.4174229539394     
361.258254046112     0.170665321656246    78.3226249731572     0.979816882748867    -9.82129781179823    0.979816882748867    -9.82129781179823    0.170665321656246    78.3226249731572     
365.333764954604     0.172538172263938    78.2265650704999     0.979468882239864    -9.93023389021556    0.979468882239864    -9.93023389021556    0.172538172263938    78.2265650704999     
369.455253467703     0.174430518113947    78.1292328390809     0.97911366864291     -10.0403405212353    0.97911366864291     -10.0403405212353    0.174430518113947    78.1292328390809     
373.623238278689     0.176342526657533    78.0306177930721     0.978751092576911    -10.1516290484109    0.978751092576911    -10.1516290484109    0.176342526657533    78.0306177930721     
377.838243932447     0.178274365590724    77.9307093687356     0.97838100179625     -10.2641108843882    0.97838100179625     -10.2641108843882    0.178274365590724    77.9307093687356     
382.10080089148      0.180226202808137    77.8294969255132     0.978003241147328    -10.3777975098881    0.978003241147328    -10.3777975098881    0.180226202808137    77.8294969255132     
386.411445602668     0.182198206354968    77.7269697471781     0.977617652524922    -10.4927004726273    0.977617652524922    -10.4927004726273    0.182198206354968    77.7269697471781     
390.770720564781     0.184190544377094    77.623117043049      0.977224074828387    -10.6088313861738    0.977224074828387    -10.6088313861738    0.184190544377094    77.623117043049      
395.179174396754     0.186203385069292    77.5179279492681     0.976822343917891    -10.7262019287385    0.976822343917891    -10.7262019287385    0.186203385069292    77.5179279492681     
399.637361906727     0.188236896621473    77.4113915301477     0.976412292570558    -10.8448238418971    0.976412292570558    -10.8448238418971    0.188236896621473    77.4113915301477     
404.145844161873     0.190291247162917    77.3034967795831     0.975993750436618    -10.9647089292436    0.975993750436618    -10.9647089292436    0.190291247162917    77.3034967795831     
408.705188559007     0.192366604704448    77.1942326225378     0.975566543995625    -11.085869054971     0.975566543995625    -11.085869054971     0.192366604704448    77.1942326225378     
413.315968895993     0.194463137078495    77.0835879166017     0.975130496512659    -11.2083161423785    0.975130496512659    -11.2083161423785    0.194463137078495    77.0835879166017     
417.978765443957     0.196581011877021    76.9715514536219     0.974685427994792    -11.3320621723029    0.974685427994792    -11.3320621723029    0.196581011877021    76.9715514536219     
422.694165020315     0.198720396387225    76.8581119614133     0.97423115514756     -11.4571191814716    0.97423115514756     -11.4571191814716    0.198720396387225    76.8581119614133     
427.462761062626     0.200881457525003    76.7432581055457     0.973767491331732    -11.5834992607755    0.973767491331732    -11.5834992607755    0.200881457525003    76.7432581055457     
432.285153703273     0.203064361766107    76.6269784912139     0.973294246520286    -11.7112145534597    0.973294246520286    -11.7112145534597    0.203064361766107    76.6269784912139     
437.161949844995     0.205269275074966    76.5092616651899     0.972811227255718    -11.8402772532296    0.972811227255718    -11.8402772532296    0.205269275074966    76.5092616651899     
442.09376323726      0.207496362831075    76.3900961178619     0.972318236607632    -11.9706996022697    0.972318236607632    -11.9706996022697    0.207496362831075    76.3900961178619     
447.081214553514     0.209745789752979    76.2694702853597     0.97181507413081     -12.1024938891742    0.97181507413081     -12.1024938891742    0.209745789752979    76.2694702853597     
452.124931469287     0.212017719819731    76.1473725517713     0.971301535823714    -12.2356724467858    0.971301535823714    -12.2356724467858    0.212017719819731    76.1473725517713     
457.225548741189     0.21431231618982     76.0237912514515     0.970777414087454    -12.3702476499411    0.970777414087454    -12.3702476499411    0.21431231618982     76.0237912514515     
462.383708286793     0.216629741117484    75.8987146714258     0.970242497685385    -12.5062319131192    0.970242497685385    -12.5062319131192    0.216629741117484    75.8987146714258     
467.600059265424     0.218970155866426    75.7721310538892     0.969696571703368    -12.6436376879944    0.969696571703368    -12.6436376879944    0.218970155866426    75.7721310538892     
472.875258159854     0.221333720620793    75.6440285988068     0.969139417510682    -12.7824774608856    0.969139417510682    -12.7824774608856    0.221333720620793    75.6440285988068     
478.209968858923     0.223720594393456    75.5143954666155     0.968570812721707    -12.9227637501041    0.968570812721707    -12.9227637501041    0.223720594393456    75.5143954666155     
483.604862741086     0.226130934931495    75.3832197810276     0.967990531158523    -13.064509103197     0.967990531158523    -13.064509103197     0.226130934931495    75.3832197810276     
489.060618758912     0.228564898618869    75.2504896319436     0.967398342814388    -13.207726094081     0.967398342814388    -13.207726094081     0.228564898618869    75.2504896319436     
494.577923524526     0.231022640376204    75.1161930784723     0.966794013818189    -13.3524273200676    0.966794013818189    -13.3524273200676    0.231022640376204    75.1161930784723     
500.157471396023     0.233504313557697    74.9803181520614     0.966177306400058    -13.498625398776     0.966177306400058    -13.498625398776     0.233504313557697    74.9803181520614     
505.799964564853     0.236010069845035    74.8428528597432     0.965547978858046    -13.64633296493      0.965547978858046    -13.64633296493      0.236010069845035    74.8428528597432     
511.50611314419      0.238540059138352    74.7037851874945     0.96490578552614     -13.7955626670389    0.96490578552614     -13.7955626670389    0.238540059138352    74.7037851874945     
517.276635258305     0.241094429444146    74.5631031037153     0.964250476743578    -13.946327163959     0.964250476743578    -13.946327163959     0.241094429444146    74.5631031037153     
523.112257132939     0.243673326760133    74.4207945628279     0.963581798825613    -14.0986391213326    0.963581798825613    -14.0986391213326    0.243673326760133    74.4207945628279     
529.0137131867       0.246276894956993    74.2768475089985     0.962899494035796    -14.252511207903     0.962899494035796    -14.252511207903     0.246276894956993    74.2768475089985     
534.98174612349      0.248905275657       74.1312498799842     0.962203300559893    -14.4079560917037    0.962203300559893    -14.4079560917037    0.248905275657       74.1312498799842     
541.017107025977     0.251558608109477    73.983989611107      0.961492952481543    -14.5649864361182    0.961492952481543    -14.5649864361182    0.251558608109477    73.983989611107      
547.120555450117     0.254237029063076    73.8350546393566     0.960768179759766    -14.7236148958096    0.960768179759766    -14.7236148958096    0.254237029063076    73.8350546393566     
553.292859520747     0.256940672634826    73.6844329076266     0.960028708208389    -14.8838541125161    0.960028708208389    -14.8838541125161    0.256940672634826    73.6844329076266     
559.534796028251     0.259669670175958    73.5321123690828     0.95927425947752     -15.0457167107121    0.95927425947752     -15.0457167107121    0.259669670175958    73.5321123690828     
565.847150526325     0.262424150134489    73.3780809916673     0.958504551037309    -15.2092152931318    0.958504551037309    -15.2092152931318    0.262424150134489    73.3780809916673     
572.230717430834     0.265204237914499    73.2223267627422     0.957719296163836    -15.3743624361531    0.957719296163836    -15.3743624361531    0.265204237914499    73.2223267627422     
578.686300119793     0.268010055732164    73.0648376938716     0.95691820392754     -15.5411706850397    0.95691820392754     -15.5411706850397    0.268010055732164    73.0648376938716     
585.214711034475     0.270841722468488    72.905601825745      0.956100979184175    -15.7096525490415    0.956100979184175    -15.7096525490415    0.270841722468488    72.905601825745      
591.816771781651     0.273699353518733    72.7446072332456     0.955267322568398    -15.8798204963479    0.955267322568398    -15.8798204963479    0.273699353518733    72.7446072332456     
598.493313236997     0.276583060638556    72.5818420306635     0.954416930490157    -16.0516869488948    0.954416930490157    -16.0516869488948    0.276583060638556    72.5818420306635     
605.245175649657     0.279492951786886    72.4172943770542     0.95354949513411     -16.2252642770245    0.95354949513411     -16.2252642770245    0.279492951786886    72.4172943770542     
612.073208747989     0.282429130965491    72.2509524817476     0.952664704461988    -16.4005647939932    0.952664704461988    -16.4005647939932    0.282429130965491    72.2509524817476     
618.978271846506     0.285391698055293    72.0828046100058     0.951762242218289    -16.5776007503286    0.951762242218289    -16.5776007503286    0.285391698055293    72.0828046100058     
625.961233954019     0.28838074864944     71.9128390888313     0.950841787939262    -16.7563843280333    0.950841787939262    -16.7563843280333    0.28838074864944     71.9128390888313     
633.022973883005     0.291396373883171    71.7410443129295     0.949903016965438    -16.9369276346356    0.949903016965438    -16.9369276346356    0.291396373883171    71.7410443129295     
640.164380360204     0.294438660260485    71.5674087508221     0.948945600457811    -17.119242697084     0.948945600457811    -17.119242697084     0.294438660260485    71.5674087508221     
647.386352138469     0.297507689477665    71.3919209511162     0.947969205417824    -17.3033414554855    0.947969205417824    -17.3033414554855    0.297507689477665    71.3919209511162     
654.689798109873     0.300603538243708    71.2145695489277     0.946973494711332    -17.489235756688     0.946973494711332    -17.489235756688     0.300603538243708    71.2145695489277     
662.075637420093     0.303726278097683    71.0353432724617     0.945958127096632    -17.6769373477037    0.945958127096632    -17.6769373477037    0.303726278097683    71.0353432724617     
669.54479958409      0.306875975223142    70.854230949745      0.9449227572569      -17.8664578689768    0.9449227572569      -17.8664578689768    0.306875975223142    70.854230949745      
677.098224603082     0.310052690259556    70.6712215155193     0.943867035836909    -18.0578088474902    0.943867035836909    -18.0578088474902    0.310052690259556    70.6712215155193     
684.736863082851     0.313256478110915    70.4863040182878     0.942790609484441    -18.2510016897158    0.942790609484441    -18.2510016897158    0.313256478110915    70.4863040182878     
692.461676353373     0.316487387751613    70.2994676275169     0.941693120896509    -18.4460476744074    0.941693120896509    -18.4460476744074    0.316487387751613    70.2994676275169     
700.273636589806     0.319745462029551    70.1107016409961     0.940574208870351    -18.6429579452332    0.940574208870351    -18.6429579452332    0.319745462029551    70.1107016409961     
708.173726934834     0.323030737466759    69.9199954923504     0.939433508359692    -18.8417435032537    0.939433508359692    -18.8417435032537    0.323030737466759    69.9199954923504     
716.162941622403     0.326343244057502    69.7273387587068     0.938270650536186    -19.0424151992427    0.938270650536186    -19.0424151992427    0.326343244057502    69.7273387587068     
724.242286102841     0.329683005064038    69.5327211685144     0.937085262856248    -19.2449837258522    0.937085262856248    -19.2449837258522    0.329683005064038    69.5327211685144     
732.412777169398     0.333050036810149    69.3361326095152     0.935876969133569    -19.4494596096245    0.935876969133569    -19.4494596096245    0.333050036810149    69.3361326095152     
740.675443086207     0.336444348472615    69.137563136864      0.934645389617336    -19.6558532028525    0.934645389617336    -19.6558532028525    0.336444348472615    69.137563136864      
749.031323717699     0.339865941870709    68.937002981396      0.933390141076384    -19.8641746752884    0.933390141076384    -19.8641746752884    0.339865941870709    68.937002981396      
757.481470659461     0.343314811253939    68.7344425580401     0.932110836889442    -20.0744340057059    0.932110836889442    -20.0744340057059    0.343314811253939    68.7344425580401     
766.026947370588     0.346790943088173    68.5298724743736     0.930807087141642    -20.2866409733165    0.930807087141642    -20.2866409733165    0.346790943088173    68.5298724743736     
774.668829307518     0.350294315840326    68.3232835393179     0.929478498727405    -20.500805149043     0.929478498727405    -20.500805149043     0.350294315840326    68.3232835393179     
783.408204059379     0.353824899761823    68.1146667719679     0.928124675459927    -20.7169358866544    0.928124675459927    -20.7169358866544    0.353824899761823    68.1146667719679     
792.246171484862     0.357382656671021    67.9040134105571     0.926745218187398    -20.9350423137651    0.926745218187398    -20.9350423137651    0.357382656671021    67.9040134105571     
801.183843850643     0.360967539734813    67.691314921548      0.925339724916035    -21.1551333227022    0.925339724916035    -21.1551333227022    0.360967539734813    67.691314921548      
810.222345971357     0.364579493249629    67.4765630088491     0.923907790940205    -21.3772175612448    0.923907790940205    -21.3772175612448    0.364579493249629    67.4765630088491     
819.362815351163     0.368218452422117    67.2597496231483     0.922449008979668    -21.6013034232431    0.922449008979668    -21.6013034232431    0.368218452422117    67.2597496231483     
828.606402326896     0.371884343149692    67.0408669713625     0.920962969324146    -21.8273990391173    0.920962969324146    -21.8273990391173    0.371884343149692    67.0408669713625     
837.95427021284      0.375577081801257    66.8199075261949     0.919449259985269    -22.0555122662462    0.919449259985269    -22.0555122662462    0.375577081801257    66.8199075261949     
847.407595447132     0.379296574998384    66.5968640357922     0.917907466856161    -22.28565067925      0.917907466856161    -22.28565067925      0.379296574998384    66.5968640357922     
856.967567739816     0.383042719397206    66.3717295335012     0.916337173878593    -22.5178215601719    0.916337173878593    -22.5178215601719    0.383042719397206    66.3717295335012     
866.635390222571     0.386815401471368    66.1444973477094     0.914737963218013    -22.7520318885708    0.914737963218013    -22.7520318885708    0.386815401471368    66.1444973477094     
876.412279600127     0.390614497296299    65.9151611117707     0.913109415446378    -22.9882883315241    0.913109415446378    -22.9882883315241    0.390614497296299    65.9151611117707     
886.299466303385     0.394439872335175    65.6837147740025     0.911451109732988    -23.2265972335562    0.911451109732988    -23.2265972335562    0.394439872335175    65.6837147740025     
896.298194644273     0.398291381226938    65.4501526077454     0.909762624043395    -23.4669646064974    0.909762624043395    -23.4669646064974    0.398291381226938    65.4501526077454     
906.409722972338     0.402168867576618    65.2144692214831     0.908043535346355    -23.7093961192812    0.908043535346355    -23.7093961192812    0.402168867576618    65.2144692214831     
916.635323833117     0.406072163748453    64.9766595690052     0.906293419829048    -23.9538970876911    0.906293419829048    -23.9538970876911    0.406072163748453    64.9766595690052     
926.976284128282     0.410001090662111    64.7367189596071     0.90451185312045     -24.200472464066     0.90451185312045     -24.200472464066     0.410001090662111    64.7367189596071     
937.4339052776       0.413955457592408    64.4946430683173     0.902698410522998    -24.4491268269743    0.902698410522998    -24.4491268269743    0.413955457592408    64.4946430683173     
948.009503382722     0.417935061972939    64.2504279461387     0.900852667252493    -24.6998643708665    0.900852667252493    -24.6998643708665    0.417935061972939    64.2504279461387     
958.704409392808     0.421939689204045    64.0040700302938     0.898974198686324    -24.9526888957199    0.898974198686324    -24.9526888957199    0.421939689204045    64.0040700302938     
969.519969272033     0.425969112465527    63.7555661544613     0.897062580619919    -25.2076037966852    0.897062580619919    -25.2076037966852    0.425969112465527    63.7555661544613     
980.45754416898      0.430023092534518    63.5049135589931     0.895117389531422    -25.4646120537471    0.895117389531422    -25.4646120537471    0.430023092534518    63.5049135589931     
991.518510587935     0.434101377609006    63.2521099010972     0.893138202854584    -25.7237162214128    0.893138202854584    -25.7237162214128    0.434101377609006    63.2521099010972     
1002.70426056213     0.438203703137426    62.9971532649722     0.891124599259779    -25.9849184184411    0.891124599259779    -25.9849184184411    0.438203703137426    62.9971532649722     
1014.01620182892     0.442329791654792    62.7400421718834     0.889076158942982    -26.2482203176253    0.889076158942982    -26.2482203176253    0.442329791654792    62.7400421718834     
1025.45575800696     0.44647935262586     62.4807755901597     0.886992463922816    -26.5136231356465    0.886992463922816    -26.5136231356465    0.44647935262586     62.4807755901597     
1037.02436877537     0.450652082295742    62.2193529451045     0.884873098345242    -26.7811276230064    0.884873098345242    -26.7811276230064    0.450652082295742    62.2193529451045     
1048.7234900549      0.454847663548543    61.9557741287962     0.882717648796057    -27.0507340540622    0.882717648796057    -27.0507340540622    0.454847663548543    61.9557741287962     
1060.55459419118     0.459065765774428    61.6900395097687     0.880525704620802    -27.3224422171742    0.880525704620802    -27.3224422171742    0.459065765774428    61.6900395097687     
1072.51917014001     0.46330604474565     61.4221499425549     0.878296858252008    -27.5962514049821    0.878296858252008    -27.5962514049821    0.46330604474565     61.4221499425549     
1084.61872365475     0.467568142502039    61.1521067770735     0.876030705543514    -27.872160404829     0.876030705543514    -27.872160404829     0.467568142502039    61.1521067770735     
1096.85477747581     0.471851687246443    60.8799118678439     0.873726846111642    -28.1501674893491    0.873726846111642    -28.1501674893491    0.471851687246443    60.8799118678439     
1109.2288715223      0.476156293250612    60.605567583011      0.871384883682974    -28.4302704072342    0.871384883682974    -28.4302704072342    0.476156293250612    60.605567583011      
1121.7425630858      0.480481560772065    60.3290768131622     0.869004426448446    -28.7124663742016    0.869004426448446    -28.7124663742016    0.480481560772065    60.3290768131622     
1134.39742702641     0.484827075982346    60.0504429799196     0.86658508742337     -28.9967520641731    0.86658508742337     -28.9967520641731    0.484827075982346    60.0504429799196     
1147.19505597089     0.489192410907292    59.7696700442857     0.864126484813179    -29.2831236006932    0.864126484813179    -29.2831236006932    0.489192410907292    59.7696700442857     
1160.13706051311     0.4935771233797      59.4867625147251     0.861628242384428    -29.5715765485972    0.861628242384428    -29.5715765485972    0.4935771233797      59.4867625147251     
1173.22506941674     0.497980757004919    59.2017254549646     0.859089989840665    -29.8621059059519    0.859089989840665    -29.8621059059519    0.497980757004919    59.2017254549646     
1186.46072982027     0.502402841139851    58.9145644914898     0.856511363202854    -30.1547060962866    0.856511363202854    -30.1547060962866    0.502402841139851    58.9145644914898     
1199.84570744424     0.506842890885791    58.6252858207203     0.853892005193735    -30.4493709611329    0.853892005193735    -30.4493709611329    0.506842890885791    58.6252858207203     
1213.38168680091     0.511300407095618    58.3338962158424     0.851231565625831    -30.7460937528947    0.851231565625831    -30.7460937528947    0.511300407095618    58.3338962158424     
1227.07037140628     0.515774876395737    58.0404030332799     0.848529701792461    -31.0448671280652    0.848529701792461    -31.0448671280652    0.515774876395737    58.0404030332799     
1240.91348399441     0.520265771223193    57.744814218785      0.845786078861324    -31.3456831408113    0.845786078861324    -31.3456831408113    0.520265771223193    57.744814218785      
1254.91276673432     0.524772549878453    57.447138313124      0.84300037027007     -31.6485332369467    0.84300037027007     -31.6485332369467    0.524772549878453    57.447138313124      
1269.06998144914     0.529294656594095    57.1473844573466     0.840172258123258    -31.9534082483062    0.840172258123258    -31.9534082483062    0.529294656594095    57.1473844573466     
1283.38690983792     0.533831521619973    56.8455623976079     0.837301433590172    -32.2602983875516    0.837301433590172    -32.2602983875516    0.533831521619973    56.8455623976079     
1297.86535369984     0.538382561325031    56.5416824895343     0.834387597302774    -32.5691932434162    0.834387597302774    -32.5691932434162    0.538382561325031    56.5416824895343     
1312.50713516093     0.542947178316202    56.2357557021066     0.831430459753234    -32.880081776414     0.831430459753234    -32.880081776414     0.542947178316202    56.2357557021066     
1327.31409690343     0.547524761574704    55.9277936210414     0.828429741690323    -33.1929523150329    0.828429741690323    -33.1929523150329    0.547524761574704    55.9277936210414     
1342.28810239767     0.552114686609881    55.6178084516583     0.825385174513925    -33.5077925524204    0.825385174513925    -33.5077925524204    0.552114686609881    55.6178084516583     
1357.4310361366      0.556716315631019    55.3058130212046     0.822296500667106    -33.8245895435946    0.822296500667106    -33.8245895435946    0.556716315631019    55.3058130212046     
1372.74480387294     0.56132899773719     54.9918207806275     0.819163474024785    -34.143329703183     0.819163474024785    -34.143329703183     0.56132899773719     54.9918207806275     
1388.23133285907     0.565952069125386    54.6758458057734     0.815985860278489    -34.4639988037137    0.815985860278489    -34.4639988037137    0.565952069125386    54.6758458057734     
1403.89257208948     0.5705848533171      54.3579027979934     0.812763437316227    -34.7865819744761    0.812763437316227    -34.7865819744761    0.5705848533171      54.3579027979934     
1419.73049254616     0.575226661403396    54.0380070841451     0.809495995596842    -35.1110637009606    0.809495995596842    -35.1110637009606    0.575226661403396    54.0380070841451     
1435.74708744659     0.579876792308597    53.716174615971      0.806183338517923    -35.4374278248959    0.806183338517923    -35.4374278248959    0.579876792308597    53.716174615971      
1451.94437249458     0.584534533072615    53.3924219688372     0.802825282776624    -35.7656575448987    0.802825282776624    -35.7656575448987    0.584534533072615    53.3924219688372     
1468.32438613399     0.589199159151855    53.0667663398232     0.799421658722358    -36.0957354177431    0.799421658722358    -36.0957354177431    0.589199159151855    53.0667663398232     
1484.88918980525     0.59386993473876     52.7392255451413     0.795972310700792    -36.4276433602719    0.795972310700792    -36.4276433602719    0.59386993473876     52.7392255451413     
1501.64086820477     0.598546113099721    52.4098180168853     0.792477097388107    -36.7613626519456    0.792477097388107    -36.7613626519456    0.598546113099721    52.4098180168853     
1518.58152954735     0.603226936931408    52.0785627990814     0.788935892114779    -37.0968739380564    0.788935892114779    -37.0968739380564    0.603226936931408    52.0785627990814     
1535.71330583146     0.607911638735167    51.7454795430456     0.785348583178088    -37.4341572336008    0.785348583178088    -37.4341572336008    0.607911638735167    51.7454795430456     
1553.03835310757     0.612599441209346    51.4105885020293     0.781715074142454    -37.7731919278285    0.781715074142454    -37.7731919278285    0.612599441209346    51.4105885020293     
1570.55885174949     0.617289557659209    51.0739105251481     0.778035284126787    -38.1139567894673    0.778035284126787    -38.1139567894673    0.617289557659209    51.0739105251481     
1588.27700672877     0.621981192424152    50.7354670505863     0.774309148078103    -38.4564299726335    0.774309148078103    -38.4564299726335    0.621981192424152    50.7354670505863     
1606.19504789221     0.626673541321787    50.3952800980734     0.770536617030514    -38.8005890234275    0.770536617030514    -38.8005890234275    0.626673541321787    50.3952800980734     
1624.31523024247     0.631365792108519    50.0533722606234     0.766717658348851    -39.1464108872202    0.766717658348851    -39.1464108872202    0.631365792108519    50.0533722606234     
1642.63983422187     0.636057124956053    49.7097666955425     0.762852255956169    -39.4938719166254    0.762852255956169    -39.4938719166254    0.636057124956053    49.7097666955425     
1661.17116599938     0.640746712943398    49.3644871146947     0.75894041054429     -39.8429478801624    0.75894041054429     -39.8429478801624    0.640746712943398    49.3644871146947     
1679.9115577609      0.645433722563739    49.0175577740296     0.75498213976674     -40.1936139716056    0.75498213976674     -40.1936139716056    0.645433722563739    49.0175577740296     
1698.86336800267     0.650117314245491    48.6690034623791     0.75097747841335     -40.5458448200083    0.75097747841335     -40.5458448200083    0.650117314245491    48.6690034623791     
1718.0289818282      0.654796642887004    48.3188494895139     0.746926478565816    -40.8996145004086    0.746926478565816    -40.8996145004086    0.654796642887004    48.3188494895139     
1737.41081124836     0.659470858404036    47.9671216734775     0.742829209733587    -41.254896545195     0.742829209733587    -41.254896545195     0.659470858404036    47.9671216734775     
1757.01129548497     0.664139106289342    47.6138463271958     0.73868575896945     -41.6116639561325    0.73868575896945     -41.6116639561325    0.664139106289342    47.6138463271958     
1776.83290127776     0.668800528183532    47.2590502443722     0.734496230964275    -41.9698892170333    0.734496230964275    -41.9698892170333    0.668800528183532    47.2590502443722     
1796.87812319483     0.673454262456293    46.9027606846808     0.730260748120358    -42.3295443070549    0.730260748120358    -42.3295443070549    0.673454262456293    46.9027606846808     
1817.14948394656     0.67809944479716     46.5450053582657     0.725979450602818    -42.6906007146179    0.725979450602818    -42.6906007146179    0.67809944479716     46.5450053582657     
1837.64953470316     0.682735208814855    46.1858124095586     0.72165249636868     -43.0530294519206    0.72165249636868     -43.0530294519206    0.682735208814855    46.1858124095586     
1858.38085541567     0.687360686644228    45.8252104004336     0.717280061173186    -43.4168010700318    0.717280061173186    -43.4168010700318    0.687360686644228    45.8252104004336     
1879.34605514066     0.691975009559781    45.4632282927119     0.712862338552975    -43.7818856745415    0.712862338552975    -43.7818856745415    0.691975009559781    45.4632282927119     
1900.54777236864     0.696577308594793    45.099895430034      0.708399539785842    -44.148252941747     0.708399539785842    -44.148252941747     0.696577308594793    45.099895430034      
1921.98867535604     0.701166715164886    44.7352415191224     0.703891893826869    -44.5158721353448    0.703891893826869    -44.5158721353448    0.701166715164886    44.7352415191224     
1943.67146246106     0.705742361695056    44.3692966104496     0.699339647220576    -44.88471212361      0.699339647220576    -44.88471212361      0.705742361695056    44.3692966104496     
1965.59886248324     0.710303382248919    44.0020910783423     0.694743063989173    -45.254741397021     0.694743063989173    -45.254741397021     0.710303382248919    44.0020910783423     
1987.77363500691     0.71484891315915     43.6336556005392     0.690102425496642    -45.6259280863103    0.690102425496642    -45.6259280863103    0.71484891315915     43.6336556005392     
2010.19857074845     0.719378093657917    43.2640211372282     0.685418030288736    -45.9982399809034    0.685418030288736    -45.9982399809034    0.719378093657917    43.2640211372282     
2032.87649190752     0.72389006650613     42.8932189095948     0.680690193908852    -46.3716445477083    0.680690193908852    -46.3716445477083    0.72389006650613     42.8932189095948     
2055.81025252224     0.728383978620349    42.5212803779054     0.675919248689958    -46.7461089502233    0.675919248689958    -46.7461089502233    0.728383978620349    42.5212803779054     
2079.00273882839     0.732858981696176    42.1482372191563     0.671105543522689    -47.1216000679211    0.671105543522689    -47.1216000679211    0.732858981696176    42.1482372191563     
2102.45686962258     0.737314232826913    41.774121304321      0.666249443599797    -47.4980845158678    0.666249443599797    -47.4980845158678    0.737314232826913    41.774121304321      
2126.17559662968     0.741748895116361    41.3989646752241     0.661351330137319    -47.8755286645382    0.661351330137319    -47.8755286645382    0.741748895116361    41.3989646752241     
2150.16190487423     0.746162138284538    41.0227995210772     0.656411600072736    -48.2538986597784    0.656411600072736    -48.2538986597784    0.746162138284538    41.0227995210772     
2174.4188130561      0.750553139265135    40.6456581547132     0.651430665740585    -48.6331604428689    0.651430665740585    -48.6331604428689    0.750553139265135    40.6456581547132     
2198.94937393045     0.754921082793641    40.2675729885458     0.646408954525896    -49.0132797706462    0.646408954525896    -49.0132797706462    0.754921082793641    40.2675729885458     
2223.7566746919      0.759265161984881    39.8885765103005     0.641346908496156    -49.394222235623     0.641346908496156    -49.394222235623     0.759265161984881    39.8885765103005     
2248.84383736302     0.76358457889895     39.5087012585452     0.636244984012125    -49.775953286064     0.636244984012125    -49.775953286064     0.76358457889895     39.5087012585452     
2274.21401918729     0.76787854509441     39.1279797980592     0.631103651318418    -50.1584382459586    0.631103651318418    -50.1584382459586    0.76787854509441     39.1279797980592     
2299.87041302642     0.772146282167654    38.7464446950832     0.625923394114339    -50.5416423348334    0.625923394114339    -50.5416423348334    0.772146282167654    38.7464446950832     
2325.81624776218     0.776387022277488    38.36412849248       0.620704709105815    -50.925530687353     0.620704709105815    -50.925530687353     0.776387022277488    38.36412849248       
2352.05478870274     0.780600008653839    37.9810636848506     0.615448105539197    -51.3100683726436    0.615448105539197    -51.3100683726436    0.780600008653839    37.9810636848506     
2378.58933799363     0.784784496089681    37.5972826936435     0.610154104717823    -51.6952204132778    0.610154104717823    -51.6952204132778    0.784784496089681    37.5972826936435     
2405.42323503334     0.788939751415276    37.2128178422891     0.604823239502131    -52.0809518038655    0.604823239502131    -52.0809518038655    0.788939751415276    37.2128178422891     
2432.55985689352     0.7930650539538      36.8277013314087     0.599456053794377    -52.4672275291734    0.599456053794377    -52.4672275291734    0.7930650539538      36.8277013314087     
2460.00261874406     0.797159695957562    36.4419652141266     0.594053102008861    -52.854012581714     0.594053102008861    -52.854012581714     0.797159695957562    36.4419652141266     
2487.75497428286     0.801222983024042    36.0556413715299     0.588614948528684    -53.2412719787311    0.588614948528684    -53.2412719787311    0.801222983024042    36.0556413715299     
2515.82041617046     0.805254234490999    35.6687614883102     0.583142167150124    -53.6289707785093    0.583142167150124    -53.6289707785093    0.805254234490999    35.6687614883102     
2544.20247646963     0.809252783809994    35.2813570286262     0.577635340515646    -54.0170740959342    0.577635340515646    -54.0170740959342    0.809252783809994    35.2813570286262     
2572.90472708988     0.813217978897692    34.8934592122257     0.572095059536704    -54.4055471172218    0.572095059536704    -54.4055471172218    0.813217978897692    34.8934592122257     
2601.93078023697     0.817149182464408    34.5050989908598     0.56652192280744     -54.794355113741     0.56652192280744     -54.794355113741     0.817149182464408    34.5050989908598     
2631.28428886751     0.821045772319395    34.1163070250262     0.560916536010425    -55.1834634548433    0.560916536010425    -55.1834634548433    0.821045772319395    34.1163070250262     
2660.96894714872     0.824907141652383    33.7271136610795     0.555279511315627    -55.5728376196103    0.555279511315627    -55.5728376196103    0.824907141652383    33.7271136610795     
2690.9884909233      0.828732699291071    33.337548908738      0.549611466773779    -55.9624432074294    0.549611466773779    -55.9624432074294    0.828732699291071    33.337548908738      
2721.34669817961     0.832521869934201    32.9476424190213     0.543913025705282    -56.3522459473027    0.543913025705282    -56.3522459473027    0.832521869934201    32.9476424190213     
2752.04738952715     0.836274094359959    32.557423462653      0.538184816085947    -56.7422117057851    0.538184816085947    -56.7422117057851    0.836274094359959    32.557423462653      
2783.09442867736     0.839988829609529    32.1669209089565     0.532427469930649    -57.1323064934473    0.532427469930649    -57.1323064934473    0.839988829609529    32.1669209089565     
2814.49172292988     0.84366554914569     31.7761632052712     0.526641622676149    -57.5224964697542    0.526641622676149    -57.5224964697542    0.84366554914569     31.7761632052712     
2846.24322366431     0.847303742986318    31.385178356926      0.520827912564267    -57.9127479462316    0.520827912564267    -57.9127479462316    0.847303742986318    31.385178356926      
2878.35292683745     0.850902917812865    30.9939939077857     0.514986980026575    -58.3030273878042    0.514986980026575    -58.3030273878042    0.850902917812865    30.9939939077857     
2910.82487348623     0.854462597053828    30.6026369214044     0.50911946707174     -58.6933014121621    0.50911946707174     -58.6933014121621    0.854462597053828    30.6026369214044     
2943.66315023627     0.857982320943311    30.2111339628076     0.50322601667674     -59.0835367870126    0.50322601667674     -59.0835367870126    0.857982320943311    30.2111339628076     
2976.8718898162      0.861461646554898    29.8195110809221     0.49730727218299     -59.4737004250649    0.49730727218299     -59.4737004250649    0.861461646554898    29.8195110809221     
3010.45527157772     0.864900147811033    29.4277937916793     0.491363876698561    -59.8637593765752    0.491363876698561    -59.8637593765752    0.864900147811033    29.4277937916793     
3044.41752202163     0.868297415468179    29.0360070618117     0.485396472507523    -60.2536808192678    0.485396472507523    -60.2536808192678    0.868297415468179    29.0360070618117     
3078.76291532971     0.871653057078138    28.6441752933552     0.479405700487496    -60.6434320454434    0.479405700487496    -60.6434320454434    0.871653057078138    28.6441752933552     
3113.49577390264     0.874966696925905    28.2523223088794     0.473392199536401    -61.0329804460475    0.473392199536401    -61.0329804460475    0.874966696925905    28.2523223088794     
3148.62046890398     0.878237975944461    27.8604713374582     0.467356606009447    -61.4222934914697    0.467356606009447    -61.4222934914697    0.878237975944461    27.8604713374582     
3184.14142081026     0.881466551607057    27.4686450013938     0.461299553167239    -61.8113387088113    0.461299553167239    -61.8113387088113    0.881466551607057    27.4686450013938     
3220.06309996735     0.88465209779747     27.0768653037061     0.455221670636011    -62.2000836553384    0.455221670636011    -62.2000836553384    0.88465209779747     27.0768653037061     
3256.39002715301     0.887794304658822    26.6851536163984     0.449123583880788    -62.5884958878006    0.449123583880788    -62.5884958878006    0.887794304658822    26.6851536163984     
3293.12677414586     0.890892878421586    26.2935306695062     0.443005913692371    -62.9765429272721    0.443005913692371    -62.9765429272721    0.890892878421586    26.2935306695062     
3330.27796430072     0.893947541211432    25.9020165409359     0.43686927568889     -63.3641922191242    0.43686927568889     -63.3641922191242    0.893947541211432    25.9020165409359     
3367.8482731305      0.896958030837566    25.5106306471022     0.430714279832764    -63.7514110876966    0.430714279832764    -63.7514110876966    0.896958030837566    25.5106306471022     
3405.84242889459     0.899924100562334    25.1193917343626     0.424541529963684    -64.1381666851891    0.424541529963684    -64.1381666851891    0.899924100562334    25.1193917343626     
3444.26521319392     0.90284551885278     24.7283178712565     0.418351623348367    -64.5244259342326    0.418351623348367    -64.5244259342326    0.90284551885278     24.7283178712565     
3483.12146157273     0.905722069114984    24.3374264415457     0.412145150247658    -64.9101554635354    0.412145150247658    -64.9101554635354    0.905722069114984    24.3374264415457     
3522.41606412715     0.90855354941194     23.9467341380583     0.40592269350161     -65.2953215359249    0.40592269350161     -65.2953215359249    0.90855354941194     23.9467341380583     
3562.15396612057     0.911339772165795    23.5562569573329     0.399684828133024    -65.6798899680191    0.399684828133024    -65.6798899680191    0.911339772165795    23.5562569573329     
3602.34016860607     0.914080563845296    23.1660101950619     0.393432120970005    -66.0638260406577    0.393432120970005    -66.0638260406577    0.914080563845296    23.1660101950619     
3642.97972905575     0.916775764639288    22.776008442324      0.387165130287945    -66.4470943991229    0.387165130287945    -66.4470943991229    0.916775764639288    22.776008442324      
3684.07776199727     0.9194252281171      22.3862655826089     0.380884405471374    -66.8296589420216    0.380884405471374    -66.8296589420216    0.9194252281171      22.3862655826089     
3725.63943965748     0.922028820876728    21.9967947896182     0.374590486696041    -67.2114826975785    0.374590486696041    -67.2114826975785    0.922028820876728    21.9967947896182     
3767.66999261336     0.924586422181661    21.6076085258403     0.368283904631561    -67.5925276858878    0.368283904631561    -67.5925276858878    0.924586422181661    21.6076085258403     
3810.1747104503      0.927097923587225    21.2187185418899     0.361965180164951    -67.9727547654725    0.361965180164951    -67.9727547654725    0.927097923587225    21.2187185418899     
3853.1589424278      0.929563228557349    20.8301358765985     0.355634824145297    -68.3521234622684    0.355634824145297    -68.3521234622684    0.929563228557349    20.8301358765985     
3896.62809815265     0.931982252072627    20.4418708578478     0.349293337149805    -68.7305917788558    0.349293337149805    -68.7305917788558    0.931982252072627    20.4418708578478     
3940.5876482598      0.934354920230527    20.0539331041345     0.342941209271457    -69.108115981442     0.342941209271457    -69.108115981442     0.934354920230527    20.0539331041345     
3985.04312510076     0.936681169838652    19.6663315268533     0.336578919928463    -69.4846503617072    0.336578919928463    -69.4846503617072    0.936681169838652    19.6663315268533     
4030.00012343992     0.938960948001892    19.2790743332818     0.33020693769565     -69.8601469701798    0.33020693769565     -69.8601469701798    0.938960948001892    19.2790743332818     
4075.46430115863     0.941194211704349    18.8921690302582     0.323825720158026    -70.2345553172617    0.323825720158026    -70.2345553172617    0.941194211704349    18.8921690302582     
4121.44137996726     0.943380927386832    18.5056224285349     0.31743571378659     -70.6078220373962    0.31743571378659     -70.6078220373962    0.943380927386832    18.5056224285349     
4167.93714612524     0.945521070520816    18.1194406477907     0.311037353836602    -70.9798905111175    0.311037353836602    -70.9798905111175    0.945521070520816    18.1194406477907     
4214.95745116933     0.947614625179622    17.7336291222889     0.304631064268493    -71.3507004388205    0.304631064268493    -71.3507004388205    0.947614625179622    17.7336291222889     
4262.50821265001     0.949661583607659    17.3481926071651     0.298217257691572    -71.7201873590142    0.298217257691572    -71.7201873590142    0.949661583607659    17.3481926071651     
4310.59541487619     0.951661945788489    16.9631351853247     0.291796335330777    -72.0882821025423    0.291796335330777    -72.0882821025423    0.951661945788489    16.9631351853247     
4359.22510966839     0.953615719012494    16.5784602749388     0.285368687016755    -72.4549101726882    0.285368687016755    -72.4549101726882    0.953615719012494    16.5784602749388     
4408.40341712032     0.955522917444887    16.1941706375153     0.278934691199613    -72.8199910392185    0.278934691199613    -72.8199910392185    0.955522917444887    16.1941706375153     
4458.13652636913     0.95738356169479     15.8102683865333     0.272494714986779    -73.18343733213      0.272494714986779    -73.18343733213      0.95738356169479     15.8102683865333     
4508.4306963743      0.959197678386091    15.4267549966199     0.266049114205513    -73.5451539180869    0.266049114205513    -73.5451539180869    0.959197678386091    15.4267549966199     
4559.29225670535     0.960965299730755    15.0436313132533     0.259598233490795    -73.905036839134     0.259598233490795    -73.905036839134     0.960965299730755    15.0436313132533     
4610.72760833842     0.962686463105263    14.6608975629745     0.253142406399477    -74.2629720890737    0.253142406399477    -74.2629720890737    0.962686463105263    14.6608975629745     
4662.74322446181     0.964361210630805    14.2785533640891     0.246681955551835    -74.6188341977158    0.246681955551835    -74.6188341977158    0.964361210630805    14.2785533640891     
4715.3456512907      0.965989588757854    13.8965977378437     0.240217192801988    -74.9724845867623    0.240217192801988    -74.9724845867623    0.965989588757854    13.8965977378437     
4768.54150889094     0.967571647855704    13.5150291200566     0.233748419439003    -75.3237696530361    0.233748419439003    -75.3237696530361    0.967571647855704    13.5150291200566     
4822.33749201221     0.969107441807549    13.1338453731885     0.227275926421081    -75.6725185246351    0.227275926421081    -75.6725185246351    0.969107441807549    13.1338453731885     
4876.74037093057     0.970597027611651    12.7530437988328     0.220799994645735    -76.0185404227939    0.220799994645735    -76.0185404227939    0.970597027611651    12.7530437988328     
4931.75699230049     0.972040464989106    12.3726211506115     0.214320895259847    -76.3616215459361    0.214320895259847    -76.3616215459361    0.972040464989106    12.3726211506115     
4987.39428001652     0.973437815998726    11.9925736474574     0.207838890014363    -76.7015213715315    0.207838890014363    -76.7015213715315    0.973437815998726    11.9925736474574     
5043.65923608467     0.974789144659502    11.6128969872684     0.201354231669935    -77.0379682444432    0.201354231669935    -77.0379682444432    0.974789144659502    11.6128969872684     
5100.5589415036      0.976094516581103    11.2335863609152     0.194867164461388    -77.3706540854486    0.194867164461388    -77.3706540854486    0.976094516581103    11.2335863609152     
5158.1005571558      0.977353998602842    10.8546364665881     0.18837792463142     -77.6992280077701    0.18837792463142     -77.6992280077701    0.977353998602842    10.8546364665881     
5216.29132470877     0.978567658441532    10.4760415244659     0.181886741046833    -78.0232885688779    0.181886741046833    -78.0232885688779    0.978567658441532    10.4760415244659     
5275.13856752641     0.979735564348591    10.0977952916945     0.175393835914846    -78.3423743040904    0.175393835914846    -78.3423743040904    0.979735564348591    10.0977952916945     
5334.64969159063     0.980857784776792    9.71989107765496     0.168899425622433    -78.6559520798543    0.168899425622433    -78.6559520798543    0.980857784776792    9.71989107765496     
5394.83218643347     0.981934388056992    9.34232175951108     0.162403721729249    -78.9634026568906    0.162403721729249    -78.9634026568906    0.981934388056992    9.34232175951108     
5455.69362607961     0.98296544208516     8.96507979802014     0.155906932154959    -79.2640026504137    0.155906932154959    -79.2640026504137    0.98296544208516     8.96507979802014     
5517.24166999956     0.983951014020021    8.5881572535937      0.14940926261619     -79.5569017923834    0.14940926261619     -79.5569017923834    0.983951014020021    8.5881572535937      
5579.4840640737      0.984891169991604    8.21154580259258     0.142910918388527    -79.8410940033096    0.142910918388527    -79.8410940033096    0.984891169991604    8.21154580259258     
5642.42864156698     0.985785974820944    7.83523675384718     0.136412106497912    -80.115380213788     0.136412106497912    -80.115380213788     0.985785974820944    7.83523675384718     
5706.08332411483     0.986635491751231    7.45922106538532     0.129913038487644    -80.3783200540782    0.129913038487644    -80.3783200540782    0.986635491751231    7.45922106538532     
5770.45612272009     0.987439782190599    7.08348936135934     0.123413933968856    -80.6281683201495    0.123413933968856    -80.6281683201495    0.987439782190599    7.08348936135934     
5835.55513876117     0.988198905466792    6.70803194915751     0.116915025254837    -80.8627903121533    0.116915025254837    -80.8627903121533    0.988198905466792    6.70803194915751     
5901.38856501168     0.988912918593924    6.33283883668927     0.110416563520752    -81.0795473735128    0.110416563520752    -81.0795473735128    0.988912918593924    6.33283883668927     
5967.96468667142     0.989581876051494    5.95789974983389     0.103918827150913    -81.2751396421646    0.103918827150913    -81.2751396421646    0.989581876051494    5.95789974983389     
6035.29188240913     0.990205829575861    5.58320415003915     0.097422133287902    -81.4453861342367    0.097422133287902    -81.4453861342367    0.990205829575861    5.58320415003915     
6103.37862541696     0.99078482796431     5.20874125206115     0.090926854175804    -81.584910989904     0.090926854175804    -81.584910989904     0.99078482796431     5.20874125206115     
6172.23348447679     0.991318916891885    4.83450004183473     0.08443344086551     -81.6866856680732    0.08443344086551     -81.6866856680732    0.991318916891885    4.83450004183473     
6241.86512503866     0.991808138741104    4.46046929446352     0.07794245855318     -81.7413436901214    0.07794245855318     -81.7413436901214    0.991808138741104    4.46046929446352     
6312.2823103113      0.99225253244469     4.08663759232147     0.071454640909034    -81.7361245114115    0.071454640909034    -81.7361245114115    0.99225253244469     4.08663759232147     
6383.49390236498     0.992652133341436    3.71299334325401     0.064970976591278    -81.6531898270638    0.064970976591278    -81.6531898270638    0.992652133341436    3.71299334325401     
6455.50886324685     0.993006973045286    3.33952479887221     0.058492852747432    -81.466831066438     0.058492852747432    -81.466831066438     0.993006973045286    3.33952479887221     
6528.33625610879     0.993317079327743    2.96622007292871     0.052022304776956    -81.1386152574785    0.052022304776956    -81.1386152574785    0.993317079327743    2.96622007292871     
6601.985246348       0.993582476013687    2.59306715976835     0.045562476954367    -80.608455911539     0.045562476954367    -80.608455911539     0.993582476013687    2.59306715976835     
6676.46510276054     0.99380318289065     2.22005395284361     0.039118534659645    -79.7770048892161    0.039118534659645    -79.7770048892161    0.99380318289065     2.22005395284361     
6751.78519870773     0.993979215631641    1.84716826328738     0.032699641214946    -78.4677540838376    0.032699641214946    -78.4677540838376    0.993979215631641    1.84716826328738     
6827.95501329588     0.994110585731559    1.47439783853381     0.026323776695055    -76.3356904691324    0.026323776695055    -76.3356904691324    0.994110585731559    1.47439783853381     
6904.98413256919     0.994197300457236    1.10173038098001     0.020031527160088    -72.6112365560013    0.020031527160088    -72.6112365560013    0.994197300457236    1.10173038098001     
6982.88225071616     0.994239362811166    0.72915356667984     0.013935716860334    -65.2191052447444    0.013935716860334    -65.2191052447444    0.994239362811166    0.72915356667984     
7061.65917128966     0.994236771508922    0.356655064062398    0.00846992106334     -46.9443060589588    0.00846992106334     -46.9443060589588    0.994236771508922    0.356655064062398    
7141.32480844067     0.994189520970309    -0.015777447333668   0.005816962585068    2.69755371929237     0.005816962585068    2.69755371929237     0.994189520970309    -0.015777447333668   
7221.88918816602     0.994097601324235    -0.388156258116965   0.008970089883624    48.6580152596524     0.008970089883624    48.6580152596524     0.994097601324235    -0.388156258116965   
7303.36244957013     0.993960998427347    -0.760493610299907   0.014545744763107    65.090112740981      0.014545744763107    65.090112740981      0.993960998427347    -0.760493610299907   
7385.75484614109     0.993779693896377    -1.13280167856267    0.020667491456255    71.9185772755693     0.020667491456255    71.9185772755693     0.993779693896377    -1.13280167856267    
7469.07674704098     0.993553665154227    -1.5050925515328     0.026965133851395    75.4174937068366     0.026965133851395    75.4174937068366     0.993553665154227    -1.5050925515328     
7553.33863841094     0.993282885489756    -1.87737821308848    0.033338438325971    77.4392229901719     0.033338438325971    77.4392229901719     0.993282885489756    -1.87737821308848    
7638.55112469077     0.992967324131245    -2.24967052369328    0.039750394429149    78.6866869416469     0.039750394429149    78.6866869416469     0.992967324131245    -2.24967052369328    
7724.72492995359     0.99260694633349     -2.62198120177249    0.046184321153797    79.4800683035889     0.046184321153797    79.4800683035889     0.99260694633349     -2.62198120177249    
7811.8708992554      0.992201713478502    -2.99432180513627    0.052631611288392    79.9850326407905     0.052631611288392    79.9850326407905     0.992201713478502    -2.99432180513627    
7900.00000000001     0.991751583189735    -3.36670371246161    0.059087365468854    80.2956090815259     0.059087365468854    80.2956090815259     0.991751583189735    -3.36670371246161    
