# MHz S MA R 50      
!Freq                MagS11               AngS11               MagS21               AngS21               MagS12               AngS12               MagS22               AngS22               
1                    0.007481316423796    42.282479852599      0.994477783983439    -0.289991035858477   0.994477783983439    -0.289991035858477   0.007481316423796    42.282479852599      
1.00972279269421     0.007519384213073    42.5224800878076     0.994471108261767    -0.2928086189726     0.994471108261767    -0.2928086189726     0.007519384213073    42.5224800878076     
1.0195401180862      0.007557934454364    42.7624873390678     0.994464396602279    -0.295653567832595   0.994464396602279    -0.295653567832595   0.007557934454364    42.7624873390678     
1.02945289529779     0.007596972534906    43.0024834487417     0.994457648760376    -0.298526148065439   0.994457648760376    -0.298526148065439   0.007596972534906    43.0024834487417     
1.03946205238722     0.007636503883835    43.2424502590614     0.994450864488862    -0.301426627873646   0.994450864488862    -0.301426627873646   0.007636503883835    43.2424502590614     
1.04956852643609     0.007676533972383    43.4823696186831     0.994444043537988    -0.304355278060201   0.994444043537988    -0.304355278060201   0.007676533972383    43.4823696186831     
1.05977326363699     0.007717068314085    43.7222233892368     0.99443718565533     -0.307312372053711   0.99443718565533     -0.307312372053711   0.007717068314085    43.7222233892368     
1.07007721938221     0.007758112464993    43.9619934518548     0.994430290585771    -0.310298185933797   0.994430290585771    -0.310298185933797   0.007758112464993    43.9619934518548     
1.08048135835306     0.007799672023893    44.2016617136842     0.994423358071494    -0.313312998456766   0.994423358071494    -0.313312998456766   0.007799672023893    44.2016617136842     
1.09098665461029     0.007841752632536    44.4412101143691     0.994416387851899    -0.316357091081488   0.994416387851899    -0.316357091081488   0.007841752632536    44.4412101143691     
1.10159409168521     0.007884359975868    44.6806206325008     0.994409379663562    -0.319430747995529   0.994409379663562    -0.319430747995529   0.007884359975868    44.6806206325008     
1.11230466267184     0.007927499782276    44.9198752920305     0.994402333240225    -0.32253425614158    0.994402333240225    -0.32253425614158    0.007927499782276    44.9198752920305     
1.1231193703198      0.007971177823837    45.158956168637      0.994395248312714    -0.325667905244067   0.994395248312714    -0.325667905244067   0.007971177823837    45.158956168637      
1.13403922712828     0.008015399916575    45.3978453960442     0.994388124608908    -0.328831987836085   0.994388124608908    -0.328831987836085   0.008015399916575    45.3978453960442     
1.14506525544075     0.008060171920733    45.6365251722851     0.994380961853706    -0.332026799286547   0.994380961853706    -0.332026799286547   0.008060171920733    45.6365251722851     
1.15619848754075     0.00810549974104     45.8749777659028     0.994373759768948    -0.335252637827615   0.994373759768948    -0.335252637827615   0.00810549974104     45.8749777659028     
1.16743996574847     0.008151389327003    46.113185522088      0.994366518073411    -0.33850980458239    0.994366518073411    -0.33850980458239    0.008151389327003    46.113185522088      
1.17879074251838     0.008197846673195    46.3511308687439     0.994359236482703    -0.341798603592865   0.994359236482703    -0.341798603592865   0.008197846673195    46.3511308687439     
1.19025188053774     0.008244877819556    46.5887963224746     0.994351914709272    -0.34511934184815    0.994351914709272    -0.34511934184815    0.008244877819556    46.5887963224746     
1.20182445282611     0.008292488851708    46.8261644944935     0.994344552462315    -0.348472329312966   0.994344552462315    -0.348472329312966   0.008292488851708    46.8261644944935     
1.21350954283577     0.008340685901273    47.0632180964453     0.994337149447759    -0.351857878956426   0.994337149447759    -0.351857878956426   0.008340685901273    47.0632180964453     
1.22530824455321     0.008389475146202    47.2999399461366     0.994329705368156    -0.355276306781064   0.994329705368156    -0.355276306781064   0.008389475146202    47.2999399461366     
1.23722166260151     0.008438862811115    47.5363129731719     0.994322219922682    -0.358727931852171   0.994322219922682    -0.358727931852171   0.008438862811115    47.5363129731719     
1.24925091234378     0.00848885516765     47.7723202244898     0.994314692807074    -0.362213076327409   0.994314692807074    -0.362213076327409   0.00848885516765     47.7723202244898     
1.26139711998755     0.008539458534822    48.007944869795      0.994307123713532    -0.36573206548668    0.994307123713532    -0.36573206548668    0.008539458534822    48.007944869795      
1.27366142269027     0.008590679279394    48.2431702068833     0.994299512330731    -0.369285227762335   0.994299512330731    -0.369285227762335   0.008590679279394    48.2431702068833     
1.2860449686657      0.008642523816252    48.4779796668526     0.994291858343688    -0.372872894769618   0.994291858343688    -0.372872894769618   0.008642523816252    48.4779796668526     
1.29854891729147     0.008694998608799    48.7123568192008     0.994284161433783    -0.376495401337446   0.994284161433783    -0.376495401337446   0.008694998608799    48.7123568192008     
1.31117443921759     0.008748110169351    48.9462853768025     0.994276421278614    -0.380153085539447   0.994276421278614    -0.380153085539447   0.008748110169351    48.9462853768025     
1.32392271647606     0.008801865059548    49.179749200764      0.994268637552006    -0.383846288725331   0.994268637552006    -0.383846288725331   0.008801865059548    49.179749200764      
1.33679494259151     0.00885626989078     49.4127323051523     0.994260809923922    -0.387575355552553   0.994260809923922    -0.387575355552553   0.00885626989078     49.4127323051523     
1.349792322693       0.00891133132461     49.6452188615946     0.99425293806039     -0.391340634018239   0.99425293806039     -0.391340634018239   0.00891133132461     49.6452188615946     
1.36291607362678     0.008967056073223    49.8771932037473     0.99424502162346     -0.395142475491491   0.99424502162346     -0.395142475491491   0.008967056073223    49.8771932037473     
1.37616742407027     0.009023450899876    50.1086398316305     0.994237060271119    -0.398981234745946   0.994237060271119    -0.398981234745946   0.009023450899876    50.1086398316305     
1.38954761464703     0.009080522619364    50.3395434158237     0.994229053657224    -0.402857269992657   0.994229053657224    -0.402857269992657   0.009080522619364    50.3395434158237     
1.40305789804298     0.009138278098492    50.5698888015255     0.994221001431467    -0.406770942913321   0.994221001431467    -0.406770942913321   0.009138278098492    50.5698888015255     
1.41669953912363     0.009196724256567    50.7996610124698     0.994212903239248    -0.41072261869377    0.994212903239248    -0.41072261869377    0.009196724256567    50.7996610124698     
1.43047381505252     0.009255868065887    51.0288452547005     0.994204758721683    -0.41471266605786    0.994204758721683    -0.41471266605786    0.009255868065887    51.0288452547005     
1.44438201541077     0.009315716552255    51.257426920201      0.994196567515437    -0.418741457301578   0.994196567515437    -0.418741457301578   0.009315716552255    51.257426920201      
1.45842544231786     0.0093762767955      51.4853915903771     0.994188329252734    -0.422809368327595   0.994188329252734    -0.422809368327595   0.0093762767955      51.4853915903771     
1.47260541055348     0.009437555930001    51.7127250393942     0.994180043561244    -0.42691677868008    0.994180043561244    -0.42691677868008    0.009437555930001    51.7127250393942     
1.48692324768067     0.009499561145236    51.9394132373629     0.99417171006399     -0.431064071579813   0.99417171006399     -0.431064071579813   0.009499561145236    51.9394132373629     
1.50138029417008     0.009562299686331    52.1654423533799     0.994163328379311    -0.435251633959756   0.994163328379311    -0.435251633959756   0.009562299686331    52.1654423533799     
1.51597790352547     0.009625778854626    52.3907987584142     0.994154898120781    -0.439479856500851   0.994154898120781    -0.439479856500851   0.009625778854626    52.3907987584142     
1.53071744241045     0.009690006008254    52.6154690280453     0.994146418897064    -0.443749133668177   0.994146418897064    -0.443749133668177   0.009690006008254    52.6154690280453     
1.54560029077643     0.009754988562723    52.8394399450502     0.994137890311932    -0.448059863747533   0.994137890311932    -0.448059863747533   0.009754988562723    52.8394399450502     
1.56062784199176     0.009820733991517    53.0626985018394     0.994129311964093    -0.452412448882265   0.994129311964093    -0.452412448882265   0.009820733991517    53.0626985018394     
1.57580150297226     0.00988724982671     53.2852319027409     0.994120683447172    -0.456807295110532   0.994120683447172    -0.456807295110532   0.00988724982671     53.2852319027409     
1.59112269431289     0.009954543659582    53.5070275661348     0.994112004349566    -0.461244812402855   0.994112004349566    -0.461244812402855   0.009954543659582    53.5070275661348     
1.60659285042075     0.010022623141253    53.7280731264365     0.994103274254396    -0.465725414700085   0.994103274254396    -0.465725414700085   0.010022623141253    53.7280731264365     
1.6222134196494      0.010091495983332    53.9483564359311     0.994094492739425    -0.470249519951724   0.994094492739425    -0.470249519951724   0.010091495983332    53.9483564359311     
1.63798586443442     0.010161169958568    54.1678655664574     0.994085659376918    -0.47481755015456    0.994085659376918    -0.47481755015456    0.010161169958568    54.1678655664574     
1.65391166143037     0.010231652901517    54.3865888109446     0.994076773733615    -0.479429931391747   0.994076773733615    -0.479429931391747   0.010231652901517    54.3865888109446     
1.66999230164899     0.010302952709223    54.6045146848015     0.994067835370561    -0.484087093872192   0.994067835370561    -0.484087093872192   0.010302952709223    54.6045146848015     
1.68622929059886     0.010375077341907    54.82163192716       0.994058843843062    -0.488789471970366   0.994058843843062    -0.488789471970366   0.010375077341907    54.82163192716       
1.70262414842626     0.010448034823667    55.0379295019733     0.994049798700603    -0.493537504266495   0.994049798700603    -0.493537504266495   0.010448034823667    55.0379295019733     
1.71917841005757     0.010521833243191    55.2533965989711     0.99404069948666     -0.498331633587056   0.99404069948666     -0.498331633587056   0.010521833243191    55.2533965989711     
1.73589362534293     0.010596480754481    55.4680226344741     0.994031545738706    -0.503172307045797   0.994031545738706    -0.503172307045797   0.010596480754481    55.4680226344741     
1.75277135920134     0.010671985577586    55.6817972520672     0.994022336988031    -0.508059976085016   0.994022336988031    -0.508059976085016   0.010671985577586    55.6817972520672     
1.76981319176721     0.01074835599935     55.8947103231353     0.994013072759663    -0.512995096517307   0.994013072759663    -0.512995096517307   0.01074835599935     55.8947103231353     
1.78702071853824     0.010825600374168    56.1067519472635     0.994003752572264    -0.517978128567707   0.994003752572264    -0.517978128567707   0.010825600374168    56.1067519472635     
1.80439555052485     0.010903727124755    56.3179124525033     0.993994375938002    -0.523009536916186   0.993994375938002    -0.523009536916186   0.010903727124755    56.3179124525033     
1.82193931440097     0.010982744742925    56.5281823955057     0.993984942362461    -0.52808979074062    0.993984942362461    -0.52808979074062    0.010982744742925    56.5281823955057     
1.83965365265632     0.011062661790379    56.7375525615267     0.993975451344522    -0.533219363760106   0.993975451344522    -0.533219363760106   0.011062661790379    56.7375525615267     
1.85754022375025     0.011143486899512    56.946013964305      0.993965902376224    -0.538398734278735   0.993965902376224    -0.538398734278735   0.011143486899512    56.946013964305      
1.87560070226694     0.011225228774219    57.1535578458147     0.993956294942658    -0.543628385229758   0.993956294942658    -0.543628385229758   0.011225228774219    57.1535578458147     
1.8938367790722      0.011307896190721    57.3601756758958     0.99394662852187     -0.54890880422016    0.99394662852187     -0.54890880422016    0.011307896190721    57.3601756758958     
1.91225016147179     0.011391497998399    57.5658591517674     0.993936902584704    -0.554240483575749   0.993936902584704    -0.554240483575749   0.011391497998399    57.5658591517674     
1.93084257337126     0.011476043120641    57.7706001974211     0.993927116594692    -0.559623920386502   0.993927116594692    -0.559623920386502   0.011476043120641    57.7706001974211     
1.94961575543731     0.011561540555694    57.9743909629026     0.993917270007931    -0.565059616552525   0.993917270007931    -0.565059616552525   0.011561540555694    57.9743909629026     
1.9685714652608      0.01164799937753     58.1772238234823     0.993907362272924    -0.570548078830321   0.993907362272924    -0.570548078830321   0.01164799937753     58.1772238234823     
1.98771147752127     0.011735428736727    58.3790913787155     0.993897392830496    -0.576089818879568   0.993897392830496    -0.576089818879568   0.011735428736727    58.3790913787155     
2.00703758415312     0.011823837861356    58.5799864514014     0.993887361113604    -0.58168535331032    0.993887361113604    -0.58168535331032    0.011823837861356    58.5799864514014     
2.02655159451333     0.011913236057875    58.7799020864349     0.993877266547252    -0.58733520373064    0.993877266547252    -0.58733520373064    0.011913236057875    58.7799020864349     
2.04625533555091     0.012003632712043    58.978831549563      0.993867108548314    -0.59303989679471    0.993867108548314    -0.59303989679471    0.012003632712043    58.978831549563      
2.0661506519779      0.012095037289837    59.1767683260432     0.99385688652539     -0.598799964251381   0.99385688652539     -0.598799964251381   0.012095037289837    59.1767683260432     
2.08623940644209     0.012187459338383    59.37370611921       0.993846599878686    -0.604615942993218   0.993846599878686    -0.604615942993218   0.012187459338383    59.37370611921       
2.10652347970143     0.012280908486894    59.5696388489484     0.993836247999862    -0.61048837510594    0.993836247999862    -0.61048837510594    0.012280908486894    59.5696388489484     
2.12700477080005     0.012375394447624    59.7645606500848     0.993825830271827    -0.616417807918388   0.993825830271827    -0.616417807918388   0.012375394447624    59.7645606500848     
2.14768519724614     0.012470927016827    59.9584658706911     0.993815346068681    -0.622404794052995   0.993815346068681    -0.622404794052995   0.012470927016827    59.9584658706911     
2.1685666951914      0.012567516075729    60.1513490703077     0.99380479475547     -0.628449891476613   0.99380479475547     -0.628449891476613   0.012567516075729    60.1513490703077     
2.18965121961232     0.012665171591509    60.3432050180915     0.993794175688073    -0.634553663551954   0.993794175688073    -0.634553663551954   0.012665171591509    60.3432050180915     
2.21094074449324     0.012763903618293    60.5340286908875     0.993783488213012    -0.640716679089434   0.993783488213012    -0.640716679089434   0.012763903618293    60.5340286908875     
2.23243726301114     0.012863722298155    60.7238152712293     0.993772731667316    -0.646939512399568   0.993772731667316    -0.646939512399568   0.012863722298155    60.7238152712293     
2.25414278772223     0.012964637862128    60.9125601452714     0.99376190537833     -0.653222743345787   0.99376190537833     -0.653222743345787   0.012964637862128    60.9125601452714     
2.27605935075041     0.013066660631229    61.1002589006572     0.993751008663533    -0.659566957397824   0.993751008663533    -0.659566957397824   0.013066660631229    61.1002589006572     
2.29818900397748     0.013169801017489    61.2869073243232     0.993740040830404    -0.665972745685554   0.993740040830404    -0.665972745685554   0.013169801017489    61.2869073243232     
2.32053381923527     0.013274069525       61.4725014002472     0.99372900117619     -0.672440705053407   0.99372900117619     -0.672440705053407   0.013274069525       61.4725014002472     
2.3430958884996      0.013379476750962    61.6570373071359     0.993717888987768    -0.678971438115217   0.993717888987768    -0.678971438115217   0.013379476750962    61.6570373071359     
2.36587732408615     0.01348603338675     61.8405114160643     0.993706703541414    -0.685565553309607   0.993706703541414    -0.685565553309607   0.01348603338675     61.8405114160643     
2.38888025884817     0.013593750218989    62.0229202880617     0.99369544410267     -0.692223664955972   0.99369544410267     -0.692223664955972   0.013593750218989    62.0229202880617     
2.41210684637625     0.01370263813063     62.2042606716518     0.993684109926085    -0.698946393310879   0.993684109926085    -0.698946393310879   0.01370263813063     62.2042606716518     
2.43555926119986     0.01381270810205     62.3845295003496     0.993672700255072    -0.70573436462508    0.993672700255072    -0.70573436462508    0.01381270810205     62.3845295003496     
2.45923969899098     0.013923971212149    62.5637238901135     0.993661214321689    -0.712588211201007   0.993661214321689    -0.712588211201007   0.013923971212149    62.5637238901135     
2.48315037676964     0.014036438639469    62.7418411367643     0.993649651346429    -0.719508571450889   0.993649651346429    -0.719508571450889   0.014036438639469    62.7418411367643     
2.50729353311153     0.014150121663314    62.9188787133622     0.993638010538012    -0.726496089955294   0.993638010538012    -0.726496089955294   0.014150121663314    62.9188787133622     
2.53167142835752     0.014265031664881    63.0948342675557     0.993626291093173    -0.733551417522326   0.993626291093173    -0.733551417522326   0.014265031664881    63.0948342675557     
2.5562863448253      0.014381180128405    63.269705618897      0.993614492196461    -0.740675211247336   0.993614492196461    -0.740675211247336   0.014381180128405    63.269705618897      
2.58114058702308     0.014498578642314    63.4434907561308     0.993602613019983    -0.747868134573186   0.993602613019983    -0.747868134573186   0.014498578642314    63.4434907561308     
2.60623648186532     0.014617238900389    63.6161878344583     0.99359065272324     -0.755130857351146   0.99359065272324     -0.755130857351146   0.014617238900389    63.6161878344583     
2.63157637889059     0.014737172702936    63.7877951727768     0.993578610452821    -0.762464055902219   0.993578610452821    -0.762464055902219   0.014737172702936    63.7877951727768     
2.65716265048153     0.014858391957971    63.9583112509002     0.993566485342218    -0.769868413079174   0.993566485342218    -0.769868413079174   0.014858391957971    63.9583112509002     
2.68299769208697     0.014980908682413    64.1277347067615     0.993554276511608    -0.77734461832918    0.993554276511608    -0.77734461832918    0.014980908682413    64.1277347067615     
2.70908392244618     0.015104735003287    64.2960643335998     0.99354198306754     -0.784893367756846   0.99354198306754     -0.784893367756846   0.015104735003287    64.2960643335998     
2.73542378381535     0.015229883158932    64.4632990771325     0.993529604102744    -0.792515364188036   0.993529604102744    -0.792515364188036   0.015229883158932    64.4632990771325     
2.76201974219621     0.015356365500232    64.6294380327186     0.993517138695886    -0.800211317234242   0.993517138695886    -0.800211317234242   0.015356365500232    64.6294380327186     
2.78887428756691     0.015484194491844    64.794480442512      0.99350458591127     -0.807981943357465   0.99350458591127     -0.807981943357465   0.015484194491844    64.794480442512      
2.81598993411514     0.01561338271344     64.958425692607      0.993491944798585    -0.815827965935789   0.993491944798585    -0.815827965935789   0.01561338271344     64.958425692607      
2.84336922047353     0.015743942860964    65.1212733101803     0.993479214392686    -0.823750115329569   0.993479214392686    -0.823750115329569   0.015743942860964    65.1212733101803     
2.8710147099573      0.015875887747891    65.2830229606308     0.99346639371325     -0.83174912894819    0.99346639371325     -0.83174912894819    0.015875887747891    65.2830229606308     
2.89892899080425     0.016009230306506    65.4436744447157     0.993453481764566    -0.839825751317484   0.993453481764566    -0.839825751317484   0.016009230306506    65.4436744447157     
2.92711467641708     0.016143983589182    65.6032276956898     0.993440477535205    -0.847980734147744   0.993440477535205    -0.847980734147744   0.016143983589182    65.6032276956898     
2.95557440560807     0.016280160769678    65.7616827764479     0.993427379997751    -0.856214836402426   0.993427379997751    -0.856214836402426   0.016280160769678    65.7616827764479     
2.98431084284612     0.016417775144441    65.9190398766693     0.993414188108535    -0.864528824367412   0.993414188108535    -0.864528824367412   0.016417775144441    65.9190398766693     
3.01332667850621     0.01655684013392     66.0752993099699     0.993400900807278    -0.872923471720984   0.993400900807278    -0.872923471720984   0.01655684013392     66.0752993099699     
3.04262462912126     0.016697369283894    66.2304615110624     0.993387517016851    -0.88139955960444    0.993387517016851    -0.88139955960444    0.016697369283894    66.2304615110624     
3.07220743763651     0.016839376266804    66.3845270329246     0.993374035642887    -0.88995787669327    0.993374035642887    -0.88995787669327    0.016839376266804    66.3845270329246     
3.10207787366627     0.016982874883099    66.5374965439788     0.993360455573566    -0.898599219269192   0.993360455573566    -0.898599219269192   0.016982874883099    66.5374965439788     
3.13223873375323     0.017127879062596    66.6893708252843     0.993346775679216    -0.907324391292627   0.993346775679216    -0.907324391292627   0.017127879062596    66.6893708252843     
3.1626928416303      0.01727440286584     66.8401507677405     0.993332994812002    -0.916134204476005   0.993332994812002    -0.916134204476005   0.01727440286584     66.8401507677405     
3.19344304848494     0.017422460485489    66.9898373693094     0.993319111805604    -0.925029478357664   0.993319111805604    -0.925029478357664   0.017422460485489    66.9898373693094     
3.22449223322614     0.017572066247694    67.1384317322498     0.993305125474883    -0.934011040376513   0.993305125474883    -0.934011040376513   0.017572066247694    67.1384317322498     
3.25584330275389     0.017723234613506    67.2859350603714     0.993291034615506    -0.943079725947305   0.993291034615506    -0.943079725947305   0.017723234613506    67.2859350603714     
3.28749919223141     0.017875980180278    67.4323486563051     0.993276838003617    -0.952236378536597   0.993276838003617    -0.952236378536597   0.017875980180278    67.4323486563051     
3.31946286535987     0.018030317683091    67.5776739187958     0.993262534395485    -0.961481849739533   0.993262534395485    -0.961481849739533   0.018030317683091    67.5776739187958     
3.3517373146559      0.01818626199618     67.7219123400126     0.993248122527087    -0.970816999357167   0.993248122527087    -0.970816999357167   0.01818626199618     67.7219123400126     
3.38432556173176     0.018343828134382    67.8650655028819     0.993233601113793    -0.980242695474633   0.993233601113793    -0.980242695474633   0.018343828134382    67.8650655028819     
3.4172306575782      0.018503031254583    68.0071350784429     0.993218968849948    -0.989759814539945   0.993218968849948    -0.989759814539945   0.018503031254583    68.0071350784429     
3.45045568285014     0.018663886657187    68.1481228232262     0.993204224408508    -0.99936924144359    0.993204224408508    -0.99936924144359    0.018663886657187    68.1481228232262     
3.48400374815506     0.018826409787589    68.2880305766561     0.993189366440619    -1.00907186959877    0.993189366440619    -1.00907186959877    0.018826409787589    68.2880305766561     
3.51787799434423     0.018990616237664    68.426860258478      0.993174393575231    -1.0188686010225     0.993174393575231    -1.0188686010225     0.018990616237664    68.426860258478      
3.55208159280677     0.019156521747262    68.564613866211      0.993159304418689    -1.02876034641727    0.993159304418689    -1.02876034641727    0.019156521747262    68.564613866211      
3.58661774576656     0.019324142205716    68.7012934726277     0.99314409755428     -1.03874802525362    0.99314409755428     -1.03874802525362    0.019324142205716    68.7012934726277     
3.62148968658204     0.019493493653369    68.8369012232593     0.993128771541861    -1.04883256585343    0.993128771541861    -1.04883256585343    0.019493493653369    68.8369012232593     
3.6567006800489      0.019664592283103    68.9714393339293     0.993113324917395    -1.0590149054739     0.993113324917395    -1.0590149054739     0.019664592283103    68.9714393339293     
3.6922540227058      0.019837454441878    69.1049100883146     0.993097756192478    -1.06929599039231    0.993097756192478    -1.06929599039231    0.019837454441878    69.1049100883146     
3.72815304314295     0.020012096632296    69.237315835535      0.993082063853959    -1.07967677599171    0.993082063853959    -1.07967677599171    0.020012096632296    69.237315835535      
3.76440110231372     0.020188535514164    69.3686589877727     0.993066246363396    -1.0901582268471     0.993066246363396    -1.0901582268471     0.020188535514164    69.3686589877727     
3.80100159384939     0.020366787906072    69.4989420179183     0.993050302156672    -1.10074131681268    0.993050302156672    -1.10074131681268    0.020366787906072    69.4989420179183     
3.83795794437676     0.020546870786987    69.6281674572503     0.993034229643433    -1.1114270291097     0.993034229643433    -1.1114270291097     0.020546870786987    69.6281674572503     
3.87527361383904     0.020728801297855    69.7563378931411     0.993018027206666    -1.12221635641515    0.993018027206666    -1.12221635641515    0.020728801297855    69.7563378931411     
3.91295209581975     0.020912596743214    69.883455966796      0.993001693202173    -1.13311030095137    0.993001693202173    -1.13311030095137    0.020912596743214    69.883455966796      
3.95099691786979     0.021098274592826    70.0095243710208     0.99298522595806     -1.14410987457626    0.99298522595806     -1.14410987457626    0.021098274592826    70.0095243710208     
3.98941164183771     0.021285852483314    70.1345458480215     0.992968623774238    -1.15521609887448    0.992968623774238    -1.15521609887448    0.021285852483314    70.1345458480215     
4.02819986420318     0.021475348219811    70.2585231872339     0.992951884921895    -1.16643000524938    0.992951884921895    -1.16643000524938    0.021475348219811    70.2585231872339     
4.06736521641368     0.021666779777631    70.381459223186      0.992935007642944    -1.17775263501581    0.992935007642944    -1.17775263501581    0.021666779777631    70.381459223186      
4.10691136522452     0.021860165303941    70.5033568333897     0.992917990149496    -1.18918503949367    0.992917990149496    -1.18918503949367    0.021860165303941    70.5033568333897     
4.1468420130421      0.022055523119452    70.6242189362657     0.992900830623291    -1.20072828010247    0.992900830623291    -1.20072828010247    0.022055523119452    70.6242189362657     
4.18716089827057     0.022252871720122    70.7440484890981     0.992883527215148    -1.21238342845652    0.992883527215148    -1.21238342845652    0.022252871720122    70.7440484890981     
4.22787179566176     0.022452229778869    70.8628484860225     0.992866078044363    -1.22415156646117    0.992866078044363    -1.22415156646117    0.022452229778869    70.8628484860225     
4.26897851666869     0.022653616147301    70.9806219560441     0.992848481198143    -1.23603378640978    0.992848481198143    -1.23603378640978    0.022653616147301    70.9806219560441     
4.31048490980231     0.022857049857457    71.0973719610881     0.992830734730988    -1.24803119108158    0.992830734730988    -1.24803119108158    0.022857049857457    71.0973719610881     
4.35239486099185     0.023062550123557    71.2131015940809     0.992812836664094    -1.26014489384043    0.992812836664094    -1.26014489384043    0.023062550123557    71.2131015940809     
4.39471229394863     0.023270136343776    71.3278139770643     0.99279478498474     -1.2723760187345     0.99279478498474     -1.2723760187345     0.023270136343776    71.3278139770643     
4.4374411705334      0.023479828102017    71.4415122593392     0.992776577645597    -1.28472570059665    0.992776577645597    -1.28472570059665    0.023479828102017    71.4415122593392     
4.48058549112726     0.023691645169709    71.5541996156416     0.992758212564174    -1.29719508514595    0.992758212564174    -1.29719508514595    0.023691645169709    71.5541996156416     
4.52414929500619     0.023905607507611    71.6658792443501     0.992739687622064    -1.30978532908991    0.992739687622064    -1.30978532908991    0.023905607507611    71.6658792443501     
4.5681366607192      0.024121735267637    71.7765543657236     0.992721000664341    -1.32249760022764    0.992721000664341    -1.32249760022764    0.024121735267637    71.7765543657236     
4.61255170647021     0.024340048794684    71.8862282201706     0.992702149498841    -1.33533307755405    0.992702149498841    -1.33533307755405    0.024340048794684    71.8862282201706     
4.65739859050356     0.024560568628485    71.9949040665485     0.992683131895466    -1.34829295136474    0.992683131895466    -1.34829295136474    0.024560568628485    71.9949040665485     
4.70268151149334     0.024783315505465    72.1025851804944     0.992663945585508    -1.36137842336206    0.992663945585508    -1.36137842336206    0.024783315505465    72.1025851804944     
4.7484047089365      0.025008310360621    72.2092748527856     0.992644588260868    -1.37459070676186    0.992644588260868    -1.37459070676186    0.025008310360621    72.2092748527856     
4.79457246354971     0.025235574329408    72.31497638773       0.992625057573366    -1.38793102640135    0.992625057573366    -1.38793102640135    0.025235574329408    72.31497638773       
4.84118909767018     0.025465128749644    72.4196931015875     0.992605351133958    -1.40140061884782    0.992605351133958    -1.40140061884782    0.025465128749644    72.4196931015875     
4.88825897566032     0.025696995163424    72.5234283210193     0.992585466512001    -1.41500073250833    0.992585466512001    -1.41500073250833    0.025696995163424    72.5234283210193     
4.93578650431629     0.025931195319055    72.6261853815684     0.992565401234425    -1.42873262774026    0.992565401234425    -1.42873262774026    0.025931195319055    72.6261853815684     
4.98377613328065     0.026167751172999    72.727967626168      0.992545152784998    -1.44259757696303    0.992545152784998    -1.44259757696303    0.026167751172999    72.727967626168      
5.0322323554589      0.026406684891831    72.8287784036795     0.992524718603474    -1.45659686477054    0.992524718603474    -1.45659686477054    0.026406684891831    72.8287784036795     
5.08115970744013     0.026648018854219    72.9286210674583     0.992504096084753    -1.47073178804474    0.992504096084753    -1.47073178804474    0.026648018854219    72.9286210674583     
5.13056276992176     0.026891775652904    73.0274989739486     0.992483282578098    -1.48500365607012    0.992483282578098    -1.48500365607012    0.026891775652904    73.0274989739486     
5.18044616813836     0.02713797809671     73.1254154813056     0.992462275386199    -1.49941379064911    0.992462275386199    -1.49941379064911    0.02713797809671     73.1254154813056     
5.2308145722947      0.027386649212559    73.2223739480458     0.9924410717644      -1.51396352621872    0.9924410717644      -1.51396352621872    0.027386649212559    73.2223739480458     
5.28167269800298     0.027637812247502    73.318377731724      0.992419668919688    -1.52865420996777    0.992419668919688    -1.52865420996777    0.027637812247502    73.318377731724      
5.33302530672435     0.027891490670767    73.4134301876381     0.992398064009877    -1.54348720195551    0.992398064009877    -1.54348720195551    0.027891490670767    73.4134301876381     
5.38487720621462     0.02814770817582     73.5075346675598     0.992376254142661    -1.55846387523105    0.992376254142661    -1.55846387523105    0.02814770817582     73.5075346675598     
5.43723325097444     0.028406488682443    73.6006945184918     0.992354236374654    -1.57358561595376    0.992354236374654    -1.57358561595376    0.028406488682443    73.6006945184918     
5.49009834270374     0.028667856338823    73.6929130814512     0.992332007710419    -1.58885382351479    0.992332007710419    -1.58885382351479    0.028667856338823    73.6929130814512     
5.54347743076069     0.02893183552366     73.7841936902784     0.992309565101543    -1.60426991065958    0.992309565101543    -1.60426991065958    0.02893183552366     73.7841936902784     
5.59737551262503     0.029198450848285    73.8745396704711     0.992286905445592    -1.61983530361144    0.992286905445592    -1.61983530361144    0.029198450848285    73.8745396704711     
5.65179763436594     0.029467727158802    73.9639543380428     0.992264025585109    -1.63555144219601    0.992264025585109    -1.63555144219601    0.029467727158802    73.9639543380428     
5.70674889111452     0.029739689538234    74.0524409984072     0.992240922306574    -1.65141977996694    0.992240922306574    -1.65141977996694    0.029739689538234    74.0524409984072     
5.76223442754076     0.030014363308692    74.1400029452848     0.992217592339384    -1.66744178433253    0.992217592339384    -1.66744178433253    0.030014363308692    74.1400029452848     
5.81825943833519     0.030291774033556    74.2266434596352     0.992194032354709    -1.68361893668334    0.992194032354709    -1.68361893668334    0.030291774033556    74.2266434596352     
5.87482916869527     0.030571947519671    74.3123658086112     0.992170238964465    -1.69995273252104    0.992170238964465    -1.69995273252104    0.030571947519671    74.3123658086112     
5.93194891481641     0.030854909819561    74.3971732445369     0.99214620872017     -1.7164446815882     0.99214620872017     -1.7164446815882     0.030854909819561    74.3971732445369     
5.98962402438783     0.031140687233656    74.4810690039083     0.992121938111801    -1.7330963079991     0.992121938111801    -1.7330963079991     0.031140687233656    74.4810690039083     
6.04785989709323     0.03142930631253     74.564056306416      0.992097423566635    -1.74990915037165    0.992097423566635    -1.74990915037165    0.03142930631253     74.564056306416      
6.10666198511631     0.031720793859169    74.6461383539898     0.992072661448103    -1.76688476196049    0.992072661448103    -1.76688476196049    0.031720793859169    74.6461383539898     
6.16603579365122     0.032015176931231    74.7273183298647     0.992047648054546    -1.78402471079102    0.992047648054546    -1.78402471079102    0.032015176931231    74.7273183298647     
6.22598688141799     0.032312482843348    74.8075993976691     0.992022379618009    -1.80133057979456    0.992022379618009    -1.80133057979456    0.032312482843348    74.8075993976691     
6.28652086118291     0.032612739169419    74.8869847005319     0.991996852302982    -1.81880396694454    0.991996852302982    -1.81880396694454    0.032612739169419    74.8869847005319     
6.34764340028403     0.032915973744936    74.9654773602119     0.991971062205152    -1.83644648539403    0.991971062205152    -1.83644648539403    0.032915973744936    74.9654773602119     
6.40936022116178     0.033222214669318    75.0430804762462     0.991945005350076    -1.85425976361393    0.991945005350076    -1.85425976361393    0.033222214669318    75.0430804762462     
6.47167710189467     0.033531490308256    75.1197971251178     0.991918677691908    -1.87224544553271    0.991918677691908    -1.87224544553271    0.033531490308256    75.1197971251178     
6.53459987674028     0.033843829296086    75.1956303594446     0.991892075111973    -1.89040519067689    0.991892075111973    -1.89040519067689    0.033843829296086    75.1956303594446     
6.59813443668145     0.034159260538164    75.2705832071842     0.991865193417499    -1.9087406743129     0.991865193417499    -1.9087406743129     0.034159260538164    75.2705832071842     
6.66228672997785     0.034477813213264    75.3446586708605     0.991838028340138    -1.92725358758982    0.991838028340138    -1.92725358758982    0.034477813213264    75.3446586708605     
6.72706276272283     0.03479951677599     75.4178597268057     0.991810575534575    -1.94594563768342    0.991810575534575    -1.94594563768342    0.03479951677599     75.4178597268057     
6.79246859940574     0.035124400959201    75.4901893244223     0.991782830577112    -1.96481854794123    0.991782830577112    -1.96481854794123    0.035124400959201    75.4901893244223     
6.85851036347971     0.035452495776454    75.561650385461      0.991754788964126    -1.98387405802867    0.991754788964126    -1.98387405802867    0.035452495776454    75.561650385461      
6.92519423793494     0.035783831524461    75.6322458033169     0.991726446110601    -2.00311392407639    0.991726446110601    -2.00311392407639    0.035783831524461    75.6322458033169     
6.99252646587753     0.036118438785559    75.7019784423415     0.991697797348621    -2.02253991882876    0.991697797348621    -2.02253991882876    0.036118438785559    75.7019784423415     
7.06051335111406     0.036456348430203    75.7708511371718     0.991668837925754    -2.04215383179337    0.991668837925754    -2.04215383179337    0.036456348430203    75.7708511371718     
7.12916125874166     0.036797591619458    75.8388666920752     0.991639563003521    -2.06195746939173    0.991639563003521    -2.06195746939173    0.036797591619458    75.8388666920752     
7.19847661574402     0.037142199807527    75.90602788031       0.991609967655707    -2.08195265511109    0.991609967655707    -2.08195265511109    0.037142199807527    75.90602788031       
7.26846591159303     0.037490204744274    75.9723374435016     0.991580046866776    -2.10214122965736    0.991580046866776    -2.10214122965736    0.037490204744274    75.9723374435016     
7.3391356988564      0.037841638477777    76.0377980910334     0.991549795530171    -2.1225250511093     0.991549795530171    -2.1225250511093     0.037841638477777    76.0377980910334     
7.41049259381108     0.038196533356886    76.1024124994527     0.991519208446583    -2.14310599507361    0.991519208446583    -2.14310599507361    0.038196533356886    76.1024124994527     
7.48254327706271     0.038554922033796    76.1661833118907     0.991488280322212    -2.16388595484126    0.991488280322212    -2.16388595484126    0.038554922033796    76.1661833118907     
7.55529449417106     0.038916837466646    76.2291131374969     0.99145700576701     -2.18486684154511    0.99145700576701     -2.18486684154511    0.038916837466646    76.2291131374969     
7.62875305628161     0.039282312922114    76.291204550887      0.991425379292873    -2.20605058431847    0.991425379292873    -2.20605058431847    0.039282312922114    76.291204550887      
7.70292584076318     0.039651381978041    76.3524600916043     0.991393395311752    -2.22743913045473    0.991393395311752    -2.22743913045473    0.039651381978041    76.3524600916043     
7.77781979185182     0.040024078526061    76.412882263594      0.991361048133819    -2.24903444556838    0.991361048133819    -2.24903444556838    0.040024078526061    76.412882263594      
7.85344192130094     0.04040043677425     76.4724735346906     0.991328331965556    -2.27083851375705    0.991328331965556    -2.27083851375705    0.04040043677425     76.4724735346906     
7.92979930903779     0.040780491249784    76.5312363361179     0.991295240907769    -2.2928533377645     0.991295240907769    -2.2928533377645     0.040780491249784    76.5312363361179     
8.00689910382627     0.041164276801615    76.5891730620005     0.991261768953655    -2.31508093914508    0.991261768953655    -2.31508093914508    0.041164276801615    76.5891730620005     
8.08474852393625     0.041551828603155    76.6462860688883     0.991227909986718    -2.33752335842899    0.991227909986718    -2.33752335842899    0.041551828603155    76.6462860688883     
8.16335485781933     0.041943182154978    76.7025776752911     0.991193657778776    -2.36018265528896    0.991193657778776    -2.36018265528896    0.041943182154978    76.7025776752911     
8.2427254647912      0.042338373287536    76.7580501612265     0.99115900598781     -2.38306090870777    0.99115900598781     -2.38306090870777    0.042338373287536    76.7580501612265     
8.32286777572067     0.042737438163878    76.8127057677768     0.991123948155862    -2.40616021714715    0.991123948155862    -2.40616021714715    0.042737438163878    76.8127057677768     
8.40378929372535     0.043140413282396    76.866546696658      0.99108847770684     -2.42948269871761    0.99108847770684     -2.42948269871761    0.043140413282396    76.866546696658      
8.48549759487408     0.043547335479568    76.919575109799      0.99105258794432     -2.45303049134949    0.99105258794432     -2.45303049134949    0.043547335479568    76.919575109799      
8.56800032889629     0.04395824193273     76.9717931289309     0.991016272049278    -2.47680575296509    0.991016272049278    -2.47680575296509    0.04395824193273     76.9717931289309     
8.65130521989809     0.04437317016284     77.023202835186      0.990979523077774    -2.50081066165182    0.990979523077774    -2.50081066165182    0.04437317016284     77.023202835186      
8.73542006708552     0.044792158037269    77.0738062687071     0.990942333958648    -2.52504741583666    0.990942333958648    -2.52504741583666    0.044792158037269    77.0738062687071     
8.82035274549466     0.045215243772602    77.1236054282659     0.990904697491111    -2.54951823446151    0.990904697491111    -2.54951823446151    0.045215243772602    77.1236054282659     
8.90611120672893     0.045642465937437    77.1726022708904     0.990866606342344    -2.57422535715973    0.990866606342344    -2.57422535715973    0.045642465937437    77.1726022708904     
8.99270347970356     0.046073863455207    77.2207987115022     0.990828053044967    -2.5991710444337     0.990828053044967    -2.5991710444337     0.046073863455207    77.2207987115022     
9.08013767139724     0.046509475607012    77.2681966225607     0.990789029994597    -2.62435757783355    0.990789029994597    -2.62435757783355    0.046509475607012    77.2681966225607     
9.16842196761115     0.046949342034451    77.3147978337179     0.990749529447219    -2.6497872601368     0.990749529447219    -2.6497872601368     0.046949342034451    77.3147978337179     
9.2575646337353      0.047393502742472    77.3606041314801     0.990709543516632    -2.67546241552935    0.990709543516632    -2.67546241552935    0.047393502742472    77.3606041314801     
9.34757401552238     0.047841998102229    77.4056172588778     0.990669064171732    -2.70138538978709    0.990669064171732    -2.70138538978709    0.047841998102229    77.4056172588778     
9.43845853986912     0.048294868853946    77.4498389151438     0.990628083233847    -2.72755855045887    0.990628083233847    -2.72755855045887    0.048294868853946    77.4498389151438     
9.53022671560519     0.048752156109791    77.4932707553989     0.990586592373977    -2.75398428705057    0.990586592373977    -2.75398428705057    0.048752156109791    77.4932707553989     
9.62288713428986     0.049213901356756    77.5359143903443     0.990544583109953    -2.78066501120978    0.990544583109953    -2.78066501120978    0.049213901356756    77.5359143903443     
9.71644847101637     0.049680146459545    77.5777713859621     0.99050204680361     -2.8076031569119     0.99050204680361     -2.8076031569119     0.049680146459545    77.5777713859621     
9.81091948522407     0.05015093366347     77.6188432632218     0.99045897465788     -2.83480118064707    0.99045897465788     -2.83480118064707    0.05015093366347     77.6188432632218     
9.90630902151851     0.050626305597349    77.6591314977945     0.990415357713813    -2.86226156160803    0.990415357713813    -2.86226156160803    0.050626305597349    77.6591314977945     
10.0026260104995     0.051106305276415    77.6986375197737     0.990371186847545    -2.88998680187898    0.990371186847545    -2.88998680187898    0.051106305276415    77.6986375197737     
10.0998794695974     0.051590976105226    77.737362713401      0.990326452767251    -2.91797942662546    0.990326452767251    -2.91797942662546    0.051590976105226    77.737362713401      
10.1980785039168     0.052080361880588    77.7753084167999     0.990281146010039    -2.94624198428527    0.990281146010039    -2.94624198428527    0.052080361880588    77.7753084167999     
10.2972323070897     0.052574506794462    77.8124759217148     0.990235256938697    -2.97477704675981    0.990235256938697    -2.97477704675981    0.052574506794462    77.8124759217148     
10.3973501621357     0.053073455436899    77.8488664732554     0.990188775738508    -3.00358720960703    0.990188775738508    -3.00358720960703    0.053073455436899    77.8488664732554     
10.4984414423313     0.053577252798962    77.8844812696481     0.99014169241394     -3.03267509223472    0.99014169241394     -3.03267509223472    0.053577252798962    77.8844812696481     
10.6005156120874     0.054085944275653    77.9193214619914     0.990093996785265    -3.06204333809491    0.990093996785265    -3.06204333809491    0.054085944275653    77.9193214619914     
10.7035822278355     0.054599575668843    77.9533881540181     0.990045678485164    -3.09169461487905    0.990045678485164    -3.09169461487905    0.054599575668843    77.9533881540181     
10.8076509389222     0.055118193190204    77.986682401861      0.989996726955225    -3.12163161471412    0.989996726955225    -3.12163161471412    0.055118193190204    77.986682401861      
10.9127314885127     0.055641843464135    78.0192052138261     0.989947131442412    -3.15185705435935    0.989947131442412    -3.15185705435935    0.055641843464135    78.0192052138261     
11.0188337145031     0.056170573530694    78.0509575501684     0.989896880995454    -3.18237367540385    0.989896880995454    -3.18237367540385    0.056170573530694    78.0509575501684     
11.1259675504413     0.056704430848523    78.0819403228732     0.989845964461164    -3.21318424446507    0.989845964461164    -3.21318424446507    0.056704430848523    78.0819403228732     
11.2341430264567     0.057243463297771    78.1121543954433     0.989794370480719    -3.24429155338777    0.989794370480719    -3.24429155338777    0.057243463297771    78.1121543954433     
11.3433702702001     0.057787719183019    78.1416005826888     0.989742087485846    -3.27569841944394    0.989742087485846    -3.27569841944394    0.057787719183019    78.1416005826888     
11.453659507791      0.058337247236191    78.1702796505222     0.989689103694948    -3.30740768553329    0.989689103694948    -3.30740768553329    0.058337247236191    78.1702796505222     
11.5650210647753     0.058892096619464    78.1981923157583     0.989635407109144    -3.3394222203841     0.989635407109144    -3.3394222203841     0.058892096619464    78.1981923157583     
11.6774653670923     0.059452316928182    78.2253392459174     0.989580985508316    -3.37174491875554    0.989580985508316    -3.37174491875554    0.059452316928182    78.2253392459174     
11.7910029420504     0.06001795819374     78.2517210590324     0.989525826446967    -3.40437870163944    0.989525826446967    -3.40437870163944    0.06001795819374     78.2517210590324     
11.9056444193128     0.06058907088648     78.2773383234607     0.98946991725009     -3.43732651646354    0.98946991725009     -3.43732651646354    0.06058907088648     78.2773383234607     
12.0214005318928     0.061165705918571    78.3021915576997     0.989413245008965    -3.47059133729486    0.989413245008965    -3.47059133729486    0.061165705918571    78.3021915576997     
12.1382821171585     0.06174791464687     78.3262812302051     0.989355796576796    -3.50417616504345    0.989355796576796    -3.50417616504345    0.06174791464687     78.3262812302051     
12.2563001178475     0.062335748875788    78.3496077592136     0.989297558564417    -3.53808402766706    0.989297558564417    -3.53808402766706    0.062335748875788    78.3496077592136     
12.3754655830914     0.062929260860125    78.3721715125698     0.989238517335745    -3.57231798037555    0.989238517335745    -3.57231798037555    0.062929260860125    78.3721715125698     
12.4957896694502     0.063528503307905    78.3939728075546     0.989178659003356    -3.6068811058364     0.989178659003356    -3.6068811058364     0.063528503307905    78.3939728075546     
12.6172836419567     0.064133529383186    78.4150119107193     0.989117969423758    -3.64177651437994    0.989117969423758    -3.64177651437994    0.064133529383186    78.4150119107193     
12.7399588751715     0.06474439270886     78.4352890377208     0.989056434192804    -3.67700734420529    0.989056434192804    -3.67700734420529    0.06474439270886     78.4352890377208     
12.8638268542476     0.065361147369429    78.4548043531616     0.988994038640854    -3.71257676158628    0.988994038640854    -3.71257676158628    0.065361147369429    78.4548043531616     
12.9888991760057     0.065983847913766    78.4735579704324     0.988930767827935    -3.74848796107772    0.988930767827935    -3.74848796107772    0.065983847913766    78.4735579704324     
13.1151875500201     0.06661254935785     78.4915499515573     0.98886660653883     -3.78474416572178    0.98886660653883     -3.78474416572178    0.06661254935785     78.4915499515573     
13.2427037997146     0.067247307187486    78.5087803070429     0.988801539277993    -3.82134862725442    0.988801539277993    -3.82134862725442    0.067247307187486    78.5087803070429     
13.3714598634701     0.06788817736099     78.5252489957298     0.988735550264525    -3.85830462631199    0.988735550264525    -3.85830462631199    0.06788817736099     78.5252489957298     
13.5014677957416     0.06853521631186     78.5409559246467     0.988668623426899    -3.89561547263775    0.988668623426899    -3.89561547263775    0.06853521631186     78.5409559246467     
13.6327397681872     0.069188480951411    78.5559009488685     0.988600742397694    -3.93328450528823    0.988600742397694    -3.93328450528823    0.069188480951411    78.5559009488685     
13.7652880708074     0.069848028671383    78.5700838713758     0.988531890508254    -3.97131509283973    0.988531890508254    -3.97131509283973    0.069848028671383    78.5700838713758     
13.899125113096      0.070513917346521    78.5835044429183     0.988462050783164    -4.00971063359437    0.988462050783164    -4.00971063359437    0.070513917346521    78.5835044429183     
14.0342634252016     0.071186205337117    78.5961623618805     0.988391205934725    -4.04847455578608    0.988391205934725    -4.04847455578608    0.071186205337117    78.5961623618805     
14.1707156591008     0.071864951491527    78.6080572741497     0.988319338357297    -4.08761031778639    0.988319338357297    -4.08761031778639    0.071864951491527    78.6080572741497     
14.3084945897828     0.072550215148632    78.6191887729877     0.988246430121524    -4.12712140830933    0.988246430121524    -4.12712140830933    0.072550215148632    78.6191887729877     
14.4476131164456     0.073242056140289    78.6295563989043     0.988172462968495    -4.16701134661668    0.988172462968495    -4.16701134661668    0.073242056140289    78.6295563989043     
14.588084263703      0.073940534793713    78.6391596395337     0.988097418303824    -4.20728368272203    0.988097418303824    -4.20728368272203    0.073940534793713    78.6391596395337     
14.7299211828047     0.074645711933834    78.6479979295137     0.988021277191556    -4.24794199759456    0.988021277191556    -4.24794199759456    0.074645711933834    78.6479979295137     
14.8731371528671     0.075357648885604    78.6560706503672     0.987944020348064    -4.28898990336242    0.987944020348064    -4.28898990336242    0.075357648885604    78.6560706503672     
15.0177455821171     0.076076407476256    78.6633771303871     0.987865628135785    -4.33043104351461    0.987865628135785    -4.33043104351461    0.076076407476256    78.6633771303871     
15.1637600091464     0.076802050037513    78.6699166445227     0.987786080556852    -4.37226909310304    0.987786080556852    -4.37226909310304    0.076802050037513    78.6699166445227     
15.3111941041801     0.077534639407748    78.6756884142695     0.987705357246668    -4.41450775894281    0.987705357246668    -4.41450775894281    0.077534639407748    78.6756884142695     
15.4600616703559     0.078274238934082    78.680691607562      0.987623437467313    -4.45715077981199    0.987623437467313    -4.45715077981199    0.078274238934082    78.680691607562      
15.6103766450166     0.07902091247444     78.6849253386678     0.987540300100892    -4.50020192665037    0.987540300100892    -4.50020192665037    0.07902091247444     78.6849253386678     
15.7621531010146     0.079774724399529    78.6883886680863     0.987455923642744    -4.54366500275664    0.987455923642744    -4.54366500275664    0.079774724399529    78.6883886680863     
15.9154052480302     0.080535739594769    78.6910806024479     0.987370286194564    -4.58754384398486    0.987370286194564    -4.58754384398486    0.080535739594769    78.6910806024479     
16.0701474339012     0.081304023462147    78.6930000944183     0.987283365457384    -4.6318423189389     0.987283365457384    -4.6318423189389     0.081304023462147    78.6930000944183     
16.2263941459665     0.082079641922016    78.6941460426039     0.987195138724494    -4.67656432916627    0.987195138724494    -4.67656432916627    0.082079641922016    78.6941460426039     
16.3841600124223     0.082862661414806    78.6945172914606     0.987105582874171    -4.72171380934938    0.987105582874171    -4.72171380934938    0.082862661414806    78.6945172914606     
16.5434598036919     0.083653148902679    78.6941126312056     0.987014674362346    -4.76729472749606    0.987014674362346    -4.76729472749606    0.083653148902679    78.6941126312056     
16.7043084338082     0.084451171871097    78.6929307977317     0.986922389215187    -4.8133110851278     0.986922389215187    -4.8133110851278     0.084451171871097    78.6929307977317     
16.8667209618103     0.085256798330308    78.6909704725253     0.986828703021441    -4.85976691746603    0.986828703021441    -4.85976691746603    0.085256798330308    78.6909704725253     
17.0307125931532     0.086070096816757    78.6882302825867     0.986733590924814    -4.90666629361677    0.986733590924814    -4.90666629361677    0.086070096816757    78.6882302825867     
17.1962986811311     0.086891136394401    78.684708800354      0.986637027616086    -4.95401331675267    0.986637027616086    -4.95401331675267    0.086891136394401    78.684708800354      
17.3634947283155     0.087719986655941    78.6804045436302     0.986538987325229    -5.00181212429326    0.986538987325229    -5.00181212429326    0.087719986655941    78.6804045436302     
17.532316388006      0.088556717723954    78.6753159755128     0.986439443813301    -5.05006688808236    0.986439443813301    -5.05006688808236    0.088556717723954    78.6753159755128     
17.7027794656959     0.089401400251934    78.6694415043282     0.986338370364259    -5.09878181456326    0.986338370364259    -5.09878181456326    0.089401400251934    78.6694415043282     
17.8748999205522     0.090254105425221    78.662779483568      0.986235739776658    -5.14796114495109    0.986235739776658    -5.14796114495109    0.090254105425221    78.662779483568      
18.0486938669096     0.09111490496184     78.65532821183       0.986131524355209    -5.19760915540252    0.986131524355209    -5.19760915540252    0.09111490496184     78.65532821183       
18.2241775757788     0.091983871113215    78.6470859327618     0.986025695902202    -5.24773015718235    0.986025695902202    -5.24773015718235    0.091983871113215    78.6470859327618     
18.4013674763706     0.09286107666478     78.6380508350094     0.985918225708795    -5.29832849682701    0.985918225708795    -5.29832849682701    0.09286107666478     78.6380508350094     
18.5802801576334     0.09374659493647     78.6282210521682     0.985809084546214    -5.34940855630493    0.985809084546214    -5.34940855630493    0.09374659493647     78.6282210521682     
18.7609323698065     0.094640499783085    78.6175946627394     0.985698242656751    -5.40097475317326    0.985698242656751    -5.40097475317326    0.094640499783085    78.6175946627394     
18.9433410259883     0.095542865594538    78.6061696900893     0.985585669744687    -5.45303154073137    0.985585669744687    -5.45303154073137    0.095542865594538    78.6061696900893     
19.1275232037197     0.096453767295957    78.5939441024135     0.98547133496708     -5.50558340817013    0.98547133496708     -5.50558340817013    0.096453767295957    78.5939441024135     
19.3134961465832     0.09737328034767     78.5809158127052     0.985355206924351    -5.55863488071764    0.985355206924351    -5.55863488071764    0.09737328034767     78.5809158127052     
19.5012772658169     0.098301480745032    78.5670826787281     0.985237253650843    -5.61219051978064    0.985237253650843    -5.61219051978064    0.098301480745032    78.5670826787281     
19.6908841419448     0.099238445018118    78.5524425029939     0.98511744260514     -5.6662549230817     0.98511744260514     -5.6662549230817     0.099238445018118    78.5524425029939     
19.8823345264227     0.100184250231265    78.5369930327444     0.98499574066031     -5.72083272479207    0.98499574066031     -5.72083272479207    0.100184250231265    78.5369930327444     
20.0756463433001     0.101138973982447    78.5207319599392     0.984872114093971    -5.77592859565942    0.984872114093971    -5.77592859565942    0.101138973982447    78.5207319599392     
20.2708376908984     0.102102694402505    78.5036569212474     0.984746528578264    -5.83154724313122    0.984746528578264    -5.83154724313122    0.102102694402505    78.5036569212474     
20.467926843505      0.103075490154196    78.4857654980458     0.984618949169631    -5.88769341147254    0.984618949169631    -5.88769341147254    0.103075490154196    78.4857654980458     
20.6669322530847     0.10405744043109     78.4670552164216     0.984489340298497    -5.94437188187933    0.984489340298497    -5.94437188187933    0.10405744043109     78.4670552164216     
20.8678725510068     0.105048624956258    78.4475235471817     0.984357665758775    -6.00158747258494    0.984357665758775    -6.00158747258494    0.105048624956258    78.4475235471817     
21.0707665497895     0.106049123980816    78.4271679058667     0.984223888697272    -6.05934503896238    0.984223888697272    -6.05934503896238    0.106049123980816    78.4271679058667     
21.2756332448612     0.10705901828224     78.4059856527722     0.984087971602883    -6.1176494736193     0.984087971602883    -6.1176494736193     0.10705901828224     78.4059856527722     
21.4824918163391     0.108078389162509    78.3839740929752     0.983949876295715    -6.17650570648744    0.983949876295715    -6.17650570648744    0.108078389162509    78.3839740929752     
21.6913616308245     0.109107318446052    78.3611304763678     0.983809563916038    -6.235918704906      0.983809563916038    -6.235918704906      0.109107318446052    78.3611304763678     
21.9022622432162     0.110145888477457    78.3374519976974     0.983666994913056    -6.29589347369701    0.983666994913056    -6.29589347369701    0.110145888477457    78.3374519976974     
22.1152133985413     0.111194182118996    78.3129357966138     0.983522129033586    -6.35643505523538    0.983522129033586    -6.35643505523538    0.111194182118996    78.3129357966138     
22.3302350338036     0.112252282747912    78.2875789577227     0.983374925310582    -6.41754852951059    0.983374925310582    -6.41754852951059    0.112252282747912    78.2875789577227     
22.5473472798503     0.113320274253473    78.2613785106483     0.983225342051471    -6.47923901418105    0.983225342051471    -6.47923901418105    0.113320274253473    78.2613785106483     
22.7665704632567     0.114398241033809    78.2343314301022     0.983073336826411    -6.54151166462144    0.983073336826411    -6.54151166462144    0.114398241033809    78.2343314301022     
22.9879251082291     0.115486267992484    78.2064346359603     0.982918866456338    -6.60437167396079    0.982918866456338    -6.60437167396079    0.115486267992484    78.2064346359603     
23.2114319385265     0.116584440534836    78.1776849933487     0.982761887000922    -6.66782427311371    0.982761887000922    -6.66782427311371    0.116584440534836    78.1776849933487     
23.4371118794007     0.117692844564041    78.1480793127371     0.982602353746348    -6.73187473080161    0.982602353746348    -6.73187473080161    0.117692844564041    78.1480793127371     
23.6649860595551     0.118811566476925    78.1176143500416     0.982440221192938    -6.79652835356586    0.982440221192938    -6.79652835356586    0.118811566476925    78.1176143500416     
23.8950758131236     0.119940693159497    78.0862868067369     0.98227544304267     -6.86179048577103    0.98227544304267     -6.86179048577103    0.119940693159497    78.0862868067369     
24.1274026816671     0.121080311982198    78.0540933299764     0.982107972186548    -6.92766650959967    0.982107972186548    -6.92766650959967    0.121080311982198    78.0540933299764     
24.3619884161908     0.122230510794865    78.0210305127235     0.981937760691788    -6.99416184503592    0.981937760691788    -6.99416184503592    0.122230510794865    78.0210305127235     
24.5988549791802     0.123391377921384    77.9870948938919     0.981764759788886    -7.06128194983952    0.981764759788886    -7.06128194983952    0.123391377921384    77.9870948938919     
24.8380245466578     0.124563002154055    77.9522829584971     0.981588919858572    -7.12903231950932    0.981588919858572    -7.12903231950932    0.124563002154055    77.9522829584971     
25.0795195102587     0.125745472747625    77.9165911378173     0.981410190418604    -7.19741848723584    0.981410190418604    -7.19741848723584    0.125745472747625    77.9165911378173     
25.3233624793274     0.126938879412994    77.8800158095664     0.981228520110387    -7.26644602384216    0.981228520110387    -7.26644602384216    0.126938879412994    77.8800158095664     
25.5695762830343     0.1281433123106      77.8425532980781     0.981043856685503    -7.33612053771333    0.981043856685503    -7.33612053771333    0.1281433123106      77.8425532980781     
25.8181839725131     0.12935886204345     77.8041998745011     0.980856146992122    -7.40644767471421    0.980856146992122    -7.40644767471421    0.12935886204345     77.8041998745011     
26.0692088230189     0.130585619649797    77.7649517570071     0.980665336961184    -7.47743311809407    0.980665336961184    -7.47743311809407    0.130585619649797    77.7649517570071     
26.3226743361073     0.131823676595462    77.7248051110111     0.980471371592583    -7.54908258837904    0.980471371592583    -7.54908258837904    0.131823676595462    77.7248051110111     
26.5786042418345     0.133073124765769    77.683756049404      0.980274194941093    -7.6214018432511     0.980274194941093    -7.6214018432511     0.133073124765769    77.683756049404      
26.8370225009794     0.134334056457107    77.6418006327997     0.98007375010226     -7.69439667741297    0.98007375010226     -7.69439667741297    0.134334056457107    77.6418006327997     
27.0979533072863     0.135606564368102    77.5989348697942     0.979869979198146    -7.76807292244011    0.979869979198146    -7.76807292244011    0.135606564368102    77.5989348697942     
27.3614210897305     0.136890741590364    77.5551547172402     0.97966282336289     -7.84243644661665    0.97966282336289     -7.84243644661665    0.136890741590364    77.5551547172402     
27.627450514805      0.138186681598839    77.5104560805359     0.979452222728225    -7.91749315475751    0.979452222728225    -7.91749315475751    0.138186681598839    77.5104560805359     
27.8960664888301     0.139494478241731    77.4648348139278     0.979238116408887    -7.99324898801502    0.979238116408887    -7.99324898801502    0.139494478241731    77.4648348139278     
28.167294160285      0.140814225729982    77.4182867208305     0.979020442487828    -8.06970992366927    0.979020442487828    -8.06970992366927    0.140814225729982    77.4182867208305     
28.4411589221623     0.14214601862629     77.3708075541616     0.978799138001366    -8.14688197490163    0.978799138001366    -8.14688197490163    0.14214601862629     77.3708075541616     
28.7176864143457     0.143489951833708    77.3223930166917     0.97857413892431     -8.22477119055362    0.97857413892431     -8.22477119055362    0.143489951833708    77.3223930166917     
28.9969025260098     0.144846120583722    77.2730387614145     0.978345380154792    -8.30338365486521    0.978345380154792    -8.30338365486521    0.144846120583722    77.2730387614145     
29.2788333980445     0.146214620423874    77.2227403919307     0.978112795499215    -8.38272548719837    0.978112795499215    -8.38272548719837    0.146214620423874    77.2227403919307     
29.5635054255021     0.147595547204885    77.1714934628518     0.977876317656959    -8.46280284174019    0.977876317656959    -8.46280284174019    0.147595547204885    77.1714934628518     
29.8509452600684     0.148988997067267    77.1192934802215     0.977635878205083    -8.54362190718854    0.977635878205083    -8.54362190718854    0.148988997067267    77.1192934802215     
30.1411798125584     0.150395066427401    77.0661359019569     0.977391407582872    -8.62518890641692    0.977391407582872    -8.62518890641692    0.150395066427401    77.0661359019569     
30.4342362554349     0.151813851963116    77.0120161383075     0.977142835076415    -8.70751009612094    0.977142835076415    -8.70751009612094    0.151813851963116    77.0120161383075     
30.7301420253532     0.153245450598682    76.9569295523356     0.976890088802984    -8.79059176644339    0.976890088802984    -8.79059176644339    0.153245450598682    76.9569295523356     
31.0289248257294     0.154689959489266    76.9008714604169     0.97663309569545     -8.87444024057792    0.97663309569545     -8.87444024057792    0.154689959489266    76.9008714604169     
31.3306126293343     0.156147476004816    76.8438371327617     0.9763717814866      -8.9590618743523     0.9763717814866      -8.9590618743523     0.156147476004816    76.8438371327617     
31.635233680912      0.157618097713346    76.7858217939581     0.976106070693392    -9.04446305578829    0.976106070693392    -9.04446305578829    0.157618097713346    76.7858217939581     
31.9428164998244     0.159101922363632    76.7268206235377     0.975835886601205    -9.13065020463929    0.975835886601205    -9.13065020463929    0.159101922363632    76.7268206235377     
32.2533898827215     0.160599047867296    76.6668287565638     0.975561151248037    -9.21762977190487    0.975561151248037    -9.21762977190487    0.160599047867296    76.6668287565638     
32.5669829062368     0.162109572280249    76.6058412842433     0.975281785408619    -9.30540823931999    0.975281785408619    -9.30540823931999    0.162109572280249    76.6058412842433     
32.8836249297101     0.16363359378351     76.5438532545625     0.974997708578629    -9.39399211882141    0.974997708578629    -9.39399211882141    0.16363359378351     76.5438532545625     
33.203345597936      0.165171210663359    76.4808596729475     0.97470883895879     -9.48338795198719    0.97470883895879     -9.48338795198719    0.165171210663359    76.4808596729475     
33.526174843939      0.166722521290818    76.416855502951      0.974415093438993    -9.57360230945103    0.974415093438993    -9.57360230945103    0.166722521290818    76.416855502951      
33.8521428917765     0.168287624100464    76.3518356669636     0.974116387582492    -9.66464179029012    0.974116387582492    -9.66464179029012    0.168287624100464    76.3518356669636     
34.1812802593681     0.169866617568517    76.285795046953      0.973812635609997    -9.75651302138496    0.973812635609997    -9.75651302138496    0.169866617568517    76.285795046953      
34.5136177613528     0.171459600190244    76.2187284852298     0.973503750383922    -9.84922265675221    0.973503750383922    -9.84922265675221    0.171459600190244    76.2187284852298     
34.8491865119737     0.173066670456609    76.150630785242      0.973189643392606    -9.94277737684821    0.973189643392606    -9.94277737684821    0.173066670456609    76.150630785242      
35.1880179279916     0.174687926830197    76.0814967123979     0.972870224734584    -10.0371838878433    0.972870224734584    -10.0371838878433    0.174687926830197    76.0814967123979     
35.5301437316257     0.176323467720368    76.011320994918      0.972545403102949    -10.1324489208664    0.972545403102949    -10.1324489208664    0.176323467720368    76.011320994918      
35.8755959535239     0.177973391457647    75.9400983247187     0.972215085769763    -10.2285792312182    0.972215085769763    -10.2285792312182    0.177973391457647    75.9400983247187     
36.2244069357613     0.179637796267327    75.8678233583244     0.971879178570613    -10.3255815975539    0.971879178570613    -10.3255815975539    0.179637796267327    75.8678233583244     
36.5766093348685     0.181316780242252    75.7944907178135     0.971537585889195    -10.4234628210323    0.971537585889195    -10.4234628210323    0.181316780242252    75.7944907178135     
36.9322361248886     0.183010441314803    75.7200949917957     0.971190210642076    -10.5222297244333    0.971190210642076    -10.5222297244333    0.183010441314803    75.7200949917957     
37.2913206004647     0.184718877228032    75.6446307364224     0.970836954263558    -10.6218891512409    0.970836954263558    -10.6218891512409    0.184718877228032    75.6446307364224     
37.6538963799564     0.186442185505965    75.5680924764312     0.970477716690716    -10.7224479646923    0.970477716690716    -10.7224479646923    0.186442185505965    75.5680924764312     
38.0199974085881     0.188180463423013    75.490474706225      0.970112396348557    -10.8239130467903    0.970112396348557    -10.8239130467903    0.188180463423013    75.490474706225      
38.3896579616263     0.189933807972542    75.4117718909868     0.969740890135434    -10.9262912972822    0.969740890135434    -10.9262912972822    0.189933807972542    75.4117718909868     
38.7629126475889     0.191702315834511    75.3319784678298     0.969363093408576    -11.0295896325993    0.969363093408576    -11.0295896325993    0.191702315834511    75.3319784678298     
39.1397964114853     0.19348608334222     75.2510888469856     0.968978899969898    -11.1338149847607    0.968978899969898    -11.1338149847607    0.19348608334222     75.2510888469856     
39.5203445380879     0.195285206448135    75.1690974130296     0.968588202052006    -11.2389743002376    0.968588202052006    -11.2389743002376    0.195285206448135    75.1690974130296     
39.9045926552356     0.19709978068876     75.0859985261446     0.968190890304498    -11.3450745387792    0.968190890304498    -11.3450745387792    0.19709978068876     75.0859985261446     
40.2925767371694     0.198929901148561    75.0017865234249     0.967786853780471    -11.4521226721976    0.967786853780471    -11.4521226721976    0.198929901148561    75.0017865234249     
40.6843331079006     0.200775662422934    74.9164557202191     0.96737597992343     -11.5601256831134    0.96737597992343     -11.5601256831134    0.200775662422934    74.9164557202191     
41.079898444611      0.202637158580166    74.8300004115153     0.966958154554407    -11.6690905636582    0.966958154554407    -11.6690905636582    0.202637158580166    74.8300004115153     
41.4793097810873     0.204514483122413    74.7424148733673     0.966533261859477    -11.7790243141356    0.966533261859477    -11.7790243141356    0.204514483122413    74.7424148733673     
41.8826045111878     0.206407728945662    74.6536933643634     0.966101184377623    -11.8899339416385    0.966101184377623    -11.8899339416385    0.206407728945662    74.6536933643634     
42.2898203923438     0.208316988298674    74.563830127139      0.965661802988999    -12.0018264586231    0.965661802988999    -12.0018264586231    0.208316988298674    74.563830127139      
42.700995549094      0.210242352740877    74.4728193899335     0.965214996903582    -12.1147088814365    0.965214996903582    -12.1147088814365    0.210242352740877    74.4728193899335     
43.1161684766544     0.212183913099214    74.3806553681918     0.964760643650254    -12.2285882288008    0.964760643650254    -12.2285882288008    0.212183913099214    74.3806553681918     
43.5353780445216     0.214141759423932    74.287332266212      0.964298619066396    -12.3434715202485    0.964298619066396    -12.3434715202485    0.214141759423932    74.287332266212      
43.9586635001127     0.216115980943276    74.1928442788403     0.963828797287902    -12.4593657745117    0.963828797287902    -12.4593657745117    0.216115980943276    74.1928442788403     
44.3860644724389     0.218106666017112    74.0971855932122     0.963351050739756    -12.5762780078635    0.963351050739756    -12.5762780078635    0.218106666017112    74.0971855932122     
44.8176209758164     0.22011390208945     74.0003503905431     0.96286525012715     -12.69421523241      0.96286525012715     -12.69421523241      0.22011390208945     74.0003503905431     
45.2533734136121     0.222137775639825    73.9023328479685     0.962371264427108    -12.8131844543311    0.962371264427108    -12.8131844543311    0.222137775639825    73.9023328479685     
45.6933625820264     0.224178372133614    73.8031271404316     0.961868960880857    -12.9331926720746    0.961868960880857    -12.9331926720746    0.224178372133614    73.8031271404316     
46.137629673913      0.226235775971152    73.7027274426257     0.961358204986645    -13.054246874494     0.961358204986645    -13.054246874494     0.226235775971152    73.7027274426257     
46.5862162826348     0.228310070435768    73.6011279309838     0.960838860493395    -13.1763540389384    0.960838860493395    -13.1763540389384    0.228310070435768    73.6011279309838     
47.0391644059586     0.230401337640633    73.4983227857236     0.960310789394953    -13.2995211292871    0.960310789394953    -13.2995211292871    0.230401337640633    73.4983227857236     
47.4965164499867     0.232509658474466    73.3943061929447     0.959773851925101    -13.4237550939314    0.959773851925101    -13.4237550939314    0.232509658474466    73.3943061929447     
47.9583152331272     0.234635112546074    73.2890723467786     0.959227906553325    -13.5490628637016    0.959227906553325    -13.5490628637016    0.234635112546074    73.2890723467786     
48.4246039901026     0.236777778127716    73.1826154515945     0.958672809981412    -13.6754513497393    0.958672809981412    -13.6754513497393    0.236777778127716    73.1826154515945     
48.8954263759977     0.238937732097301    73.0749297242606     0.958108417140823    -13.8029274413133    0.958108417140823    -13.8029274413133    0.238937732097301    73.0749297242606     
49.3708264703467     0.241115049879396    72.9660093964594     0.957534581191032    -13.9314980035796    0.957534581191032    -13.9314980035796    0.241115049879396    72.9660093964594     
49.8508487812598     0.24330980538506     72.8558487170618     0.956951153518687    -14.0611698752836    0.956951153518687    -14.0611698752836    0.24330980538506     72.8558487170618     
50.3355382495905     0.24552207095047     72.7444419545577     0.956357983737727    -14.1919498664044    0.956357983737727    -14.1919498664044    0.24552207095047     72.7444419545577     
50.824940253143      0.247751917274392    72.6317833995443     0.955754919690586    -14.3238447557409    0.955754919690586    -14.3238447557409    0.247751917274392    72.6317833995443     
51.31910061092       0.249999413354433    72.5178673672732     0.955141807450284    -14.4568612884385    0.955141807450284    -14.4568612884385    0.249999413354433    72.5178673672732     
51.8180655874134     0.252264626422124    72.4026882002574     0.954518491323687    -14.5910061734557    0.954518491323687    -14.5910061734557    0.252264626422124    72.4026882002574     
52.321881896935      0.254547621876818    72.2862402709358     0.953884813855859    -14.7262860809719    0.953884813855859    -14.7262860809719    0.254547621876818    72.2862402709358     
52.83059670799       0.256848463218382    72.1685179844014     0.953240615835502    -14.8627076397312    0.953240615835502    -14.8627076397312    0.256848463218382    72.1685179844014     
53.3442576476933     0.259167211978755    72.0495157811872     0.9525857363017      -15.000277434329     0.9525857363017      -15.000277434329     0.259167211978755    72.0495157811872     
53.8629128062285     0.261503927652292    71.9292281401145     0.9519200125518      -15.1390020024331    0.9519200125518      -15.1390020024331    0.261503927652292    71.9292281401145     
54.3866107413499     0.263858667624977    71.8076495812035     0.951243280150652    -15.2788878319448    0.951243280150652    -15.2788878319448    0.263858667624977    71.8076495812035     
54.9154004829289     0.266231487102462    71.684774668645      0.950555372941115    -15.4199413580964    0.950555372941115    -15.4199413580964    0.266231487102462    71.684774668645      
55.449331537544      0.268622439036982    71.5605980138347     0.949856123055999    -15.562168960486     0.949856123055999    -15.562168960486     0.268622439036982    71.5605980138347     
55.9884538931163     0.271031574053119    71.4351142784704     0.949145360931365    -15.7055769600491    0.949145360931365    -15.7055769600491    0.271031574053119    71.4351142784704     
56.5328180235885     0.273458940372481    71.3083181777119     0.948422915321365    -15.850171615967     0.948422915321365    -15.850171615967     0.273458940372481    71.3083181777119     
57.0824748936515     0.275904583737246    71.1802044834048     0.94768861331452     -15.9959591225097    0.94768861331452     -15.9959591225097    0.275904583737246    71.1802044834048     
57.6374759635151     0.278368547332657    71.0507680273665     0.946942280351613    -16.1429456058179    0.946942280351613    -16.1429456058179    0.278368547332657    71.0507680273665     
58.197873193726      0.280850871708448    70.9200037047363     0.946183740245183    -16.2911371206184    0.946183740245183    -16.2911371206184    0.280850871708448    70.9200037047363     
58.7637190500327     0.28335159469923     70.7879064773884     0.945412815200676    -16.4405396468771    0.945412815200676    -16.4405396468771    0.28335159469923     70.7879064773884     
59.3350665082972     0.285870751343852    70.6544713774099     0.944629325839276    -16.5911590863865    0.944629325839276    -16.5911590863865    0.285870751343852    70.6544713774099     
59.9119690594547     0.288408373803814    70.5196935106398     0.943833091222566    -16.7430012592911    0.943833091222566    -16.7430012592911    0.288408373803814    70.5196935106398     
60.4944807145218     0.290964491280684    70.3835680602726     0.943023928878933    -16.8960719005476    0.943023928878933    -16.8960719005476    0.290964491280684    70.3835680602726     
61.0826560096532     0.293539129932613    70.2460902905251     0.942201654831844    -17.0503766563225    0.942201654831844    -17.0503766563225    0.293539129932613    70.2460902905251     
61.6765500112469     0.296132312789951    70.1072555503657     0.941366083630046    -17.2059210803249    0.941366083630046    -17.2059210803249    0.296132312789951    70.1072555503657     
62.2762183211005     0.298744059670008    69.9670592773044     0.940517028379724    -17.3627106300792    0.940517028379724    -17.3627106300792    0.298744059670008    69.9670592773044     
62.8817170816162     0.301374387091017    69.8254970012475     0.939654300778661    -17.5207506631327    0.939654300778661    -17.5207506631327    0.301374387091017    69.8254970012475     
63.4931029810568     0.304023308185295    69.6825643484116     0.938777711152445    -17.6800464332024    0.938777711152445    -17.6800464332024    0.304023308185295    69.6825643484116     
64.1104332588539     0.306690832611693    69.5382570452986     0.937887068492796    -17.8406030862607    0.937887068492796    -17.8406030862607    0.306690832611693    69.5382570452986     
64.733765710966      0.309376966467369    69.3925709227318     0.936982180498047    -18.0024256565605    0.936982180498047    -18.0024256565605    0.309376966467369    69.3925709227318     
65.3631586952894     0.312081712198917    69.2455019199496     0.936062853615834    -18.1655190625997    0.936062853615834    -18.1655190625997    0.312081712198917    69.2455019199496     
65.9986711371226     0.314805068512921    69.0970460887596     0.935128893088018    -18.3298881030276    0.935128893088018    -18.3298881030276    0.314805068512921    69.0970460887596     
66.6403625346824     0.317547030286008    68.9471995977471     0.93418010299796     -18.4955374524942    0.93418010299796     -18.4955374524942    0.317547030286008    68.9471995977471     
67.2882929646743     0.320307588474396    68.7959587365433     0.933216286320075    -18.6624716574403    0.933216286320075    -18.6624716574403    0.320307588474396    68.7959587365433     
67.9425230879173     0.32308673002308     68.643319920146      0.93223724497183     -18.8306951318343    0.93223724497183     -18.8306951318343    0.32308673002308     68.643319920146      
68.6031141550228     0.325884437774674    68.4892796932953     0.931242779868163    -19.0002121528538    0.931242779868163    -19.0002121528538    0.325884437774674    68.4892796932953     
69.2701280121296     0.328700690377974    68.3338347349006     0.930232690978391    -19.1710268565143    0.930232690978391    -19.1710268565143    0.328700690377974    68.3338347349006     
69.9436271066931     0.331535462196337    68.1769818625204     0.929206777385641    -19.3431432332464    0.929206777385641    -19.3431432332464    0.331535462196337    68.1769818625204     
70.6236744933327     0.334388723215949    68.0187180368885     0.928164837348852    -19.5165651234241    0.928164837348852    -19.5165651234241    0.334388723215949    68.0187180368885     
71.310333839735      0.337260438954028    67.8590403664903     0.927106668367364    -19.6912962128436    0.927106668367364    -19.6912962128436    0.337260438954028    67.8590403664903     
72.0036694326138     0.340150570367105    67.6979461121825     0.926032067248206    -19.8673400281586    0.926032067248206    -19.8673400281586    0.340150570367105    67.6979461121825     
72.7037461837297     0.343059073759404    67.5354326918572     0.924940830176022    -20.0446999322687    0.924940830176022    -20.0446999322687    0.343059073759404    67.5354326918572     
73.4106296359669     0.345985900691441    67.3714976851479     0.923832752785697    -20.2233791196679    0.923832752785697    -20.2233791196679    0.345985900691441    67.3714976851479     
74.124385969469      0.34893099788895     67.2061388381739     0.922707630237811    -20.4033806117529    0.922707630237811    -20.4033806117529    0.34893099788895     67.2061388381739     
74.8450820078359     0.351894307152193    67.0393540683204     0.921565257296786    -20.5847072520943    0.921565257296786    -20.5847072520943    0.351894307152193    67.0393540683204     
75.5727852243794     0.354875765265798    66.8711414690545     0.920405428411914    -20.7673617016732    0.920405428411914    -20.7673617016732    0.354875765265798    66.8711414690545     
76.3075637484404     0.357875303909164    66.7014993147716     0.919227937801167    -20.9513464340857    0.919227937801167    -20.9513464340857    0.357875303909164    66.7014993147716     
77.0494863717669     0.360892849567631    66.5304260656709     0.918032579537901    -21.1366637307187    0.918032579537901    -21.1366637307187    0.360892849567631    66.5304260656709     
77.7986225549551     0.363928323444435    66.3579203726545     0.916819147640418    -21.3233156758997    0.916819147640418    -21.3233156758997    0.363928323444435    66.3579203726545     
78.5550424339522     0.366981641373603    66.1839810822526     0.915587436164424    -21.5113041520229    0.915587436164424    -21.5113041520229    0.366981641373603    66.1839810822526     
79.3188168266227     0.370052713733916    66.0086072415642     0.914337239298414    -21.7006308346562    0.914337239298414    -21.7006308346562    0.370052713733916    66.0086072415642     
80.0900172393781     0.373141445364033    65.8317981032156     0.913068351461942    -21.8912971876322    0.913068351461942    -21.8912971876322    0.373141445364033    65.8317981032156     
80.8687158738725     0.376247735478906    65.653553130331      0.911780567406848    -22.0833044581258    0.911780567406848    -22.0833044581258    0.376247735478906    65.653553130331      
81.6549856337614     0.379371477587639    65.4738720015097     0.91047368232141     -22.2766536717241    0.91047368232141     -22.2766536717241    0.379371477587639    65.4738720015097     
82.4489001315274     0.382512559412854    65.2927546158112     0.909147491937391    -22.4713456274892    0.909147491937391    -22.4713456274892    0.382512559412854    65.2927546158112     
83.250533695372      0.385670862811791    65.110201097737      0.907801792640034    -22.6673808930221    0.907801792640034    -22.6673808930221    0.385670862811791    65.110201097737      
84.0599613761747     0.388846263699191    64.9262118022115     0.90643638158099     -22.8647597995289    0.90643638158099     -22.8647597995289    0.388846263699191    64.9262118022115     
84.8772589545188     0.392038631972136    64.7407873195539     0.905051056794073    -23.0634824368936    0.905051056794073    -23.0634824368936    0.392038631972136    64.7407873195539     
85.7025029477866     0.395247831437019    64.5539284804375     0.903645617313999    -23.2635486487648    0.903645617313999    -23.2635486487648    0.395247831437019    64.5539284804375     
86.5357706173231     0.398473719738709    64.3656363608315     0.902219863297858    -23.4649580276578    0.902219863297858    -23.4649580276578    0.398473719738709    64.3656363608315     
87.3771399756692     0.401716148292132    64.1759122869229     0.900773596149504    -23.6677099100775    0.900773596149504    -23.6677099100775    0.401716148292132    64.1759122869229     
88.2266897938659     0.40497496221638     63.9847578400075     0.899306618646707    -23.87180337167      0.899306618646707    -23.87180337167      0.40497496221638     63.9847578400075     
89.0844996088283     0.408250000271494    63.7921748613538     0.897818735071041    -24.0772372224033    0.897818735071041    -24.0772372224033    0.408250000271494    63.7921748613538     
89.9506497307926     0.411541094798103    63.5981654570256     0.896309751340526    -24.2840100017859    0.896309751340526    -24.2840100017859    0.411541094798103    63.5981654570256     
90.8252212508349     0.414848071660025    63.4027320026643     0.894779475144832    -24.4921199741274    0.894779475144832    -24.4921199741274    0.414848071660025    63.4027320026643     
91.7082960484627     0.418170750190041    63.2058771482222     0.893227716083216    -24.7015651238468    0.893227716083216    -24.7015651238468    0.418170750190041    63.2058771482222     
92.5999567992814     0.421508943138944    63.0076038226422     0.891654285804859    -24.9123431508333    0.891654285804859    -24.9123431508333    0.421508943138944    63.0076038226422     
93.5002869827339     0.424862456628068    62.8079152384781     0.890058998151768    -25.1244514658679    0.890058998151768    -25.1244514658679    0.424862456628068    62.8079152384781     
94.4093708899164     0.428231090105414    62.6068148964493     0.88844166930402     -25.3378871861071    0.88844166930402     -25.3378871861071    0.428231090105414    62.6068148964493     
95.32729363147       0.431614636305569    62.404306589923      0.88680211792734     -25.5526471306419    0.88680211792734     -25.5526471306419    0.431614636305569    62.404306589923      
96.2541411455493     0.435012881213533    62.2003944093213     0.88514016532286     -25.7687278161289    0.88514016532286     -25.7687278161289    0.435012881213533    62.2003944093213     
97.1900002058669     0.438425604032669    61.9950827464413     0.88345563557905     -25.9861254525094    0.88345563557905     -25.9861254525094    0.438425604032669    61.9950827464413     
98.134958429819      0.441852577156871    61.7883762986866     0.88174835572565     -26.2048359388152    0.88174835572565     -26.2048359388152    0.441852577156871    61.7883762986866     
99.0891042866874     0.445293566147154    61.5802800732026     0.880018155889506    -26.4248548590722    0.880018155889506    -26.4248548590722    0.445293566147154    61.5802800732026     
100.052527105922     0.448748329712809    61.3707993909057     0.878264869452217    -26.6461774783066    0.878264869452217    -26.6461774783066    0.448748329712809    61.3707993909057     
101.025317085505     0.452216619697276    61.1599398904061     0.876488333209459    -26.8687987386612    0.876488333209459    -26.8687987386612    0.452216619697276    61.1599398904061     
102.007565300394     0.455698181068851    60.9477075318114     0.874688387531836    -27.092713255625     0.874688387531836    -27.092713255625     0.455698181068851    60.9477075318114     
102.999363711052     0.459192751916477    60.7341086004075     0.872864876527145    -27.3179153143903    0.872864876527145    -27.3179153143903    0.459192751916477    60.7341086004075     
104.00080517205      0.462700063450643    60.5191497102095     0.871017648203918    -27.5443988663357    0.871017648203918    -27.5443988663357    0.462700063450643    60.5191497102095     
105.011983440769     0.466219840009627    60.3028378073746     0.86914655463606     -27.7721575256481    0.86914655463606     -27.7721575256481    0.466219840009627    60.3028378073746     
106.032993186172     0.469751799071183    60.0851801734721     0.86725145212843     -28.0011845660869    0.86725145212843     -28.0011845660869    0.469751799071183    60.0851801734721     
107.063929997668     0.473295651269828    59.8661844286011     0.865332201383245    -28.2314729179002    0.865332201383245    -28.2314729179002    0.473295651269828    59.8661844286011     
108.104890394063     0.476851100419838    59.6458585343507     0.86338866766706     -28.4630151648966    0.86338866766706     -28.4630151648966    0.476851100419838    59.6458585343507     
109.155971832595     0.4804178435441      59.424210796597      0.861420720978192    -28.695803541682     0.861420720978192    -28.695803541682     0.4804178435441      59.424210796597      
110.217272718058     0.483995570908972    59.2012498681239     0.859428236214446    -28.9298299310706    0.859428236214446    -28.9298299310706    0.483995570908972    59.2012498681239     
111.288892412018     0.487583966065188    58.9769847510703     0.857411093340794    -29.1650858616683    0.857411093340794    -29.1650858616683    0.487583966065188    58.9769847510703     
112.370931242108     0.491182705894995    58.7514247991893     0.855369177557013    -29.4015625056464    0.855369177557013    -29.4015625056464    0.491182705894995    58.7514247991893     
113.463490511431     0.494791460665625    58.5245797199124     0.853302379464962    -29.6392506767056    0.853302379464962    -29.6392506767056    0.494791460665625    58.5245797199124     
114.566672508035     0.498409894089115    58.2964595762213     0.851210595235208    -29.8781408282362    0.851210595235208    -29.8781408282362    0.498409894089115    58.2964595762213     
115.680580514497     0.502037663388716    58.0670747883058     0.849093726773029    -30.1182230516886    0.849093726773029    -30.1182230516886    0.502037663388716    58.0670747883058     
116.805318817585     0.505674419371787    57.8364361350165     0.846951681883275    -30.3594870751498    0.846951681883275    -30.3594870751498    0.505674419371787    57.8364361350165     
117.94099271803      0.509319806509452    57.6045547550933     0.844784374434144    -30.6019222621434    0.844784374434144    -30.6019222621434    0.509319806509452    57.6045547550933     
119.087708540377     0.512973463022898    57.3714421481727     0.842591724519356    -30.84551761065      0.842591724519356    -30.84551761065      0.512973463022898    57.3714421481727     
120.245573642944     0.516635020976527    57.1371101755605     0.840373658618776    -31.090261752362     0.840373658618776    -31.090261752362     0.516635020976527    57.1371101755605     
121.414696427871     0.520304106377865    56.901571060772      0.838130109757005    -31.3361429521704    0.838130109757005    -31.3361429521704    0.520304106377865    56.901571060772      
122.59518635127      0.523980339284448    56.6648373898217     0.835861017659828    -31.5831491079004    0.835861017659828    -31.5831491079004    0.523980339284448    56.6648373898217     
123.787153933472     0.527663333917504    56.4269221112719     0.833566328908248    -31.83126775029      0.833566328908248    -31.83126775029      0.527663333917504    56.4269221112719     
124.990710769374     0.531352698782597    56.1878385360237     0.831245997089809    -32.080486043223     0.831245997089809    -32.080486043223     0.531352698782597    56.1878385360237     
126.205969538887     0.535048036797218    55.9476003368472     0.828899982947014    -32.3307907842238    0.828899982947014    -32.3307907842238    0.535048036797218    55.9476003368472     
127.433044017485     0.538748945425251    55.7062215476503     0.826528254522566    -32.5821684052123    0.826528254522566    -32.5821684052123    0.538748945425251    55.7062215476503     
128.67204908686      0.54245501681837     55.4637165624772     0.8241307873011      -32.8346049735297    0.8241307873011      -32.8346049735297    0.54245501681837     55.4637165624772     
129.923100745671     0.546165837964286    55.2201001342341     0.821707564347278    -33.088086193235     0.821707564347278    -33.088086193235     0.546165837964286    55.2201001342341     
131.18631612041      0.549880990841859    54.9753873731357     0.819258576439905    -33.3425974066806    0.819258576439905    -33.3425974066806    0.549880990841859    54.9753873731357     
132.461813476367     0.553600052582946    54.7295937448739     0.816783822201795    -33.5981235963663    0.816783822201795    -33.5981235963663    0.553600052582946    54.7295937448739     
133.749712228697     0.557322595641024    54.4827350684969     0.814283308225191    -33.8546493870803    0.814283308225191    -33.8546493870803    0.557322595641024    54.4827350684969     
135.050132953607     0.561048187966371    54.2348275140056     0.811757049192422    -34.1121590483238    0.811757049192422    -34.1121590483238    0.561048187966371    54.2348275140056     
136.363197399641     0.564776393187845    53.9858875996559     0.809205067991561    -34.370636497029     0.809205067991561    -34.370636497029     0.564776393187845    53.9858875996559     
137.689028499077     0.56850677080109     53.7359321889689     0.806627395826885    -34.6300653005677    0.806627395826885    -34.6300653005677    0.56850677080109     53.7359321889689     
139.027750379442     0.572238876363061    53.4849784874447     0.804024072323796    -34.8904286800563    0.804024072323796    -34.8904286800563    0.572238876363061    53.4849784874447     
140.379488375124     0.575972261692704    53.2330440389836     0.801395145627986    -35.1517095139531    0.801395145627986    -35.1517095139531    0.575972261692704    53.2330440389836     
141.744369039115     0.579706475077728    52.9801467220035     0.79874067249869     -35.4138903419576    0.79874067249869     -35.4138903419576    0.579706475077728    52.9801467220035     
143.122520154854     0.583441061487249    52.7263047452619     0.796060718395642    -35.6769533692061    0.796060718395642    -35.6769533692061    0.583441061487249    52.7263047452619     
144.514070748193     0.587175562790088    52.4715366433808     0.793355357559621    -35.9408804707629    0.793355357559621    -35.9408804707629    0.587175562790088    52.4715366433808     
145.919151099474     0.590909517978705    52.2158612720654     0.790624673086346    -36.2056531964164    0.790624673086346    -36.2056531964164    0.590909517978705    52.2158612720654     
147.33789275573      0.594642463398344    51.9592978030332     0.787868756993421    -36.4712527757657    0.787868756993421    -36.4712527757657    0.594642463398344    51.9592978030332     
148.770428542996     0.59837393298139     51.7018657186377     0.785087710280244    -36.7376601236105    0.785087710280244    -36.7376601236105    0.59837393298139     51.7018657186377     
150.216892578749     0.602103458486559    51.443584806201      0.782281642980547    -37.0048558456324    0.782281642980547    -37.0048558456324    0.602103458486559    51.443584806201      
151.677420284461     0.60583056974279     51.1844751520491     0.779450674207553    -37.2728202443719    0.779450674207553    -37.2728202443719    0.60583056974279     51.1844751520491     
153.15214839828      0.609554794897505    50.9245571352577     0.776594932191308    -37.5415333254954    0.776594932191308    -37.5415333254954    0.609554794897505    50.9245571352577     
154.641214987829     0.61327566066905     50.6638514211071     0.77371455430833     -37.8109748043509    0.77371455430833     -37.8109748043509    0.61327566066905     50.6638514211071     
156.144759463137     0.616992692603002    50.4023789542526     0.770809687103126    -38.0811241128088    0.770809687103126    -38.0811241128088    0.616992692603002    50.4023789542526     
157.662922589685     0.620705415332083    50.1401609516116     0.76788048630161     -38.3519604063843    0.76788048630161     -38.3519604063843    0.620705415332083    50.1401609516116     
159.195846501588     0.624413352839358    49.8772188949758     0.764927116816244    -38.6234625716348    0.764927116816244    -38.6234625716348    0.624413352839358    49.8772188949758     
160.743674714903     0.628116028724436    49.6135745233486     0.761949752742732    -38.8956092338303    0.761949752742732    -38.8956092338303    0.628116028724436    49.6135745233486     
162.306552141062     0.631812966472382    49.3492498250153     0.758948577348187    -39.168378764891     0.758948577348187    -39.168378764891     0.631812966472382    49.3492498250153     
163.884625100442     0.635503689724964    49.0842670293533     0.755923783050694    -39.4417492915844    0.755923783050694    -39.4417492915844    0.635503689724964    49.0842670293533     
165.478041336062     0.639187722553964    48.8186485983844     0.75287557139014     -39.715698703978     0.75287557139014     -39.715698703978     0.639187722553964    48.8186485983844     
167.086950027417     0.642864589736162    48.5524172180812     0.749804152990309    -39.9902046641388    0.749804152990309    -39.9902046641388    0.642864589736162    48.5524172180812     
168.711501804442     0.646533817029676    48.2855957894313     0.746709747512077    -40.2652446150732    0.746709747512077    -40.2652446150732    0.646533817029676    48.2855957894313     
170.351848761616     0.650194931451352    48.0182074192653     0.743592583597812    -40.5407957899024    0.743592583597812    -40.5407957899024    0.650194931451352    48.0182074192653     
172.008144472201     0.653847461554717    47.7502754108641     0.740452898806815    -40.8168352212576    0.740452898806815    -40.8168352212576    0.653847461554717    47.7502754108641     
173.68054400262      0.657490937708323    47.4818232543425     0.737290939541911    -41.0933397508981    0.737290939541911    -41.0933397508981    0.657490937708323    47.4818232543425     
175.369203926976     0.661124892373906    47.2128746168318     0.734106960967109    -41.3702860395295    0.734106960967109    -41.3702860395295    0.661124892373906    47.2128746168318     
177.074282341707     0.664748860384186    46.9434533324576     0.730901226916412    -41.6476505768257    0.730901226916412    -41.6476505768257    0.664748860384186    46.9434533324576     
178.795938880392     0.668362379219806    46.6735833921317     0.727674009793784    -41.925409691636     0.727674009793784    -41.925409691636     0.668362379219806    46.6735833921317     
180.534334728693     0.671964989285094    46.4032889331638     0.724425590464395    -42.2035395623708    0.724425590464395    -42.2035395623708    0.671964989285094    46.4032889331638     
182.289632639448     0.675556234182276    46.1325942287043     0.721156258137086    -42.4820162275562    0.721156258137086    -42.4820162275562    0.675556234182276    46.1325942287043     
184.061996947905     0.679135660983732    45.8615236770316     0.717866310238308    -42.7608155965426    0.717866310238308    -42.7608155965426    0.679135660983732    45.8615236770316     
185.851593587113     0.682702820501991    45.5901017906884     0.714556052277505    -43.0399134603625    0.714556052277505    -43.0399134603625    0.682702820501991    45.5901017906884     
187.658590103449     0.686257267557022    45.3183531854874     0.711225797704168    -43.3192855027194    0.711225797704168    -43.3192855027194    0.686257267557022    45.3183531854874     
189.483155672313     0.689798561240506    45.0463025693895     0.707875867756591    -43.5989073111017    0.707875867756591    -43.5989073111017    0.689798561240506    45.0463025693895     
191.32546111396      0.69332626517668     44.7739747312758     0.704506591302622    -43.8787543880027    0.704506591302622    -43.8787543880027    0.69332626517668     44.7739747312758     
193.185678909496     0.696839947779507    44.501394529611      0.701118304672426    -44.1588021622471    0.701118304672426    -44.1588021622471    0.696839947779507    44.501394529611      
195.063983217024     0.70033918250564     44.2285868810295     0.697711351483559    -44.4390260003941    0.697711351483559    -44.4390260003941    0.70033918250564     44.2285868810295     
196.96054988795      0.703823548102998    43.9555767488419     0.694286082458523    -44.7194012182196    0.694286082458523    -44.7194012182196    0.703823548102998    43.9555767488419     
198.875556483449     0.707292628854557    43.6823891314781     0.690842855234995    -44.9999030922591    0.690842855234995    -44.9999030922591    0.707292628854557    43.6823891314781     
200.809182291084     0.710746014816981    43.4090490508864     0.687382034168968    -45.2805068713944    0.687382034168968    -45.2805068713944    0.710746014816981    43.4090490508864     
202.761608341595     0.714183302053858    43.1355815408921     0.683903990131052    -45.5611877884792    0.683903990131052    -45.5611877884792    0.714183302053858    43.1355815408921     
204.733017425845     0.717604092863179    42.8620116355341     0.68040910029624     -45.8419210719854    0.68040910029624     -45.8419210719854    0.717604092863179    42.8620116355341     
206.723594111937     0.721007995998726    42.5883643573947     0.676897747927283    -46.1226819576545    0.676897747927283    -46.1226819576545    0.721007995998726    42.5883643573947     
208.73352476249      0.724394626885216    42.3146647059249     0.673370322152084    -46.4034457001528    0.673370322152084    -46.4034457001528    0.724394626885216    42.3146647059249     
210.762997552088     0.727763607826713    42.0409376457948     0.669827217735324    -46.6841875846993    0.669827217735324    -46.6841875846993    0.727763607826713    42.0409376457948     
212.812202484898     0.731114568208248    41.7672080952671     0.666268834844685    -46.9648829386695    0.666268834844685    -46.9648829386695    0.731114568208248    41.7672080952671     
214.881331412457     0.734447144690278    41.4935009146132     0.662695578811877    -47.2455071431548    0.662695578811877    -47.2455071431548    0.734447144690278    41.4935009146132     
216.970578051637     0.737760981395762    41.2198408945871     0.659107859888906    -47.5260356444627    0.659107859888906    -47.5260356444627    0.737760981395762    41.2198408945871     
219.080138002777     0.741055730089667    40.9462527449637     0.655506092999864    -47.8064439655511    0.655506092999864    -47.8064439655511    0.741055730089667    40.9462527449637     
221.210208767997     0.744331050350641    40.6727610831598     0.651890697488542    -48.0867077173775    0.651890697488542    -48.0867077173775    0.744331050350641    40.6727610831598     
223.360989769692     0.747586609734728    40.399390422946      0.648262096862258    -48.3668026101567    0.648262096862258    -48.3668026101567    0.747586609734728    40.399390422946      
225.532682369197     0.750822083930866    40.1261651632649     0.644620718532253    -48.6467044645099    0.644620718532253    -48.6467044645099    0.750822083930866    40.1261651632649     
227.725489885642     0.754037156908054    39.8531095771665     0.640966993550944    -48.9263892224941    0.640966993550944    -48.9263892224941    0.754037156908054    39.8531095771665     
229.939617614988     0.757231521054062    39.5802478008706     0.637301356346489    -49.2058329585043    0.637301356346489    -49.2058329585043    0.757231521054062    39.5802478008706     
232.175272849245     0.76040487730549     39.3076038229709     0.633624244454913    -49.48501189003      0.633624244454913    -49.48501189003      0.76040487730549     39.3076038229709     
234.432664895881     0.763556935269093    39.0352014737917     0.629936098250283    -49.7639023882591    0.629936098250283    -49.7639023882591    0.763556935269093    39.0352014737917     
236.712005097415     0.766687413334306    38.7630644149044     0.626237360673168    -50.0424809885184    0.626237360673168    -50.0424809885184    0.766687413334306    38.7630644149044     
239.013506851209     0.769796038776838    38.4912161288193     0.622528476957849    -50.3207244005378    0.622528476957849    -50.3207244005378    0.769796038776838    38.4912161288193     
241.33738562944      0.772882547853278    38.2196799088609     0.618809894358609    -50.5986095185282    0.618809894358609    -50.5986095185282    0.772882547853278    38.2196799088609     
243.683858999279     0.775946685886718    37.948478849234      0.615082061875448    -50.8761134310661    0.615082061875448    -50.8761134310661    0.775946685886718    37.948478849234      
246.053146643254     0.778988207343276    37.6776358352961     0.611345429979599    -51.1532134307708    0.611345429979599    -51.1532134307708    0.778988207343276    37.6776358352961     
248.445470379825     0.782006875899602    37.4071735340384     0.60760045033924     -51.4298870237691    0.60760045033924     -51.4298870237691    0.782006875899602    37.4071735340384     
250.861054184144     0.785002464501266    37.1371143847901     0.603847575545689    -51.7061119389356    0.603847575545689    -51.7061119389356    0.785002464501266    37.1371143847901     
253.300124209029     0.787974755412142    36.8674805901499     0.600087258840487    -51.981866136902     0.600087258840487    -51.981866136902     0.787974755412142    36.8674805901499     
255.762908806131     0.790923540254752    36.5982941071549     0.596319953843704    -52.2571278188273    0.596319953843704    -52.2571278188273    0.790923540254752    36.5982941071549     
258.249638547322     0.79384862004168     36.3295766386921     0.592546114283772    -52.5318754349226    0.592546114283772    -52.5318754349226    0.79384862004168     36.3295766386921     
260.760546246273     0.796749805198029    36.0613496251651     0.588766193729261    -52.8060876927172    0.588766193729261    -52.8060876927172    0.796749805198029    36.0613496251651     
263.295866980255     0.79962691557515     35.7936342364111     0.584980645322806    -53.0797435650719    0.584980645322806    -53.0797435650719    0.79962691557515     35.7936342364111     
265.855838112147     0.802479780455544    35.5264513638904     0.581189921517632    -53.3528222979179    0.581189921517632    -53.3528222979179    0.802479780455544    35.5264513638904     
268.440699312658     0.80530823854925     35.2598216131359     0.577394473816878    -53.6253034177302    0.577394473816878    -53.6253034177302    0.80530823854925     35.2598216131359     
271.050692582764     0.808112137981652    34.9937652964841     0.573594752516093    -53.8971667387185    0.573594752516093    -53.8971667387185    0.808112137981652    34.9937652964841     
273.686062276369     0.810891336273011    34.7283024260781     0.569791206449158    -54.1683923697422    0.569791206449158    -54.1683923697422    0.810891336273011    34.7283024260781     
276.347055123178     0.813645700309714    34.4634527071598     0.565984282737928    -54.4389607209314    0.565984282737928    -54.4389607209314    0.813645700309714    34.4634527071598     
279.033920251797     0.816375106307537    34.1992355316413     0.562174426545867    -54.7088525100277    0.562174426545867    -54.7088525100277    0.816375106307537    34.1992355316413     
281.746909213059     0.819079439766976    33.9356699719719     0.558362080835916    -54.9780487684234    0.558362080835916    -54.9780487684234    0.819079439766976    33.9356699719719     
284.486276003572     0.821758595420915    33.6727747752932     0.554547686132872    -55.2465308469102    0.554547686132872    -55.2465308469102    0.821758595420915    33.6727747752932     
287.252277089503     0.824412477174786    33.4105683578879     0.550731680290488    -55.5142804211292    0.550731680290488    -55.5142804211292    0.824412477174786    33.4105683578879     
290.045171430585     0.82704099803941     33.1490687999262     0.546914498263523    -55.7812794967203    0.546914498263523    -55.7812794967203    0.82704099803941     33.1490687999262     
292.865220504362     0.829644080056758    32.8882938405085     0.543096571884974    -56.047510414171     0.543096571884974    -56.047510414171     0.829644080056758    32.8882938405085     
295.712688330671     0.832221654218829    32.6282608730037     0.539278329648656    -56.3129558533638    0.539278329648656    -56.3129558533638    0.832221654218829    32.6282608730037     
298.587841496359     0.834773660379875    32.3689869406883     0.535460196497329    -56.5775988378199    0.535460196497329    -56.5775988378199    0.834773660379875    32.3689869406883     
301.49094918024      0.837300047162227    32.1104887326799     0.531642593616564    -56.8414227386434    0.531642593616564    -56.8414227386434    0.837300047162227    32.1104887326799     
304.422283178301     0.839800771855923    31.8527825801692     0.52782593823448     -57.1044112781615    0.52782593823448     -57.1044112781615    0.839800771855923    31.8527825801692     
307.382117929143     0.842275800312401    31.5958844529485     0.524010643427504    -57.3665485332632    0.524010643427504    -57.3665485332632    0.842275800312401    31.5958844529485     
310.370730539676     0.844725106832521    31.3398099562332     0.520197117932319    -57.6278189384412    0.520197117932319    -57.6278189384412    0.844725106832521    31.3398099562332     
313.388400811064     0.847148674049144    31.0845743277759     0.516385765964049    -57.888207288534     0.516385765964049    -57.888207288534     0.847148674049144    31.0845743277759     
316.435411264921     0.849546492804532    30.8301924352721     0.512576987040889    -58.147698741171     0.512576987040889    -58.147698741171     0.849546492804532    30.8301924352721     
319.512047169758     0.851918562022831    30.5766787740518     0.508771175815185    -58.4062788189274    0.508771175815185    -58.4062788189274    0.851918562022831    30.5766787740518     
322.618596567693     0.854264888577908    30.3240474650571     0.504968721911072    -58.6639334111845    0.504968721911072    -58.6639334111845    0.854264888577908    30.3240474650571     
325.755350301419     0.856585487156771    30.0723122531005     0.501170009768779    -58.9206487757058    0.501170009768779    -58.9206487757058    0.856585487156771    30.0723122531005     
328.92260204143      0.858880380118883    29.8214865054004     0.497375418495595    -59.1764115399267    0.497375418495595    -59.1764115399267    0.858880380118883    29.8214865054004     
332.12064831352      0.861149597351588    29.5715832103917     0.493585321723596    -59.4312087019641    0.493585321723596    -59.4312087019641    0.861149597351588    29.5715832103917     
335.34978852654      0.863393176121953    29.3226149768039     0.489800087474111    -59.6850276313505    0.489800087474111    -59.6850276313505    0.863393176121953    29.3226149768039     
338.610325000431     0.865611160925248    29.0745940330053     0.486020078028994    -59.9378560694949    0.486020078028994    -59.9378560694949    0.865611160925248    29.0745940330053     
341.90256299453      0.867803603330367    28.827532226606      0.482245649808665    -60.1896821298778    0.482245649808665    -60.1896821298778    0.867803603330367    28.827532226606      
345.226810736146     0.869970561822404    28.5814410243184     0.478477153256986    -60.4404942979793    0.478477153256986    -60.4404942979793    0.869970561822404    28.5814410243184     
348.583379449418     0.872112101642698    28.3363315120631     0.474714932732882    -60.6902814309549    0.474714932732882    -60.6902814309549    0.872112101642698    28.3363315120631     
351.972583384453     0.874228294626528    28.0922143953228     0.470959326408698    -60.9390327570543    0.470959326408698    -60.9390327570543    0.874228294626528    28.0922143953228     
355.394739846746     0.876319219038795    27.8490999997307     0.467210666175328    -61.186737874796     0.467210666175328    -61.186737874796     0.876319219038795    27.8490999997307     
358.85016922689      0.87838495940784     27.6069982718958     0.463469277553957    -61.4333867518969    0.463469277553957    -61.4333867518969    0.87838495940784     27.6069982718958     
362.339195030566     0.880425606357737    27.3659187804497     0.459735479614488    -61.6789697239694    0.459735479614488    -61.6789697239694    0.880425606357737    27.3659187804497     
365.862143908836     0.882441256439233    27.1258707173163     0.45600958490045     -61.923477492987     0.45600958490045     -61.923477492987     0.882441256439233    27.1258707173163     
369.419345688722     0.884432011959585    26.8868628991948     0.452291899360461    -62.1669011255239    0.452291899360461    -62.1669011255239    0.884432011959585    26.8868628991948     
373.011133404086     0.886397980811545    26.6489037692476     0.448582722286043    -62.4092320507807    0.448582722286043    -62.4092320507807    0.886397980811545    26.6489037692476     
376.637843326807     0.88833927630167     26.412001398993      0.444882346255798    -62.6504620583932    0.444882346255798    -62.6504620583932    0.88833927630167     26.412001398993      
380.299814998268     0.890256016978235    26.1761634903859     0.441191057085771    -62.8905832960407    0.441191057085771    -62.8905832960407    0.890256016978235    26.1761634903859     
383.997391261144     0.892148326458891    25.9413973780911     0.437509133785954    -63.1295882668501    0.437509133785954    -63.1295882668501    0.892148326458891    25.9413973780911     
387.730918291494     0.894016333258328    25.7077100319326     0.433836848522789    -63.3674698266102    0.433836848522789    -63.3674698266102    0.894016333258328    25.7077100319326     
391.500745631179     0.895860170616109    25.4751080595182     0.430174466587592    -63.6042211807974    0.430174466587592    -63.6042211807974    0.895860170616109    25.4751080595182     
395.307226220582     0.897679976324885    25.2435977090299     0.426522246370718    -63.8398358814225    0.426522246370718    -63.8398358814225    0.897679976324885    25.2435977090299     
399.150716431648     0.899475892559159    25.0131848721737     0.422880439341419    -64.0743078237013    0.422880439341419    -64.0743078237013    0.899475892559159    25.0131848721737     
403.03157610126      0.901248065704784    24.7838750872819     0.419249290033198    -64.3076312425592    0.419249290033198    -64.3076312425592    0.901248065704784    24.7838750872819     
406.950168564914     0.902996646189374    24.5556735425605     0.415629036034554    -64.5398007089738    0.415629036034554    -64.5398007089738    0.902996646189374    24.5556735425605     
410.906860690745     0.904721788313776    24.328585079476      0.412019907984988    -64.7708111261605    0.412019907984988    -64.7708111261605    0.904721788313776    24.328585079476      
414.902022913871     0.906423650084769    24.102614196272      0.40842212957612     -65.0006577256125    0.40842212957612     -65.0006577256125    0.906423650084769    24.102614196272      
418.936029271073     0.908102393049138    23.877765051614      0.40483591755775     -65.2293360629928    0.40483591755775     -65.2293360629928    0.908102393049138    23.877765051614      
423.009257435812     0.909758182129261    23.654041468348      0.401261481748757    -65.4568420138941    0.401261481748757    -65.4568420138941    0.909758182129261    23.654041468348      
427.122088753593     0.911391185460345    23.4314469373742     0.397699025052663    -65.6831717694623    0.397699025052663    -65.6831717694623    0.911391185460345    23.4314469373742     
431.274908277663     0.913001574229449    23.209984621622      0.39414874347769     -65.9083218318995    0.39414874347769     -65.9083218318995    0.913001574229449    23.209984621622      
435.468104805063     0.914589522516386    22.9896573601264     0.390610826161219    -66.1322890098419    0.390610826161219    -66.1322890098419    0.914589522516386    22.9896573601264     
439.702070913024     0.916155207136658    22.770467672192      0.387085455398415    -66.3550704136283    0.387085455398415    -66.3550704136283    0.916155207136658    22.770467672192      
443.977202995728     0.917698807486499    22.5524177616449     0.383572806674942    -66.5766634504554    0.383572806674942    -66.5766634504554    0.917698807486499    22.5524177616449     
448.293901301411     0.919220505390116    22.3355095211638     0.380073048703552    -66.7970658194307    0.380073048703552    -66.7970658194307    0.919220505390116    22.3355095211638     
452.652569969845     0.920720484949278    22.1197445366799     0.376586343464418    -67.0162755065278    0.376586343464418    -67.0162755065278    0.920720484949278    22.1197445366799     
457.053617070164     0.92219893239526     21.9051240918474     0.37311284624906     -67.2342907794449    0.37311284624906     -67.2342907794449    0.92219893239526     21.9051240918474     
461.497454639078     0.923656035943281    21.6916491725726     0.369652705707703    -67.4511101823755    0.369652705707703    -67.4511101823755    0.923656035943281    21.6916491725726     
465.98449871944      0.925091985649483    21.4793204715972     0.366206063899893    -67.6667325306938    0.366206063899893    -67.6667325306938    0.925091985649483    21.4793204715972     
470.515169399206     0.926506973270523    21.2681383931311     0.362773056348254    -67.8811569055596    0.362773056348254    -67.8811569055596    0.926506973270523    21.2681383931311     
475.089890850757     0.927901192125822    21.0581030575293     0.359353812095197    -68.0943826484452    0.359353812095197    -68.0943826484452    0.927901192125822    21.0581030575293     
479.709091370615     0.929274836962557    20.849214306005      0.355948453762456    -68.3064093555898    0.355948453762456    -68.3064093555898    0.929274836962557    20.849214306005      
484.37320341954      0.93062810382341     20.6414717053769     0.352557097613285    -68.5172368723858    0.352557097613285    -68.5172368723858    0.93062810382341     20.6414717053769     
489.08266366302      0.931961189917145    20.4348745528423     0.349179853617176    -68.7268652876966    0.349179853617176    -68.7268652876966    0.931961189917145    20.4348745528423     
493.837913012149     0.933274293492015    20.2294218807744     0.345816825516937    -68.9352949281128    0.345816825516937    -68.9352949281128    0.933274293492015    20.2294218807744     
498.639396664909     0.934567613712065    20.0251124615358     0.342468110898028    -69.1425263521472    0.342468110898028    -69.1425263521472    0.934567613712065    20.0251124615358     
503.487564147849     0.935841350536335    19.8219448123056     0.339133801259942    -69.348560344373     0.339133801259942    -69.348560344373     0.935841350536335    19.8219448123056     
508.382869358173     0.937095704600993    19.6199171999134     0.335813982089565    -69.5533979095054    0.335813982089565    -69.5533979095054    0.937095704600993    19.6199171999134     
513.325770606231     0.938330877104397    19.4190276456799     0.332508732936335    -69.7570402664293    0.332508732936335    -69.7570402664293    0.938330877104397    19.4190276456799     
518.316730658433     0.939547069695133    19.2192739302538     0.329218127489078    -69.9594888421767    0.329218127489078    -69.9594888421767    0.939547069695133    19.2192739302538     
523.356216780567     0.940744484362986    19.020653598447      0.325942233654379    -70.1607452658506    0.325942233654379    -70.1607452658506    0.940744484362986    19.020653598447      
528.444700781552     0.94192332333289     18.8231639640595     0.322681113636394    -70.3608113625023    0.322681113636394    -70.3608113625023    0.94192332333289     18.8231639640595     
533.582659057606     0.943083788961834    18.6268021146928     0.319434824017939    -70.5596891469568    0.319434824017939    -70.5596891469568    0.943083788961834    18.6268021146928     
538.77057263685      0.944226083638712    18.4315649165477     0.316203415842739    -70.7573808175917    0.316203415842739    -70.7573808175917    0.944226083638712    18.4315649165477     
544.00892722434      0.945350409687123    18.237449019202      0.312986934698756    -70.9538887500659    0.312986934698756    -70.9538887500659    0.945350409687123    18.237449019202      
549.298213247544     0.946456969271106    18.0444508603663     0.309785420802425    -71.1492154909993    0.309785420802425    -71.1492154909993    0.946456969271106    18.0444508603663     
554.638925902251     0.947545964303779    17.8525666706129     0.30659890908374     -71.3433637516041    0.30659890908374     -71.3433637516041    0.947545964303779    17.8525666706129     
560.03156519894      0.94861759635887     17.6617924780765     0.303427429272036    -71.5363364012625    0.303427429272036    -71.5363364012625    0.94861759635887     17.6617924780765     
565.476636009585     0.949672066585129    17.4721241131234     0.300271005982385    -71.7281364610531    0.300271005982385    -71.7281364610531    0.949672066585129    17.4721241131234     
570.974648114926     0.950709575623574    17.2835572129848     0.297129658802518    -71.9187670972224    0.297129658802518    -71.9187670972224    0.950709575623574    17.2835572129848     
576.526116252199     0.951730323527559    17.0960872263539     0.294003402380125    -72.108231614599     0.294003402380125    -72.108231614599     0.951730323527559    17.0960872263539     
582.131560163318     0.952734509685627    16.909709417943      0.290892246510497    -72.2965334499472    0.290892246510497    -72.2965334499472    0.952734509685627    16.909709417943      
587.791504643545     0.953722332747104    16.724418872999      0.287796196224383    -72.4836761652562    0.287796196224383    -72.4836761652562    0.953722332747104    16.724418872999      
593.506479590613     0.954693990550432    16.5402105017735     0.284715251875971    -72.6696634409635    0.284715251875971    -72.6696634409635    0.954693990550432    16.5402105017735     
599.277020054345     0.95564968005415     16.357079043948      0.281649409230937    -72.8544990691036    0.281649409230937    -72.8544990691036    0.95564968005415     16.357079043948      
605.103666286739     0.95658959727055     16.1750190730098     0.278598659554451    -73.038186946381     0.278598659554451    -73.038186946381     0.95658959727055     16.1750190730098     
610.986963792553     0.957513937201898    15.9940250005784     0.275562989699072    -73.220731067159     0.275562989699072    -73.220731067159     0.957513937201898    15.9940250005784     
616.927463380375     0.958422893779233    15.8140910806796     0.27254238219247     -73.4021355163594    0.27254238219247     -73.4021355163594    0.958422893779233    15.8140910806796     
622.925721214188     0.959316659803672    15.6352114139672     0.269536815324874    -73.5824044622654    0.269536815324874    -73.5824044622654    0.959316659803672    15.6352114139672     
628.982298865447     0.960195426890179    15.4573799518883     0.266546263236219    -73.76154214922      0.266546263236219    -73.76154214922      0.960195426890179    15.4573799518883     
635.097763365645     0.961059385413755    15.2805905007946     0.263570696002888    -73.9395528902106    0.263570696002888    -73.9395528902106    0.961059385413755    15.2805905007946     
641.272687259408     0.961908724458006    15.1048367259939     0.260610079724003    -74.1164410593334    0.260610079724003    -74.1164410593334    0.961908724458006    15.1048367259939     
647.507648658092     0.96274363176603     14.9301121557447     0.257664376607218    -74.2922110841222    0.257664376607218    -74.2922110841222    0.96274363176603     14.9301121557447     
653.803231293911     0.96356429369358     14.7564101851917     0.254733545053936    -74.4668674377348    0.254733545053936    -74.4668674377348    0.96356429369358     14.7564101851917     
660.160024574588     0.964370895164458    14.5837240802381     0.251817539743917    -74.6404146309839    0.251817539743917    -74.6404146309839    0.964370895164458    14.5837240802381     
666.578623638533     0.965163619628078    14.41204698136       0.24891631171921     -74.8128572041969    0.24891631171921     -74.8128572041969    0.965163619628078    14.41204698136       
673.059629410564     0.965942649019159    14.2413719073563     0.246029808467377    -74.9841997188931    0.246029808467377    -74.9841997188931    0.965942649019159    14.2413719073563     
679.603648658167     0.966708163719487    14.0716917590367     0.243157974003961    -75.154446749261     0.243157974003961    -75.154446749261     0.966708163719487    14.0716917590367     
686.211294048302     0.967460342521702    13.9029993228475     0.240300748954146    -75.3236028734179    0.240300748954146    -75.3236028734179    0.967460342521702    13.9029993228475     
692.88318420476      0.968199362595054    13.7352872744315     0.237458070633586    -75.491672664437     0.237458070633586    -75.491672664437     0.968199362595054    13.7352872744315     
699.619943766089     0.96892539945308     13.5685481821254     0.234629873128365    -75.658660681117     0.234629873128365    -75.658660681117     0.96892539945308     13.5685481821254     
706.422203444063     0.969638626923147    13.4027745103921     0.231816087374033    -75.824571458476     0.231816087374033    -75.824571458476     0.969638626923147    13.4027745103921     
713.290600082739     0.970339217117807    13.2379586231892     0.229016641233724    -75.9894094979445    0.229016641233724    -75.9894094979445    0.970339217117807    13.2379586231892     
720.225776718074     0.971027340407921    13.0740927872711     0.226231459575294    -76.1531792572335    0.226231459575294    -76.1531792572335    0.971027340407921    13.0740927872711     
727.228382638132     0.971703165397497    12.9111691754274     0.223460464347471    -76.3158851398483    0.223460464347471    -76.3158851398483    0.971703165397497    12.9111691754274     
734.29907344387      0.97236685890018     12.7491798696566     0.220703574654992    -76.4775314842183    0.220703574654992    -76.4775314842183    0.97236685890018     12.7491798696566     
741.438511110518     0.973018585917366    12.5881168642729     0.217960706832695    -76.6381225524119    0.217960706832695    -76.6381225524119    0.973018585917366    12.5881168642729     
748.647364049551     0.973658509617863    12.4279720689505     0.215231774518563    -76.7976625183994    0.215231774518563    -76.7976625183994    0.973658509617863    12.4279720689505     
755.926307171273     0.974286791319075    12.2687373117014     0.212516688725675    -76.9561554558248    0.212516688725675    -76.9561554558248    0.974286791319075    12.2687373117014     
763.276021948001     0.97490359046964     12.1104043417903     0.209815357913099    -77.1136053252479    0.209815357913099    -77.1136053252479    0.97490359046964     12.1104043417903     
770.697196477865     0.975509064633481    11.952964832583      0.207127688055639    -77.2700159608077    0.207127688055639    -77.2700159608077    0.975509064633481    11.952964832583      
778.190525549231     0.976103369475219    11.7964103843335     0.204453582712512    -77.42539105626      0.204453582712512    -77.42539105626      0.976103369475219    11.7964103843335     
785.756710705746     0.976686658746911    11.6407325269052     0.201792943094858    -77.5797341503351    0.201792943094858    -77.5797341503351    0.976686658746911    11.6407325269052     
793.396460312025     0.977259084276045    11.4859227224298     0.199145668132145    -77.7330486113558    0.199145668132145    -77.7330486113558    0.977259084276045    11.4859227224298     
801.110489619961     0.977820795954763    11.3319723679042     0.196511654537432    -77.8853376210532    0.196511654537432    -77.8853376210532    0.977820795954763    11.3319723679042     
808.899520835695     0.978371941730264    11.1788727977229     0.193890796871465    -78.0366041575104    0.193890796871465    -78.0366041575104    0.978371941730264    11.1788727977229     
816.764283187229     0.978912667596332    11.0266152861512     0.191282987605664    -78.1868509771564    0.191282987605664    -78.1868509771564    0.978912667596332    11.0266152861512     
824.705512992695     0.979443117585954    10.8751910497346     0.188688117183924    -78.3360805957294    0.188688117183924    -78.3360805957294    0.979443117585954    10.8751910497346     
832.723953729297     0.979963433764981    10.7245912496497     0.186106074083295    -78.4842952681157    0.186106074083295    -78.4842952681157    0.979963433764981    10.7245912496497     
840.820356102912     0.980473756226792    10.5748069939932     0.183536744873498    -78.6314969669665    0.183536744873498    -78.6314969669665    0.980473756226792    10.5748069939932     
848.995478118375     0.980974223087914    10.4258293400127     0.180980014275301    -78.7776873599818    0.180980014275301    -78.7776873599818    0.980974223087914    10.4258293400127     
857.250085150444     0.981464970484558    10.2776492962774     0.178435765217767    -78.922867785741     0.178435765217767    -78.922867785741     0.981464970484558    10.2776492962774     
865.584950015459     0.981946132570036    10.1302578247923     0.175903878894351    -79.0670392279499    0.175903878894351    -79.0670392279499    0.981946132570036    10.1302578247923     
874.000853043689     0.982417841513015    9.98364584305321     0.173384234817873    -79.210202287955     0.173384234817873    -79.210202287955     0.982417841513015    9.98364584305321     
882.498582152398     0.982880227496562    9.83780422604668     0.170876710874384    -79.3523571553691    0.170876710874384    -79.3523571553691    0.982880227496562    9.83780422604668     
891.078932919602     0.983333418717966    9.69272380819234     0.168381183375905    -79.4935035766294    0.168381183375905    -79.4935035766294    0.983333418717966    9.69272380819234     
899.74270865856      0.983777541389261    9.5483953852312      0.165897527112076    -79.6336408212914    0.165897527112076    -79.6336408212914    0.983777541389261    9.5483953852312      
908.490720492976     0.984212719738459    9.4048097160596      0.163425615400724    -79.7727676458466    0.163425615400724    -79.7727676458466    0.984212719738459    9.4048097160596      
917.323787432946     0.984639076011421    9.26195752450831     0.160965320137337    -79.9108822548225    0.160965320137337    -79.9108822548225    0.984639076011421    9.26195752450831     
926.242736451627     0.985056730474347    9.11982950107001     0.158516511843505    -80.0479822589004    0.158516511843505    -80.0479822589004    0.985056730474347    9.11982950107001     
935.248402562666     0.985465801416853    8.97841630457432     0.15607905971429     -80.1840646297577    0.15607905971429     -80.1840646297577    0.985465801416853    8.97841630457432     
944.341628898376     0.985866405155601    8.83770856381179     0.153652831664591    -80.3191256513084    0.153652831664591    -80.3191256513084    0.985866405155601    8.83770856381179     
953.52326678867      0.98625865603844     8.69769687910673     0.151237694374482    -80.4531608669773    0.151237694374482    -80.4531608669773    0.98625865603844     8.69769687910673     
962.794175840765     0.98664266644904     8.5583718238422      0.148833513333584    -80.5861650226016    0.148833513333584    -80.5861650226016    0.98664266644904     8.5583718238422      
972.155224019659     0.987018546811986    8.4197239459346      0.146440152884446    -80.7181320045106    0.146440152884446    -80.7181320045106    0.987018546811986    8.4197239459346      
981.6072877294       0.987386405598291    8.28174376926167     0.144057476264989    -80.8490547722718    0.144057476264989    -80.8490547722718    0.987386405598291    8.28174376926167     
991.151251895121     0.987746349331309    8.14442179504306     0.141685345650049    -80.9789252855417    0.141685345650049    -80.9789252855417    0.987746349331309    8.14442179504306     
1000.78801004591     0.988098482593032    8.00774850317472     0.139323622191983    -81.1077344243817    0.139323622191983    -81.1077344243817    0.988098482593032    8.00774850317472     
1010.51846439844     0.988442908030718    7.87171435351879     0.136972166060464    -81.2354719023245    0.136972166060464    -81.2354719023245    0.988442908030718    7.87171435351879     
1020.34352594146     0.988779726363833    7.73630978714817     0.134630836481388    -81.3621261713865    0.134630836481388    -81.3621261713865    0.988779726363833    7.73630978714817     
1030.26411452107     0.989109036391296    7.60152522754853     0.132299491775017    -81.4876843181185    0.132299491775017    -81.4876843181185    0.989109036391296    7.60152522754853     
1040.28115892684     0.989430934998984    7.46735108177759     0.129977989393336    -81.6121319496667    0.129977989393336    -81.6121319496667    0.989430934998984    7.46735108177759     
1050.39559697878     0.989745517167485    7.33377774158208     0.127666185956682    -81.7354530686843    0.127666185956682    -81.7354530686843    0.989745517167485    7.33377774158208     
1060.60837561512     0.990052875980057    7.20079558447499     0.125363937289695    -81.8576299357754    0.125363937289695    -81.8576299357754    0.990052875980057    7.20079558447499     
1070.92045098097     0.990353102630804    7.06839497477162     0.123071098456616    -81.9786429179732    0.123071098456616    -81.9786429179732    0.990353102630804    7.06839497477162     
1081.33278851785     0.990646286433006    6.93656626458769     0.120787523795995    -82.0984703215458    0.120787523795995    -82.0984703215458    0.990646286433006    6.93656626458769     
1091.84636305407     0.990932514827618    6.80529979479894     0.118513066954873    -82.2170882071834    0.118513066954873    -82.2170882071834    0.990932514827618    6.80529979479894     
1102.46215889597     0.991211873391888    6.67458589596271     0.116247580922473    -82.3344701853383    0.116247580922473    -82.3344701853383    0.991211873391888    6.67458589596271     
1113.18116992013     0.991484445848105    6.54441488920415     0.113990918063481    -82.4505871891617    0.113990918063481    -82.4505871891617    0.991484445848105    6.54441488920415     
1124.00439966637     0.991750314072419    6.41477708706611     0.111742930151009    -82.5654072221022    0.111742930151009    -82.5654072221022    0.991750314072419    6.41477708706611     
1134.93286143171     0.992009558103755    6.28566279432441     0.109503468399279    -82.6788950767802    0.109503468399279    -82.6788950767802    0.992009558103755    6.28566279432441     
1145.96757836526     0.992262256152774    6.15706230876945     0.107272383496173    -82.7910120212291    0.107272383496173    -82.7910120212291    0.992262256152774    6.15706230876945     
1157.10958356399     0.992508484610874    6.02896592195439     0.105049525635722    -82.9017154479756    0.105049525635722    -82.9017154479756    0.992508484610874    6.02896592195439     
1168.35992016947     0.992748318059217    5.9013639199118      0.102834744550653    -83.0109584806952    0.102834744550653    -83.0109584806952    0.992748318059217    5.9013639199118      
1179.71964146551     0.992981829277757    5.77424658383793     0.100627889545169    -83.1186895323209    0.100627889545169    -83.1186895323209    0.992981829277757    5.77424658383793     
1191.18981097677     0.993209089254268    5.6476041907477      0.098428809528072    -83.2248518074383    0.098428809528072    -83.2248518074383    0.993209089254268    5.6476041907477      
1202.77150256835     0.993430167193337    5.52142701409855     0.096237353046439    -83.3293827405836    0.096237353046439    -83.3293827405836    0.993430167193337    5.52142701409855     
1214.46580054633     0.993645130525325    5.39570532438646     0.09405336832006     -83.4322133605747    0.09405336832006     -83.4322133605747    0.993645130525325    5.39570532438646     
1226.27379975925     0.993854044915278    5.2704293897141      0.09187670327689     -83.5332675692383    0.09187670327689     -83.5332675692383    0.993854044915278    5.2704293897141      
1238.19660570066     0.994056974271761    5.1455894763301      0.089707205589776    -83.632461320758     0.089707205589776    -83.632461320758     0.994056974271761    5.1455894763301      
1250.23533461256     0.99425398075562     5.02117584914409     0.087544722714847    -83.7297016852714    0.087544722714847    -83.7297016852714    0.99425398075562     5.02117584914409     
1262.39111358998     0.994445124788662    4.89717877221378     0.085389101931909    -83.8248857771968    0.085389101931909    -83.8248857771968    0.994445124788662    4.89717877221378     
1274.66508068643     0.994630465062206    4.77358850920926     0.083240190387386    -83.9178995249094    0.083240190387386    -83.9178995249094    0.994630465062206    4.77358850920926     
1287.0583850205      0.994810058545548    4.65039532385151     0.081097835140329    -84.0086162536642    0.081097835140329    -84.0086162536642    0.994810058545548    4.65039532385151     
1299.5721868834      0.994983960494278    4.5275894803286      0.078961883212206    -84.0968950478182    0.078961883212206    -84.0968950478182    0.994983960494278    4.5275894803286      
1312.20765784763     0.995152224458475    4.40516124368872     0.076832181641293    -84.182578851176     0.076832181641293    -84.182578851176     0.995152224458475    4.40516124368872     
1324.96598087664     0.995314902290741    4.28310088021205     0.074708577542683    -84.2654922552618    0.074708577542683    -84.2654922552618    0.995314902290741    4.28310088021205     
1337.84835043559     0.995472044154097    4.16139865776067     0.072590918175121    -84.3454389140248    0.072590918175121    -84.3454389140248    0.995472044154097    4.16139865776067     
1350.85597260317     0.995623698529694    4.0400448461092      0.070479051016216    -84.4221985092352    0.070479051016216    -84.4221985092352    0.995623698529694    4.0400448461092      
1363.99006518453     0.995769912224362    3.91902971725475     0.068372823847846    -84.495523172771     0.068372823847846    -84.495523172771     0.995769912224362    3.91902971725475     
1377.25185782528     0.995910730377971    3.79834354570951     0.066272084854145    -84.565133248929     0.066272084854145    -84.565133248929     0.995910730377971    3.79834354570951     
1390.64259212664     0.9960461964706      3.67797660877321     0.064176682734907    -84.630712250266     0.064176682734907    -84.630712250266     0.9960461964706      3.67797660877321     
1404.16352176163     0.996176352329512    3.55791918679049     0.062086466838152    -84.6919008221061    0.062086466838152    -84.6919008221061    0.996176352329512    3.55791918679049     
1417.81591259249     0.996301238135915    3.43816156338992     0.060001287316451    -84.748289480817     0.060001287316451    -84.748289480817     0.996301238135915    3.43816156338992     
1431.60104278919     0.996420892431512    3.31869402570769     0.057920995313       -84.7994098251456    0.057920995313       -84.7994098251456    0.996420892431512    3.31869402570769     
1445.52020294904     0.996535352124833    3.19950686459599     0.055845443185124    -84.8447238326248    0.055845443185124    -84.8447238326248    0.996535352124833    3.19950686459599     
1459.57469621761     0.99664465249734     3.08059037481707     0.053774484775204    -84.8836107362157    0.053774484775204    -84.8836107362157    0.99664465249734     3.08059037481707     
1473.76583841066     0.996748827209298    2.96193485522323     0.051707975742163    -84.915350818404     0.051707975742163    -84.915350818404     0.996748827209298    2.96193485522323     
1488.09495813734     0.996847908305404    2.84353060892351     0.049645773970892    -84.9391052442001    0.049645773970892    -84.9391052442001    0.996847908305404    2.84353060892351     
1502.56339692461     0.996941926220176    2.72536794343819     0.04758774008295     -84.9538907564167    0.04758774008295     -84.9538907564167    0.996941926220176    2.72536794343819     
1517.17250934282     0.997030909783095    2.60743717084155     0.045533738080075    -84.9585476398074    0.045533738080075    -84.9585476398074    0.997030909783095    2.60743717084155     
1531.92366313252     0.997114886223491    2.4897286078932      0.043483636163818    -84.9516987702373    0.043483636163818    -84.9516987702373    0.997114886223491    2.4897286078932      
1546.81823933251     0.997193881175161    2.37223257615932     0.041437307791396    -84.9316967168387    0.041437307791396    -84.9316967168387    0.997193881175161    2.37223257615932     
1561.85763240917     0.997267918680746    2.25493940212365     0.039394633052473    -84.8965546277831    0.039394633052473    -84.8965546277831    0.997267918680746    2.25493940212365     
1577.04325038696     0.997337021195818    2.13783941729008     0.037355500488059    -84.843854795158     0.037355500488059    -84.843854795158     0.997337021195818    2.13783941729008     
1592.37651498028     0.99740120959271     2.02092295827607     0.035319809527848    -84.7706260228144    0.035319809527848    -84.7706260228144    0.99740120959271     2.02092295827607     
1607.85886172657     0.997460503164073    1.90418036689891     0.033287473807441    -84.6731766509558    0.033287473807441    -84.6731766509558    0.997460503164073    1.90418036689891     
1623.49174012069     0.997514919626143    1.78760199025426     0.031258425760979    -84.546863366734     0.031258425760979    -84.546863366734     0.997514919626143    1.78760199025426     
1639.27661375065     0.997564475121749    1.67117818078867     0.029232623101563    -84.3857650802595    0.029232623101563    -84.3857650802595    0.997564475121749    1.67117818078867     
1655.21496043461     0.997609184223013    1.55489929636595     0.027210058161791    -84.1822131598771    0.027210058161791    -84.1822131598771    0.997609184223013    1.55489929636595     
1671.30827235928     0.997649059933789    1.43875570032856     0.025190771683265    -83.9260985899244    0.025190771683265    -83.9260985899244    0.997649059933789    1.43875570032856     
1687.55805621955     0.997684113691798    1.32273776155448     0.023174873736795    -83.6038222830269    0.023174873736795    -83.6038222830269    0.997684113691798    1.32273776155448     
1703.96583335962     0.997714355370483    1.20683585450968     0.021162576470445    -83.1966549209487    0.021162576470445    -83.1966549209487    0.997714355370483    1.20683585450968     
1720.5331399154      0.997739793280567    1.09104035929823     0.019154247271922    -82.6780808121077    0.019154247271922    -82.6780808121077    0.997739793280567    1.09104035929823     
1737.26152695832     0.997760434171324    0.97534166170882     0.017150498843794    -82.0093120336147    0.017150498843794    -82.0093120336147    0.997760434171324    0.97534166170882     
1754.15256064057     0.997776283231552    0.859730153260034    0.015152349817256    -81.1313248623205    0.015152349817256    -81.1313248623205    0.997776283231552    0.859730153260034    
1771.2078223417      0.997787344090256    0.744196231243636    0.013161529460286    -79.949844942527     0.013161529460286    -79.949844942527     0.997787344090256    0.744196231243636    
1788.4289088167      0.997793618817033    0.628730298767794    0.011181101911819    -78.3048655177906    0.011181101911819    -78.3048655177906    0.997793618817033    0.628730298767794    
1805.81743234546     0.997795107922158    0.513322764799918    0.009216876009607    -75.9027730726988    0.009216876009607    -75.9027730726988    0.997795107922158    0.513322764799918    
1823.37502088375     0.997791810356379    0.397964044209648    0.007281021635424    -72.1464018946521    0.007281021635424    -72.1464018946521    0.997791810356379    0.397964044209648    
1841.10331821561     0.997783723510417    0.28264455781371     0.005403069366023    -65.6420844737792    0.005403069366023    -65.6420844737792    0.997783723510417    0.28264455781371     
1859.00398410724     0.997770843214164    0.167354732422471    0.003671746240473    -52.535482640723     0.003671746240473    -52.535482640723     0.997770843214164    0.167354732422471    
1877.07869446243     0.997753163735591    0.052085000888347    0.002423385431713    -21.9794990761444    0.002423385431713    -21.9794990761444    0.997753163735591    0.052085000888347    
1895.32914147941     0.997730677779354    -0.063174197841801   0.002522456374701    25.8566257634283     0.002522456374701    25.8566257634283     0.997730677779354    -0.063174197841801   
1913.75703380932     0.997703376485117    -0.178432418671077   0.003866606584113    53.4720513160248     0.003866606584113    53.4720513160248     0.997703376485117    -0.178432418671077   
1932.36409671614     0.99767124942557     -0.293699210292632   0.005624757268975    65.3957475308015     0.005624757268975    65.3957475308015     0.99767124942557     -0.293699210292632   
1951.15207223825     0.997634284604165    -0.408984115124269   0.007511897385202    71.4390928327515     0.007511897385202    71.4390928327515     0.997634284604165    -0.408984115124269   
1970.12271935151     0.997592468452556    -0.524296669237706   0.009451423045892    74.9806072502851     0.009451423045892    74.9806072502851     0.997592468452556    -0.524296669237706   
1989.27781413392     0.997545785827753    -0.639646402281358   0.011417068825165    77.2671872304759     0.011417068825165    77.2671872304759     0.997545785827753    -0.639646402281358   
2008.61914993194     0.997494220008989    -0.75504283739656    0.013397780561125    78.8432365560299     0.013397780561125    78.8432365560299     0.997494220008989    -0.75504283739656    
2028.14853752836     0.997437752694307    -0.87049549112505    0.015388205620049    79.9802283981813     0.015388205620049    79.9802283981813     0.997437752694307    -0.87049549112505    
2047.86780531181     0.997376363996855    -0.986013873309833   0.017385492255693    80.8276795778425     0.017385492255693    80.8276795778425     0.997376363996855    -0.986013873309833   
2067.77879944801     0.997310032440922    -1.10160748698553    0.01938801993981     81.4744052823661     0.01938801993981     81.4744052823661     0.997310032440922    -1.10160748698553    
2087.88338405253     0.997238734957675    -1.21728582825972    0.021394829730767    81.9763706412635     0.021394829730767    81.9763706412635     0.997238734957675    -1.21728582825972    
2108.18344136537     0.997162446880645    -1.33305838618445    0.023405343350161    82.3705454421105     0.023405343350161    82.3705454421105     0.997162446880645    -1.33305838618445    
2128.68087192713     0.997081141940929    -1.44893464261593    0.025419213885906    82.6823109905262     0.025419213885906    82.6823109905262     0.997081141940929    -1.44893464261593    
2149.37759475702     0.99699479226214     -1.56492407206323    0.027436241499972    82.9296597310048     0.027436241499972    82.9296597310048     0.99699479226214     -1.56492407206323    
2170.27554753243     0.996903368355088    -1.68103614152427    0.02945632340014     83.1256955292486     0.02945632340014     83.1256955292486     0.996903368355088    -1.68103614152427    
2191.3766867704      0.996806839112208    -1.79728031030899    0.031479422876189    83.2801847584036     0.031479422876189    83.2801847584036     0.996806839112208    -1.79728031030899    
2212.6829880108      0.996705171801742    -1.91366602984873    0.033505549438714    83.4005529366373     0.033505549438714    83.4005529366373     0.996705171801742    -1.91366602984873    
2234.19644600124     0.996598332061665    -2.03020274349138    0.035534745681001    83.4925448272794     0.035534745681001    83.4925448272794     0.996598332061665    -2.03020274349138    
2255.91907488386     0.996486283893382    -2.14689988628108    0.037567078351629    83.5606733576072     0.037567078351629    83.5606733576072     0.996486283893382    -2.14689988628108    
2277.85290838388     0.996368989655182    -2.26376688472234    0.039602632143111    83.6085321031901     0.039602632143111    83.6085321031901     0.996368989655182    -2.26376688472234    
2300                 0.996246410055468    -2.38081315652754    0.04164150527851     83.639017334065      0.04164150527851     83.639017334065      0.996246410055468    -2.38081315652754    
