# MHz S MA R 50      
!Freq                MagS11               AngS11               MagS21               AngS21               MagS12               AngS12               MagS22               AngS22               
1                    0.487351984291339    45.0193829854501     0.740624986832138    -27.7395723591489    0.740624986832138    -27.7395723591489    0.487351984291339    45.0193829854501     
1.00577306300174     0.489284469899388    44.9627725901812     0.739592533366474    -27.8714360914442    0.739592533366474    -27.8714360914442    0.489284469899388    44.9627725901812     
1.0115794542599      0.491220992190745    44.9054386150416     0.738553381035195    -28.0037034786988    0.738553381035195    -28.0037034786988    0.491220992190745    44.9054386150416     
1.01741936618061     0.493161491506704    44.8473836465127     0.737507514094637    -28.1363728701453    0.737507514094637    -28.1363728701453    0.493161491506704    44.8473836465127     
1.02329299228075     0.495105907456991    44.7886103150183     0.736454917307492    -28.2694425753784    0.736454917307492    -28.2694425753784    0.495105907456991    44.7886103150183     
1.02920052719443     0.497054178922874    44.7291212949374     0.735395575951606    -28.4029108642148    0.735395575951606    -28.4029108642148    0.497054178922874    44.7291212949374     
1.03514216667934     0.499006244060475    44.6689193046116     0.734329475828765    -28.536775966561     0.734329475828765    -28.536775966561     0.499006244060475    44.6689193046116     
1.04111810762334     0.500962040304304    44.6080071063484     0.73325660327344     -28.6710360722868    0.73325660327344     -28.6710360722868    0.500962040304304    44.6080071063484     
1.0471285480509      0.502921504371042    44.5463875064161     0.732176945161526    -28.8056893311071    0.732176945161526    -28.8056893311071    0.502921504371042    44.5463875064161     
1.05317368712972     0.504884572263555    44.4840633550336     0.731090488919043    -28.9407338524714    0.731090488919043    -28.9407338524714    0.504884572263555    44.4840633550336     
1.05925372517729     0.506851179275122    44.4210375463547     0.729997222530786    -29.0761677054607    0.729997222530786    -29.0761677054607    0.506851179275122    44.4210375463547     
1.06536886366756     0.50882125999391     44.3573130184456     0.728897134548968    -29.2119889186911    0.728897134548968    -29.2119889186911    0.50882125999391     44.3573130184456     
1.07151930523761     0.510794748307696    44.2928927532555     0.727790214101777    -29.3481954802274    0.727790214101777    -29.3481954802274    0.510794748307696    44.2928927532555     
1.07770525369432     0.512771577408811    44.2277797765808     0.726676450901934    -29.484785337503     0.726676450901934    -29.484785337503     0.512771577408811    44.2277797765808     
1.0839269140212      0.514751679799353    44.1619771580219     0.725555835255152    -29.6217563972501    0.725555835255152    -29.6217563972501    0.514751679799353    44.1619771580219     
1.09018449238513     0.516734987296585    44.0954880109358     0.724428358068592    -29.7591065254345    0.724428358068592    -29.7591065254345    0.516734987296585    44.0954880109358     
1.09647819614319     0.51872143103864     44.0283154923774     0.72329401085919     -29.8968335472032    0.72329401085919     -29.8968335472032    0.51872143103864     44.0283154923774     
1.10280823384955     0.520710941490439    43.9604628030362     0.722152785761999    -30.0349352468382    0.722152785761999    -30.0349352468382    0.520710941490439    43.9604628030362     
1.1091748152624      0.522703448449843    43.8919331871667     0.721004675538396    -30.1734093677187    0.721004675538396    -30.1734093677187    0.522703448449843    43.8919331871667     
1.11557815135085     0.524698881054072    43.8227299325085     0.719849673584239    -30.3122536122932    0.719849673584239    -30.3122536122932    0.524698881054072    43.8227299325085     
1.12201845430196     0.526697167786371    43.7528563702002     0.718687773937982    -30.451465642061     0.718687773937982    -30.451465642061     0.526697167786371    43.7528563702002     
1.12849593752776     0.5286982364829      43.6823158746864     0.71751897128864     -30.5910430775611    0.71751897128864     -30.5910430775611    0.5286982364829      43.6823158746864     
1.13501081567232     0.530702014339901    43.6111118636153     0.716343260983735    -30.7309834983715    0.716343260983735    -30.7309834983715    0.530702014339901    43.6111118636153     
1.14156330461885     0.53270842792108     43.53924779773       0.715160639037086    -30.8712844431176    0.715160639037086    -30.8712844431176    0.53270842792108     43.53924779773       
1.14815362149688     0.534717403165282    43.4667271807497     0.713971102136571    -31.0119434094902    0.713971102136571    -31.0119434094902    0.534717403165282    43.4667271807497     
1.15478198468946     0.536728865394369    43.3935535592443     0.712774647651747    -31.1529578542729    0.712774647651747    -31.1529578542729    0.536728865394369    43.3935535592443     
1.16144861384034     0.538742739321364    43.3197305225007     0.711571273641355    -31.294325193378     0.711571273641355    -31.294325193378     0.538742739321364    43.3197305225007     
1.16815372986132     0.540758949058867    43.2452617023789     0.710360978860776    -31.436042801895     0.710360978860776    -31.436042801895     0.540758949058867    43.2452617023789     
1.17489755493953     0.542777418127669    43.1701507731624     0.709143762769288    -31.5781080141455    0.709143762769288    -31.5781080141455    0.542777418127669    43.1701507731624     
1.18168031254478     0.544798069465664    43.0944014513969     0.707919625537286    -31.7205181237509    0.707919625537286    -31.7205181237509    0.544798069465664    43.0944014513969     
1.18850222743702     0.546820825436966    43.0180174957233     0.706688568053337    -31.8632703837078    0.706688568053337    -31.8632703837078    0.546820825436966    43.0180174957233     
1.19536352567372     0.548845607841316    42.9410027066984     0.705450591931104    -32.0063620064765    0.705450591931104    -32.0063620064765    0.548845607841316    42.9410027066984     
1.20226443461741     0.550872337923678    42.8633609266102     0.704205699516166    -32.1497901640755    0.704205699516166    -32.1497901640755    0.550872337923678    42.8633609266102     
1.20920518294321     0.552900936384142    42.7850960392822     0.702953893892674    -32.2935519881905    0.702953893892674    -32.2935519881905    0.552900936384142    42.7850960392822     
1.21618600064637     0.554931323388026    42.7062119698677     0.701695178889878    -32.4376445702916    0.701695178889878    -32.4376445702916    0.554931323388026    42.7062119698677     
1.22320711904993     0.556963418576218    42.6267126846384     0.700429559088519    -32.5820649617605    0.700429559088519    -32.5820649617605    0.556963418576218    42.6267126846384     
1.23026877081238     0.558997141075803    42.5466021907594     0.699157039827056    -32.72681017403      0.699157039827056    -32.72681017403      0.558997141075803    42.5466021907594     
1.23737118993535     0.561032409510876    42.4658845360578     0.69787762720775     -32.8718771787325    0.69787762720775     -32.8718771787325    0.561032409510876    42.4658845360578     
1.24451461177139     0.563069142013627    42.3845638087807     0.696591328102558    -33.0172629078599    0.696591328102558    -33.0172629078599    0.563069142013627    42.3845638087807     
1.25169927303172     0.565107256235634    42.302644137345      0.695298150158927    -33.1629642539337    0.695298150158927    -33.1629642539337    0.565107256235634    42.302644137345      
1.25892541179417     0.56714666935942     42.2201296900753     0.693998101805355    -33.3089780701867    0.693998101805355    -33.3089780701867    0.56714666935942     42.2201296900753     
1.26619326751094     0.569187298110211    42.1370246749342     0.69269119225682     -33.4553011707548    0.69269119225682     -33.4553011707548    0.569187298110211    42.1370246749342     
1.27350308101666     0.57122905876794     42.0533333392428     0.691377431520018    -33.6019303308792    0.691377431520018    -33.6019303308792    0.57122905876794     42.0533333392428     
1.28085509453628     0.573271867179475    41.9690599693896     0.690056830398419    -33.7488622871212    0.690056830398419    -33.7488622871212    0.573271867179475    41.9690599693896     
1.28824955169313     0.57531563877105     41.884208890533      0.688729400497145    -33.8960937375852    0.688729400497145    -33.8960937375852    0.57531563877105     41.884208890533      
1.29568669751702     0.577360288560954    41.7987844662903     0.687395154227663    -34.0436213421559    0.687395154227663    -34.0436213421559    0.577360288560954    41.7987844662903     
1.3031667784523      0.579405731172403    41.7127910984191     0.686054104812263    -34.1914417227443    0.686054104812263    -34.1914417227443    0.579405731172403    41.7127910984191     
1.31069004236608     0.581451880846622    41.62623322649       0.684706266288366    -34.3395514635435    0.684706266288366    -34.3395514635435    0.581451880846622    41.62623322649       
1.31825673855641     0.583498651456184    41.539115327545      0.68335165351262     -34.4879471112998    0.68335165351262     -34.4879471112998    0.583498651456184    41.539115327545      
1.32586711776056     0.585545956518493    41.4514419157518     0.68199028216477     -34.6366251755898    0.68199028216477     -34.6366251755898    0.585545956518493    41.4514419157518     
1.33352143216332     0.587593709209521    41.3632175420427     0.680622168751375    -34.7855821291127    0.680622168751375    -34.7855821291127    0.587593709209521    41.3632175420427     
1.34121993540537     0.589641822377708    41.2744467937482     0.679247330609236    -34.9348144079898    0.679247330609236    -34.9348144079898    0.589641822377708    41.2744467937482     
1.34896288259165     0.591690208558079    41.1851342942179     0.677865785908676    -35.0843184120784    0.677865785908676    -35.0843184120784    0.591690208558079    41.1851342942179     
1.35675053029986     0.593738779986554    41.0952847024315     0.676477553656558    -35.2340905052948    0.676477553656558    -35.2340905052948    0.593738779986554    41.0952847024315     
1.36458313658892     0.595787448614422    41.0049027126013     0.675082653699085    -35.3841270159483    0.675082653699085    -35.3841270159483    0.595787448614422    41.0049027126013     
1.37246096100756     0.597836126123004    40.9139930537655     0.673681106724402    -35.5344242370859    0.673681106724402    -35.5344242370859    0.597836126123004    40.9139930537655     
1.38038426460288     0.59988472393852     40.8225604893683     0.672272934264935    -35.6849784268494    0.672272934264935    -35.6849784268494    0.59988472393852     40.8225604893683     
1.38835330992905     0.601933153247102    40.730609816833      0.670858158699506    -35.835785808843     0.670858158699506    -35.835785808843     0.601933153247102    40.730609816833      
1.39636836105594     0.603981325009969    40.6381458671247     0.6694368032552      -35.9868425725085    0.6694368032552      -35.9868425725085    0.603981325009969    40.6381458671247     
1.40442968357795     0.606029149978781    40.5451735043037     0.668008892009026    -36.138144873516     0.668008892009026    -36.138144873516     0.606029149978781    40.5451735043037     
1.41253754462275     0.60807653871116     40.4516976250674     0.666574449889305    -36.2896888341626    0.666574449889305    -36.2896888341626    0.60807653871116     40.4516976250674     
1.42069221286018     0.610123401586329    40.3577231582841     0.665133502676816    -36.4414705437821    0.665133502676816    -36.4414705437821    0.610123401586329    40.3577231582841     
1.4288939585111      0.612169648820925    40.263255064518      0.663686077005689    -36.5934860591651    0.663686077005689    -36.5934860591651    0.612169648820925    40.263255064518      
1.43714305335639     0.614215190484949    40.1682983355416     0.662232200364097    -36.7457314049907    0.662232200364097    -36.7457314049907    0.614215190484949    40.1682983355416     
1.44543977074593     0.616259936517831    40.0728579938429     0.660771901094587    -36.8982025742664    0.660771901094587    -36.8982025742664    0.616259936517831    40.0728579938429     
1.45378438560766     0.618303796744668    39.9769390921178     0.659305208394288    -37.0508955287821    0.659305208394288    -37.0508955287821    0.618303796744668    39.9769390921178     
1.46217717445672     0.62034668089252     39.8805467127603     0.65783215231474     -37.2038061995691    0.65783215231474     -37.2038061995691    0.62034668089252     39.8805467127603     
1.47061841540456     0.622388498606901    39.7836859673346     0.65635276376156     -37.3569304873756    0.65635276376156     -37.3569304873756    0.622388498606901    39.7836859673346     
1.47910838816821     0.624429159468299    39.686361996048      0.654867074493763    -37.5102642631448    0.654867074493763    -37.5102642631448    0.624429159468299    39.686361996048      
1.4876473740795      0.62646857300887     39.5885799672062     0.653375117122896    -37.6638033685102    0.653375117122896    -37.6638033685102    0.62646857300887     39.5885799672062     
1.49623565609443     0.628506648729192    39.4903450766641     0.651876925111841    -37.817543616296     0.651876925111841    -37.817543616296     0.628506648729192    39.4903450766641     
1.50487351880251     0.630543296115112    39.3916625472675     0.650372532773394    -37.9714807910288    0.650372532773394    -37.9714807910288    0.630543296115112    39.3916625472675     
1.51356124843621     0.632578424654697    39.2925376282845     0.648861975268547    -38.1256106494588    0.648861975268547    -38.1256106494588    0.632578424654697    39.2925376282845     
1.52229913288042     0.634611943855241    39.1929755948303     0.647345288604531    -38.2799289210906    0.647345288604531    -38.2799289210906    0.634611943855241    39.1929755948303     
1.53108746168203     0.63664376326034     39.0929817472828     0.64582250963255     -38.434431308721     0.64582250963255     -38.434431308721     0.63664376326034     39.0929817472828     
1.53992652605949     0.638673792467087    38.9925614106875     0.644293676045283    -38.5891134889925    0.644293676045283    -38.5891134889925    0.638673792467087    38.9925614106875     
1.54881661891248     0.640701941143223    38.8917199341591     0.642758826374076    -38.7439711129462    0.642758826374076    -38.7439711129462    0.640701941143223    38.8917199341591     
1.5577580348316      0.642728119044427    38.7904626902713     0.64121799998589     -38.8989998065915    0.64121799998589     -38.8989998065915    0.642728119044427    38.7904626902713     
1.56675107010815     0.644752236031625    38.6887950744384     0.639671237079963    -39.054195171482     0.639671237079963    -39.054195171482     0.644752236031625    38.6887950744384     
1.57579602274392     0.646774202088286    38.5867225042938     0.638118578684187    -39.209552785297     0.638118578684187    -39.209552785297     0.646774202088286    38.5867225042938     
1.58489319246111     0.648793927337823    38.4842504190544     0.636560066651234    -39.3650682024367    0.636560066651234    -39.3650682024367    0.648793927337823    38.4842504190544     
1.59404288071222     0.650811322060956    38.3813842788833     0.634995743654403    -39.5207369546209    0.634995743654403    -39.5207369546209    0.650811322060956    38.3813842788833     
1.60324539069004     0.65282629671312     38.2781295642412     0.633425653183164    -39.6765545514991    0.633425653183164    -39.6765545514991    0.65282629671312     38.2781295642412     
1.61250102733774     0.654838761941836    38.174491775235      0.631849839538466    -39.832516481264     0.631849839538466    -39.832516481264     0.654838761941836    38.174491775235      
1.62181009735893     0.656848628604154    38.0704764309541     0.630268347827763    -39.9886182112794    0.630268347827763    -39.9886182112794    0.656848628604154    38.0704764309541     
1.63117290922784     0.658855807784009    37.9660890688048     0.628681223959744    -40.1448551887084    0.628681223959744    -40.1448551887084    0.658855807784009    37.9660890688048     
1.64058977319954     0.660860210809604    37.8613352438367     0.627088514638812    -40.3012228411537    0.627088514638812    -40.3012228411537    0.660860210809604    37.8613352438367     
1.65006100132023     0.662861749270755    37.7562205280613     0.625490267359303    -40.4577165773024    0.625490267359303    -40.4577165773024    0.662861749270755    37.7562205280613     
1.65958690743756     0.66486033503621     37.6507505097664     0.623886530399416    -40.6143317875788    0.623886530399416    -40.6143317875788    0.66486033503621     37.6507505097664     
1.66916780721106     0.666855880270904    37.5449307928249     0.622277352814871    -40.7710638448027    0.622277352814871    -40.7710638448027    0.666855880270904    37.5449307928249     
1.67880401812256     0.668848297453198    37.4387669959958     0.620662784432317    -40.9279081048552    0.620662784432317    -40.9279081048552    0.668848297453198    37.4387669959958     
1.68849585948675     0.670837499392054    37.3322647522219     0.619042875842479    -41.0848599073506    0.619042875842479    -41.0848599073506    0.670837499392054    37.3322647522219     
1.69824365246174     0.672823399244134    37.2254297079202     0.617417678393009    -41.2419145763133    0.617417678393009    -41.2419145763133    0.672823399244134    37.2254297079202     
1.70804772005971     0.674805910530814    37.1182675222712     0.615787244181124    -41.3990674208599    0.615787244181124    -41.3990674208599    0.674805910530814    37.1182675222712     
1.71790838715759     0.676784947155162    37.010783866498      0.614151626045948    -41.5563137358885    0.614151626045948    -41.5563137358885    0.676784947155162    37.010783866498      
1.72782598050786     0.678760423418812    36.9029844231453     0.612510877560609    -41.7136488027732    0.612510877560609    -41.7136488027732    0.678760423418812    36.9029844231453     
1.73780082874938     0.680732254038713    36.7948748853517     0.610865053024087    -41.8710678900608    0.610865053024087    -41.8710678900608    0.680732254038713    36.7948748853517     
1.74783326241822     0.682700354163812    36.6864609561198     0.609214207452813    -42.0285662541751    0.609214207452813    -42.0285662541751    0.682700354163812    36.6864609561198     
1.75792361395869     0.684664639391628    36.5777483475798     0.607558396572007    -42.1861391401246    0.607558396572007    -42.1861391401246    0.684664639391628    36.5777483475798     
1.76807221773432     0.686625025784679    36.4687427802526     0.605897676806774    -42.3437817822146    0.605897676806774    -42.3437817822146    0.686625025784679    36.4687427802526     
1.77827941003892     0.688581429886819    36.3594499823073     0.604232105272985    -42.5014894047622    0.604232105272985    -42.5014894047622    0.688581429886819    36.3594499823073     
1.78854552910777     0.690533768739412    36.2498756888172     0.602561739767862    -42.6592572228165    0.602561739767862    -42.6592572228165    0.690533768739412    36.2498756888172     
1.79887091512879     0.692481959897399    36.1400256410111     0.600886638760407    -42.8170804428814    0.600886638760407    -42.8170804428814    0.692481959897399    36.1400256410111     
1.80925591025382     0.694425921445182    36.0299055855249     0.599206861381515    -42.9749542636415    0.599206861381515    -42.9749542636415    0.694425921445182    36.0299055855249     
1.81970085860998     0.696365572012401    35.9195212736471     0.597522467413925    -43.1328738766918    0.597522467413925    -43.1328738766918    0.696365572012401    35.9195212736471     
1.83020610631106     0.698300830789501    35.8088784605659     0.5958335172819      -43.2908344672682    0.5958335172819      -43.2908344672682    0.698300830789501    35.8088784605659     
1.84077200146896     0.700231617543156    35.6979829046128     0.594140072040753    -43.4488312149818    0.594140072040753    -43.4488312149818    0.700231617543156    35.6979829046128     
1.85139889420527     0.702157852631536    35.5868403665037     0.592442193366054    -43.6068592945561    0.592442193366054    -43.6068592945561    0.702157852631536    35.5868403665037     
1.86208713666287     0.704079457019354    35.4754566085815     0.590739943542739    -43.7649138765631    0.590739943542739    -43.7649138765631    0.704079457019354    35.4754566085815     
1.87283708301755     0.705996352292746    35.3638373940549     0.589033385453932    -43.9229901281634    0.589033385453932    -43.9229901281634    0.705996352292746    35.3638373940549     
1.8836490894898      0.707908460673967    35.2519884862382     0.587322582569592    -44.0810832138472    0.587322582569592    -44.0810832138472    0.707908460673967    35.2519884862382     
1.89452351435659     0.709815705035866    35.1399156477899     0.585607598934984    -44.2391882961759    0.585607598934984    -44.2391882961759    0.709815705035866    35.1399156477899     
1.90546071796325     0.711718008916146    35.0276246399521     0.583888499158928    -44.3973005365228    0.583888499158928    -44.3973005365228    0.711718008916146    35.0276246399521     
1.91646106273539     0.713615296531468    34.9151212217872     0.582165348401848    -44.5554150958193    0.582165348401848    -44.5554150958193    0.713615296531468    34.9151212217872     
1.92752491319094     0.715507492791234    34.80241114942       0.580438212363705    -44.7135271352934    0.580438212363705    -44.7135271352934    0.715507492791234    34.80241114942       
1.93865263595221     0.71739452331125     34.6895001752752     0.578707157271675    -44.871631817216     0.578707157271675    -44.871631817216     0.71739452331125     34.6895001752752     
1.94984459975804     0.719276314427086    34.5763940473186     0.5769722498677      -45.0297243056413    0.5769722498677      -45.0297243056413    0.719276314427086    34.5763940473186     
1.96110117547605     0.721152793207234    34.4630985082993     0.575233557395866    -45.1877997671497    0.575233557395866    -45.1877997671497    0.721152793207234    34.4630985082993     
1.97242273611485     0.723023887466003    34.3496192949921     0.573491147589623    -45.3458533715875    0.573491147589623    -45.3458533715875    0.723023887466003    34.3496192949921     
1.98380965683651     0.724889525776174    34.235962137444      0.571745088658834    -45.5038802928066    0.571745088658834    -45.5038802928066    0.724889525776174    34.235962137444      
1.99526231496888     0.726749637481418    34.1221327582186     0.569995449276692    -45.6618757094036    0.569995449276692    -45.6618757094036    0.726749637481418    34.1221327582186     
2.00678109001819     0.728604152708413    34.0081368716483     0.568242298566485    -45.8198348054541    0.568242298566485    -45.8198348054541    0.728604152708413    34.0081368716483     
2.01836636368156     0.730453002378739    33.8939801830838     0.566485706088227    -45.9777527712477    0.566485706088227    -45.9777527712477    0.730453002378739    33.8939801830838     
2.03001851985968     0.732296118220496    33.779668388149      0.564725741825168    -46.1356248040207    0.564725741825168    -46.1356248040207    0.732296118220496    33.779668388149      
2.04173794466953     0.734133432779626    33.6652071719992     0.56296247617015     -46.2934461086833    0.56296247617015     -46.2934461086833    0.734133432779626    33.6652071719992     
2.05352502645715     0.735964879430992    33.5506022085808     0.561195979911865    -46.4512118985486    0.561195979911865    -46.4512118985486    0.735964879430992    33.5506022085808     
2.06538015581053     0.737790392389137    33.4358591598971     0.559426324221021    -46.6089173960523    0.559426324221021    -46.6089173960523    0.737790392389137    33.4358591598971     
2.07730372557256     0.739609906718801    33.3209836752748     0.557653580636347    -46.766557833476     0.557653580636347    -46.766557833476     0.739609906718801    33.3209836752748     
2.08929613085404     0.741423358345118    33.2059813906373     0.555877821050536    -46.9241284536615    0.555877821050536    -46.9241284536615    0.741423358345118    33.2059813906373     
2.10135776904675     0.74323068406351     33.0908579277817     0.554099117696107    -47.0816245107221    0.554099117696107    -47.0816245107221    0.74323068406351     33.0908579277817     
2.11348903983665     0.745031821549338    32.9756188936586     0.552317543131127    -47.239041270753     0.552317543131127    -47.239041270753     0.745031821549338    32.9756188936586     
2.12569034521711     0.7468267093672      32.8602698796586     0.550533170224913    -47.3963740125335    0.550533170224913    -47.3963740125335    0.7468267093672      32.8602698796586     
2.13796208950223     0.748615286979938    32.7448164609037     0.54874607214361     -47.5536180282258    0.54874607214361     -47.5536180282258    0.748615286979938    32.7448164609037     
2.15030467934026     0.750397494757354    32.6292641955437     0.546956322335724    -47.7107686240694    0.546956322335724    -47.7107686240694    0.750397494757354    32.6292641955437     
2.16271852372702     0.752173273984622    32.5136186240572     0.545163994517606    -47.8678211210702    0.545163994517606    -47.8678211210702    0.752173273984622    32.5136186240572     
2.17520403401952     0.75394256687035     32.3978852685604     0.543369162658842    -48.0247708556829    0.543369162658842    -48.0247708556829    0.75394256687035     32.3978852685604     
2.18776162394955     0.75570531655438     32.28206963212       0.541571900967638    -48.1816131804897    0.541571900967638    -48.1816131804897    0.75570531655438     32.28206963212       
2.2003917096374      0.757461467115238    32.1661771980731     0.539772283876138    -48.3383434648722    0.539772283876138    -48.3383434648722    0.757461467115238    32.1661771980731     
2.21309470960564     0.759210963577282    32.050213429354      0.5379703860257      -48.4949570956765    0.5379703860257      -48.4949570956765    0.759210963577282    32.050213429354      
2.225871044793       0.760953751917523    31.9341837678272     0.53616628225217     -48.6514494778732    0.53616628225217     -48.6514494778732    0.760953751917523    31.9341837678272     
2.23872113856834     0.762689779072124    31.8180936336272     0.534360047571115    -48.8078160352094    0.534360047571115    -48.8078160352094    0.762689779072124    31.8180936336272     
2.25164541674462     0.764418992942607    31.7019484245052     0.532551757163034    -48.964052210857     0.532551757163034    -48.964052210857     0.764418992942607    31.7019484245052     
2.26464430759306     0.766141342401679    31.585753515184      0.530741486358589    -49.1201534680487    0.530741486358589    -49.1201534680487    0.766141342401679    31.585753515184      
2.27771824185732     0.76785677729879     31.4695142567205     0.528929310623796    -49.2761152907121    0.528929310623796    -49.2761152907121    0.76785677729879     31.4695142567205     
2.29086765276777     0.769565248465345    31.3532359758734     0.527115305545245    -49.4319331840937    0.527115305545245    -49.4319331840937    0.769565248465345    31.3532359758734     
2.30409297605585     0.771266707719584    31.2369239744823     0.525299546815332    -49.5876026753761    0.525299546815332    -49.5876026753761    0.771266707719584    31.2369239744823     
2.31739464996848     0.77296110787114     31.1205835288532     0.52348211021749     -49.7431193142859    0.52348211021749     -49.7431193142859    0.77296110787114     31.1205835288532     
2.33077311528264     0.774648402725293    31.0042198891516     0.521663071611443    -49.8984786736968    0.521663071611443    -49.8984786736968    0.774648402725293    31.0042198891516     
2.34422881531992     0.776328547086859    30.8878382788059     0.519842506918519    -50.0536763502205    0.519842506918519    -50.0536763502205    0.776328547086859    30.8878382788059     
2.35776219596125     0.778001496763798    30.7714438939168     0.518020492106963    -50.2087079647938    0.518020492106963    -50.2087079647938    0.778001496763798    30.7714438939168     
2.37137370566166     0.779667208570459    30.6550419026788     0.516197103177311    -50.3635691632522    0.516197103177311    -50.3635691632522    0.779667208570459    30.6550419026788     
2.38506379546511     0.781325640330524    30.538637444808      0.514372416147809    -50.5182556168992    0.514372416147809    -50.5182556168992    0.781325640330524    30.538637444808      
2.39883291901949     0.78297675087963     30.4222356309794     0.512546507039881    -50.6727630230647    0.512546507039881    -50.6727630230647    0.78297675087963     30.4222356309794     
2.41268153259163     0.784620500067651    30.3058415422754     0.510719451863667    -50.8270871056537    0.510719451863667    -50.8270871056537    0.784620500067651    30.3058415422754     
2.42661009508242     0.786256848760676    30.1894602296412     0.508891326603608    -50.9812236156881    0.508891326603608    -50.9812236156881    0.786256848760676    30.1894602296412     
2.44061906804198     0.78788575884266     30.0730967133512     0.507062207204128    -51.1351683318367    0.507062207204128    -51.1351683318367    0.78788575884266     30.0730967133512     
2.45470891568503     0.789507193216758    29.956755982485      0.505232169555373    -51.2889170609377    0.505232169555373    -51.2889170609377    0.789507193216758    29.956755982485      
2.46888010490621     0.791121115806359    29.8404429944116     0.503401289479041    -51.4424656385121    0.503401289479041    -51.4424656385121    0.791121115806359    29.8404429944116     
2.48313310529557     0.792727491555762    29.7241626742871     0.501569642714303    -51.5958099292635    0.501569642714303    -51.5958099292635    0.792727491555762    29.7241626742871     
2.49746838915414     0.794326286430592    29.6079199145585     0.499737304903818    -51.7489458275731    0.499737304903818    -51.7489458275731    0.794326286430592    29.6079199145585     
2.51188643150958     0.795917467417874    29.4917195744798     0.497904351579837    -51.9018692579819    0.497904351579837    -51.9018692579819    0.795917467417874    29.4917195744798     
2.5263877101319      0.797501002525816    29.3755664796383     0.496070858150425    -52.0545761756636    0.496070858150425    -52.0545761756636    0.797501002525816    29.3755664796383     
2.54097270554931     0.799076860783269    29.2594654214903     0.494236899885787    -52.2070625668869    0.494236899885787    -52.2070625668869    0.799076860783269    29.2594654214903     
2.55564190106414     0.800645012238902    29.1434211569086     0.492402551904721    -52.3593244494684    0.492402551904721    -52.3593244494684    0.800645012238902    29.1434211569086     
2.57039578276886     0.80220542796007     29.0274384077395     0.490567889161161    -52.511357873214     0.490567889161161    -52.511357873214     0.80220542796007     29.0274384077395     
2.58523483956219     0.803758080031391    28.9115218603704     0.488732986430879    -52.663158920352     0.488732986430879    -52.663158920352     0.803758080031391    28.9115218603704     
2.60015956316527     0.805302941553018    28.795676165309      0.486897918298297    -52.8147237059525    0.486897918298297    -52.8147237059525    0.805302941553018    28.795676165309      
2.615170448138       0.806839986638641    28.6799059367723     0.485062759143451    -52.9660483783397    0.485062759143451    -52.9660483783397    0.806839986638641    28.6799059367723     
2.63026799189538     0.80836919041318     28.5642157522871     0.483227583129063    -53.1171291194907    0.483227583129063    -53.1171291194907    0.80836919041318     28.5642157522871     
2.64545269472405     0.809890529010212    28.4486101523016     0.481392464187788    -53.2679621454255    0.481392464187788    -53.2679621454255    0.809890529010212    28.4486101523016     
2.66072505979881     0.811403979569114    28.3330936398065     0.479557476009602    -53.4185437065852    0.479557476009602    -53.4185437065852    0.811403979569114    28.3330936398065     
2.67608559319933     0.812909520231935    28.2176706799683     0.477722692029314    -53.5688700882006    0.477722692029314    -53.5688700882006    0.812909520231935    28.2176706799683     
2.69153480392692     0.814407130139981    28.1023456997747     0.475888185414286    -53.7189376106474    0.475888185414286    -53.7189376106474    0.814407130139981    28.1023456997747     
2.70707320392136     0.81589678943015     27.9871230876886     0.474054029052255    -53.8687426297938    0.474054029052255    -53.8687426297938    0.81589678943015     27.9871230876886     
2.72270130807791     0.817378479231006    27.8720071933142     0.47222029553937     -54.0182815373354    0.47222029553937     -54.0182815373354    0.817378479231006    27.8720071933142     
2.73841963426436     0.818852181658574    27.7570023270755     0.470387057168359    -54.1675507611186    0.470387057168359    -54.1675507611186    0.818852181658574    27.7570023270755     
2.75422870333817     0.820317879811904    27.6421127599038     0.468554385916876    -54.3165467654547    0.468554385916876    -54.3165467654547    0.820317879811904    27.6421127599038     
2.77012903916373     0.821775557768366    27.5273427229386     0.466722353436044    -54.4652660514213    0.466722353436044    -54.4652660514213    0.821775557768366    27.5273427229386     
2.78612116862977     0.823225200578719    27.4126964072371     0.464891031039145    -54.6137051571544    0.464891031039145    -54.6137051571544    0.823225200578719    27.4126964072371     
2.80220562166675     0.824666794261914    27.2981779634976     0.463060489690509    -54.7618606581276    0.463060489690509    -54.7618606581276    0.824666794261914    27.2981779634976     
2.81838293126445     0.826100325799698    27.183791501791      0.461230799994569    -54.9097291674229    0.461230799994569    -54.9097291674229    0.826100325799698    27.183791501791      
2.83465363348967     0.827525783130939    27.0695410913076     0.459402032185132    -55.0573073359869    0.459402032185132    -55.0573073359869    0.827525783130939    27.0695410913076     
2.85101826750391     0.828943155145777    26.9554307601099     0.457574256114808    -55.2045918528802    0.457574256114808    -55.2045918528802    0.828943155145777    26.9554307601099     
2.86747737558132     0.830352431679509    26.8414644949011     0.455747541244648    -55.3515794455121    0.455747541244648    -55.3515794455121    0.830352431679509    26.8414644949011     
2.88403150312661     0.831753603506288    26.7276462408018     0.453921956633968    -55.4982668798668    0.453921956633968    -55.4982668798668    0.831753603506288    26.7276462408018     
2.90068119869315     0.833146662332595    26.6139799011391     0.452097570930373    -55.6446509607177    0.452097570930373    -55.6446509607177    0.833146662332595    26.6139799011391     
2.91742701400117     0.834531600790514    26.5004693372459     0.450274452359979    -55.7907285318311    0.450274452359979    -55.7907285318311    0.834531600790514    26.5004693372459     
2.93426950395597     0.835908412430795    26.3871183682728     0.448452668717842    -55.9364964761585    0.448452668717842    -55.9364964761585    0.835908412430795    26.3871183682728     
2.95120922666639     0.837277091715745    26.2739307710076     0.446632287358565    -56.0819517160196    0.446632287358565    -56.0819517160196    0.837277091715745    26.2739307710076     
2.96824674346324     0.838637634011892    26.1609102797101     0.444813375187145    -56.227091213272     0.444813375187145    -56.227091213272     0.838637634011892    26.1609102797101     
2.98538261891796     0.839990035582505    26.0480605859542     0.442995998649989    -56.3719119694732    0.442995998649989    -56.3719119694732    0.839990035582505    26.0480605859542     
3.00261742086127     0.841334293579903    25.9353853384818     0.441180223726168    -56.5164110260294    0.441180223726168    -56.5164110260294    0.841334293579903    25.9353853384818     
3.01995172040202     0.842670406037604    25.8228881430689     0.439366115918858    -56.6605854643353    0.439366115918858    -56.6605854643353    0.842670406037604    25.8228881430689     
3.03738609194611     0.843998371862304    25.7105725623998     0.437553740247001    -56.8044324059026    0.437553740247001    -56.8044324059026    0.843998371862304    25.7105725623998     
3.05492111321551     0.845318190825702    25.5984421159532     0.43574316123717     -56.9479490124792    0.43574316123717     -56.9479490124792    0.845318190825702    25.5984421159532     
3.07255736526745     0.846629863556132    25.4865002799        0.433934442915652    -57.091132486155     0.433934442915652    -57.091132486155     0.846629863556132    25.4865002799        
3.09029543251359     0.847933391530097    25.3747504870086     0.432127648800741    -57.2339800694625    0.432127648800741    -57.2339800694625    0.847933391530097    25.3747504870086     
3.10813590273948     0.849228777063602    25.2631961265635     0.430322841895246    -57.3764890454612    0.430322841895246    -57.3764890454612    0.849228777063602    25.2631961265635     
3.12607936712396     0.850516023303391    25.1518405442915     0.4285200846792      -57.5186567378176    0.4285200846792      -57.5186567378176    0.850516023303391    25.1518405442915     
3.1441264202588      0.85179513421801     25.0406870423008     0.426719439102804    -57.66048051087      0.426719439102804    -57.66048051087      0.85179513421801     25.0406870423008     
3.16227766016838     0.853066114588768    24.9297388790275     0.424920966579562    -57.8019577696877    0.424920966579562    -57.8019577696877    0.853066114588768    24.9297388790275     
3.18053368832952     0.854328970000557    24.8189992691939     0.42312472797966     -57.9430859601172    0.42312472797966     -57.9430859601172    0.854328970000557    24.8189992691939     
3.1988951096914      0.855583706832556    24.7084713837757     0.421330783623522    -58.0838625688206    0.421330783623522    -58.0838625688206    0.855583706832556    24.7084713837757     
3.2173625326956      0.856830332248828    24.5981583499792     0.419539193275616    -58.2242851233035    0.419539193275616    -58.2242851233035    0.856830332248828    24.5981583499792     
3.23593656929628     0.858068854188792    24.4880632512289     0.417750016138452    -58.3643511919326    0.417750016138452    -58.3643511919326    0.858068854188792    24.4880632512289     
3.25461783498046     0.859299281357609    24.3781891271623     0.415963310846799    -58.5040583839466    0.415963310846799    -58.5040583839466    0.859299281357609    24.3781891271623     
3.27340694878838     0.860521623216453    24.2685389736386     0.414179135462123    -58.6434043494526    0.414179135462123    -58.6434043494526    0.860521623216453    24.2685389736386     
3.29230453333406     0.861735889972714    24.15911574275       0.412397547467229    -58.7823867794212    0.412397547467229    -58.7823867794212    0.861735889972714    24.15911574275       
3.31131121482591     0.862942092570076    24.0499223428494     0.410618603761115    -58.9210034056636    0.410618603761115    -58.9210034056636    0.862942092570076    24.0499223428494     
3.33042762308746     0.864140242678551    23.9409616385821     0.408842360654057    -59.0592520008062    0.408842360654057    -59.0592520008062    0.864140242678551    23.9409616385821     
3.34965439157828     0.865330352684405    23.8322364509285     0.407068873862868    -59.1971303782534    0.407068873862868    -59.1971303782534    0.865330352684405    23.8322364509285     
3.36899215741491     0.866512435680043    23.7237495572547     0.405298198506403    -59.334636392143     0.405298198506403    -59.334636392143     0.866512435680043    23.7237495572547     
3.38844156139203     0.867686505453787    23.6155036913736     0.403530389101259    -59.4717679372915    0.403530389101259    -59.4717679372915    0.867686505453787    23.6155036913736     
3.40800324800365     0.868852576479639    23.5075015436112     0.401765499557674    -59.6085229491331    0.401765499557674    -59.6085229491331    0.868852576479639    23.5075015436112     
3.4276778654645      0.87001066390694     23.3997457608855     0.400003583175651    -59.7448994036477    0.400003583175651    -59.7448994036477    0.87001066390694     23.3997457608855     
3.44746606573149     0.871160783550008    23.2922389467906     0.398244692641269    -59.880895317282     0.398244692641269    -59.880895317282     0.871160783550008    23.2922389467906     
3.46736850452532     0.872302951877731    23.1849836616892     0.396488880023215    -60.016508746864     0.396488880023215    -60.016508746864     0.872302951877731    23.1849836616892     
3.48738584135219     0.873437186003093    23.0779824228147     0.394736196769502    -60.1517377895073    0.394736196769502    -60.1517377895073    0.873437186003093    23.0779824228147     
3.50751873952568     0.874563503672682    22.9712377043802     0.392986693704407    -60.2865805825074    0.392986693704407    -60.2865805825074    0.874563503672682    22.9712377043802     
3.52776786618874     0.87568192325616     22.8647519376949     0.391240421025585    -60.4210353032332    0.391240421025585    -60.4210353032332    0.87568192325616     22.8647519376949     
3.54813389233576     0.876792463735701    22.7585275112887     0.389497428301406    -60.5551001690072    0.389497428301406    -60.5551001690072    0.876792463735701    22.7585275112887     
3.56861749283481     0.87789514469542     22.6525667710443     0.387757764468463    -60.6887734369814    0.387757764468463    -60.6887734369814    0.87789514469542     22.6525667710443     
3.58921934645005     0.878989986310761    22.5468720203352     0.386021477829294    -60.8220534040053    0.386021477829294    -60.8220534040053    0.878989986310761    22.5468720203352     
3.60994013586417     0.880077009337884    22.4414455201733     0.384288616050295    -60.9549384064836    0.384288616050295    -60.9549384064836    0.880077009337884    22.4414455201733     
3.63078054770101     0.881156235103043    22.3362894893616     0.382559226159793    -61.0874268202328    0.382559226159793    -61.0874268202328    0.881156235103043    22.3362894893616     
3.65174127254838     0.882227685491951    22.2314061046544     0.380833354546365    -61.2195170603253    0.380833354546365    -61.2195170603253    0.882227685491951    22.2314061046544     
3.67282300498085     0.883291382939148    22.1267975009238     0.379111046957271    -61.3512075809307    0.379111046957271    -61.3512075809307    0.883291382939148    22.1267975009238     
3.69402644358283     0.884347350417372    22.0224657713336     0.377392348497137    -61.4824968751484    0.377392348497137    -61.4824968751484    0.884347350417372    22.0224657713336     
3.71535229097173     0.88539561142693     21.9184129675191     0.375677303626778    -61.6133834748351    0.375677303626778    -61.6133834748351    0.88539561142693     21.9184129675191     
3.73680125382116     0.886436189985082    21.8146410997728     0.373965956162217    -61.7438659504248    0.373965956162217    -61.7438659504248    0.886436189985082    21.8146410997728     
3.75837404288444     0.887469110615453    21.7111521372371     0.37225834927387     -61.873942910744     0.37225834927387     -61.873942910744     0.887469110615453    21.7111521372371     
3.78007137301811     0.888494398337438    21.6079480081023     0.370554525485925    -62.0036130028204    0.370554525485925    -62.0036130028204    0.888494398337438    21.6079480081023     
3.80189396320561     0.889512078655652    21.5050305998102     0.368854526675866    -62.1328749116856    0.368854526675866    -62.1328749116856    0.889512078655652    21.5050305998102     
3.82384253658113     0.890522177549386    21.402401759265      0.36715839407419     -62.2617273601719    0.36715839407419     -62.2617273601719    0.890522177549386    21.402401759265      
3.84591782045354     0.891524721462113    21.3000632930471     0.365466168264283    -62.3901691087052    0.365466168264283    -62.3901691087052    0.891524721462113    21.3000632930471     
3.86812054633052     0.892519737291006    21.1980169676343     0.363777889182452    -62.5181989550905    0.363777889182452    -62.5181989550905    0.892519737291006    21.1980169676343     
3.89045144994281     0.893507252376509    21.0962645096281     0.36209359611813     -62.645815734293     0.36209359611813     -62.645815734293     0.893507252376509    21.0962645096281     
3.91291127126853     0.894487294491936    20.9948076059837     0.360413327714247    -62.7730183182151    0.360413327714247    -62.7730183182151    0.894487294491936    20.9948076059837     
3.93550075455778     0.895459891833117    20.8936479042466     0.358737121967723    -62.8998056154667    0.358737121967723    -62.8998056154667    0.895459891833117    20.8936479042466     
3.95822064835723     0.896425073008086    20.7927870127932     0.357065016230168    -63.0261765711316    0.357065016230168    -63.0261765711316    0.896425073008086    20.7927870127932     
3.98107170553497     0.897382867026829    20.6922265010749     0.355397047208683    -63.1521301665307    0.355397047208683    -63.1521301665307    0.897382867026829    20.6922265010749     
4.00405468330546     0.898333303291068    20.5919678998696     0.353733250966841    -63.2776654189777    0.353733250966841    -63.2776654189777    0.898333303291068    20.5919678998696     
4.02717034325459     0.899276411584113    20.4920127015347     0.352073662925802    -63.4027813815327    0.352073662925802    -63.4027813815327    0.899276411584113    20.4920127015347     
4.05041945136493     0.900212222060763    20.3923623602653     0.350418317865574    -63.5274771427516    0.350418317865574    -63.5274771427516    0.900212222060763    20.3923623602653     
4.07380277804113     0.90114076523727     20.2930182923573     0.348767249926404    -63.6517518264301    0.348767249926404    -63.6517518264301    0.90114076523727     20.2930182923573     
4.09732109813542     0.902062071981368    20.1939818764731     0.347120492610331    -63.7756045913448    0.347120492610331    -63.7756045913448    0.902062071981368    20.1939818764731     
4.1209751909733      0.902976173502359    20.0952544539123     0.345478078782849    -63.8990346309897    0.345478078782849    -63.8990346309897    0.902976173502359    20.0952544539123     
4.14476584037939     0.903883101341286    19.9968373288843     0.343840040674702    -64.0220411733115    0.343840040674702    -64.0220411733115    0.903883101341286    19.9968373288843     
4.16869383470335     0.90478288736115     19.8987317687864     0.342206409883834    -64.1446234804374    0.342206409883834    -64.1446234804374    0.90478288736115     19.8987317687864     
4.19275996684606     0.905675563737218    19.8009390044845     0.340577217377436    -64.2667808484027    0.340577217377436    -64.2667808484027    0.905675563737218    19.8009390044845     
4.21696503428582     0.906561162947403    19.7034602305958     0.338952493494125    -64.3885126068742    0.338952493494125    -64.3885126068742    0.906561162947403    19.7034602305958     
4.24130983910488     0.90743971776272     19.6062966057764     0.337332267946255    -64.5098181188707    0.337332267946255    -64.5098181188707    0.90743971776272     19.6062966057764     
4.26579518801593     0.908311261237808    19.5094492530113     0.335716569822331    -64.6306967804795    0.335716569822331    -64.6306967804795    0.908311261237808    19.5094492530113     
4.29042189238885     0.909175826701557    19.4129192599065     0.334105427589546    -64.751148020572     0.334105427589546    -64.751148020572     0.909175826701557    19.4129192599065     
4.31519076827765     0.910033447747798    19.3167076789848     0.332498869096422    -64.8711713005142    0.332498869096422    -64.8711713005142    0.910033447747798    19.3167076789848     
4.34010263644744     0.910884158226089    19.2208155279825     0.330896921575557    -64.9907661138778    0.330896921575557    -64.9907661138778    0.910884158226089    19.2208155279825     
4.36515832240166     0.911727992232582    19.1252437901513     0.329299611646511    -65.1099319861453    0.329299611646511    -65.1099319861453    0.911727992232582    19.1252437901513     
4.39035865640945     0.912564984100972    19.0299934145598     0.327706965318742    -65.2286684744155    0.327706965318742    -65.2286684744155    0.912564984100972    19.0299934145598     
4.41570447353313     0.913395168393551    18.9350653163986     0.326119007994681    -65.3469751671056    0.326119007994681    -65.3469751671056    0.913395168393551    18.9350653163986     
4.44119661365589     0.914218579892342    18.8404603772868     0.324535764472899    -65.4648516836513    0.324535764472899    -65.4648516836513    0.914218579892342    18.8404603772868     
4.46683592150963     0.915035253590322    18.746179445581      0.322957258951354    -65.5822976742057    0.322957258951354    -65.5822976742057    0.915035253590322    18.746179445581      
4.49262324670293     0.915845224682756    18.6522233366859     0.321383515030742    -65.699312819335     0.321383515030742    -65.699312819335     0.915845224682756    18.6522233366859     
4.51855944374922     0.916648528558602    18.5585928333657     0.319814555717934    -65.8158968297143    0.319814555717934    -65.8158968297143    0.916648528558602    18.5585928333657     
4.54464537209509     0.91744520079203     18.4652886860591     0.318250403429506    -65.9320494458198    0.318250403429506    -65.9320494458198    0.91744520079203     18.4652886860591     
4.57088189614875     0.918235277134039    18.3723116131935     0.316691079995331    -66.0477704376218    0.316691079995331    -66.0477704376218    0.918235277134039    18.3723116131935     
4.59726988530872     0.919018793504152    18.279662301502      0.315136606662286    -66.1630596042739    0.315136606662286    -66.1630596042739    0.919018793504152    18.279662301502      
4.6238102139926      0.919795785982239    18.1873414063413     0.313587004098004    -66.2779167738026    0.313587004098004    -66.2779167738026    0.919795785982239    18.1873414063413     
4.65050376166606     0.920566290800418    18.0953495520097     0.312042292394723    -66.3923418027966    0.312042292394723    -66.3923418027966    0.920566290800418    18.0953495520097     
4.67735141287198     0.921330344335064    18.0036873320683     0.310502491073199    -66.5063345760908    0.310502491073199    -66.5063345760908    0.921330344335064    18.0036873320683     
4.70435405725976     0.922087983098926    17.9123553096607     0.308967619086688    -66.6198950064557    0.308967619086688    -66.6198950064557    0.922087983098926    17.9123553096607     
4.73151258961481     0.922839243733342    17.8213540178347     0.307437694825008    -66.733023034281     0.307437694825008    -66.733023034281     0.922839243733342    17.8213540178347     
4.75882790988817     0.923584163000547    17.7306839598655     0.305912736118647    -66.8457186272598    0.305912736118647    -66.8457186272598    0.923584163000547    17.7306839598655     
4.78630092322638     0.924322777776104    17.6403456095773     0.304392760242948    -66.9579817800739    0.304392760242948    -66.9579817800739    0.924322777776104    17.6403456095773     
4.81393254000145     0.925055125041426    17.5503394116672     0.302877783922346    -67.0698125140754    0.302877783922346    -67.0698125140754    0.925055125041426    17.5503394116672     
4.84172367584099     0.925781241876411    17.460665782029      0.301367823334671    -67.1812108769718    0.301367823334671    -67.1812108769718    0.925781241876411    17.460665782029      
4.86967525165863     0.926501165452166    17.3713251080766     0.299862894115496    -67.2921769425068    0.299862894115496    -67.2921769425068    0.926501165452166    17.3713251080766     
4.89778819368446     0.927214933023865    17.2823177490693     0.298363011362542    -67.4027108101439    0.298363011362542    -67.4027108101439    0.927214933023865    17.2823177490693     
4.92606343349577     0.927922581923678    17.1936440364351     0.29686818964014     -67.5128126047478    0.29686818964014     -67.5128126047478    0.927922581923678    17.1936440364351     
4.9545019080479      0.92862414955384     17.1053042740952     0.295378442983724    -67.622482476268     0.295378442983724    -67.622482476268     0.92862414955384     17.1053042740952     
4.9831045597053      0.929319673379802    17.0172987387886     0.293893784904384    -67.7317205994193    0.293893784904384    -67.7317205994193    0.929319673379802    17.0172987387886     
5.01187233627272     0.930009190923498    16.9296276803958     0.292414228393461    -67.8405271733657    0.292414228393461    -67.8405271733657    0.930009190923498    16.9296276803958     
5.04080619102669     0.930692739756714    16.842291322263      0.290939785927171    -67.9489024214018    0.290939785927171    -67.9489024214018    0.930692739756714    16.842291322263      
5.06990708274704     0.931370357494575    16.7552898615253     0.289470469471286    -68.0568465906368    0.289470469471286    -68.0568465906368    0.931370357494575    16.7552898615253     
5.0991759757487      0.932042081789127    16.6686234694296     0.288006290485826    -68.1643599516771    0.288006290485826    -68.1643599516771    0.932042081789127    16.6686234694296     
5.12861383991365     0.932707950323017    16.5822922916583     0.286547259929821    -68.2714427983093    0.286547259929821    -68.2714427983093    0.932707950323017    16.5822922916583     
5.15822165072306     0.933368000803311    16.4962964486497     0.285093388266058    -68.3780954471861    0.285093388266058    -68.3780954471861    0.933368000803311    16.4962964486497     
5.18800038928961     0.93402227095538     16.4106360359208     0.283644685465907    -68.4843182375095    0.283644685465907    -68.4843182375095    0.93402227095538     16.4106360359208     
5.21795104239002     0.93467079851692     16.3253111243872     0.282201161014137    -68.5901115307169    0.282201161014137    -68.5901115307169    0.93467079851692     16.3253111243872     
5.24807460249773     0.935313621232062    16.2403217606835     0.280762823913776    -68.6954757101671    0.280762823913776    -68.6954757101671    0.935313621232062    16.2403217606835     
5.27837206781577     0.935950776845599    16.1556679674821     0.279329682690992    -68.8004111808281    0.279329682690992    -68.8004111808281    0.935950776845599    16.1556679674821     
5.30884444230988     0.936582303097304    16.0713497438109     0.277901745399992    -68.9049183689631    0.277901745399992    -68.9049183689631    0.936582303097304    16.0713497438109     
5.33949273574177     0.937208237716366    15.9873670653715     0.276479019627945    -69.008997721821     0.276479019627945    -69.008997721821     0.937208237716366    15.9873670653715     
5.37031796370253     0.937828618415918    15.9037198848544     0.275061512499918    -69.1126497073255    0.275061512499918    -69.1126497073255    0.937828618415918    15.9037198848544     
5.40132114764635     0.938443482887688    15.8204081322543     0.273649230683831    -69.2158748137659    0.273649230683831    -69.2158748137659    0.938443482887688    15.8204081322543     
5.43250331492433     0.939052868796728    15.7374317151838     0.272242180395429    -69.318673549489     0.272242180395429    -69.318673549489     0.939052868796728    15.7374317151838     
5.46386549881854     0.939656813776264    15.6547905191862     0.27084036740326     -69.4210464425921    0.27084036740326     -69.4210464425921    0.939656813776264    15.6547905191862     
5.49540873857625     0.940255355422646    15.5724844080462     0.269443797033666    -69.5229940406182    0.269443797033666    -69.5229940406182    0.940255355422646    15.5724844080462     
5.52713407944435     0.940848531290387    15.4905132241008     0.268052474175786    -69.6245169102501    0.268052474175786    -69.6245169102501    0.940848531290387    15.4905132241008     
5.55904257270404     0.941436378887327    15.4088767885469     0.26666640328656     -69.7256156370086    0.26666640328656     -69.7256156370086    0.941436378887327    15.4088767885469     
5.5911352757056      0.942018935669873    15.3275749017485     0.265285588395742    -69.8262908249505    0.265285588395742    -69.8262908249505    0.942018935669873    15.3275749017485     
5.62341325190349     0.942596239038351    15.2466073435428     0.263910033110924    -69.9265430963681    0.263910033110924    -69.9265430963681    0.942596239038351    15.2466073435428     
5.65587757089154     0.943168326332458    15.1659738735438     0.262539740622543    -70.0263730914907    0.262539740622543    -70.0263730914907    0.943168326332458    15.1659738735438     
5.68852930843842     0.943735234826809    15.0856742314447     0.26117471370891     -70.1257814681873    0.26117471370891     -70.1257814681873    0.943735234826809    15.0856742314447     
5.72136954652326     0.94429700172658     15.0057081373191     0.259814954741224    -70.2247689016708    0.259814954741224    -70.2247689016708    0.94429700172658     15.0057081373191     
5.75439937337157     0.944853664163257    14.926075291919      0.258460465688589    -70.3233360842048    0.258460465688589    -70.3233360842048    0.944853664163257    14.926075291919      
5.78761988349121     0.945405259190465    14.8467753769736     0.257111248123031    -70.4214837248098    0.257111248123031    -70.4214837248098    0.945405259190465    14.8467753769736     
5.82103217770872     0.945951823779912    14.7678080554838     0.255767303224497    -70.5192125489736    0.255767303224497    -70.5192125489736    0.945951823779912    14.7678080554838     
5.85463736320577     0.946493394817416    14.6891729720163     0.254428631785868    -70.6165232983621    0.254428631785868    -70.6165232983621    0.946493394817416    14.6891729720163     
5.88843655355589     0.947030009099019    14.6108697529957     0.253095234217938    -70.7134167305319    0.253095234217938    -70.7134167305319    0.947030009099019    14.6108697529957     
5.92243086876131     0.947561703327213    14.532898006994      0.251767110554414    -70.8098936186452    0.251767110554414    -70.8098936186452    0.947561703327213    14.532898006994      
5.9566214352901      0.948088514107242    14.4552573250197     0.250444260456874    -70.9059547511859    0.250444260456874    -70.9059547511859    0.948088514107242    14.4552573250197     
5.99100938611354     0.948610477943501    14.3779472808024     0.249126683219742    -71.0016009316784    0.249126683219742    -71.0016009316784    0.948610477943501    14.3779472808024     
6.02559586074358     0.949127631236029    14.3009674310787     0.24781437777523     -71.0968329784072    0.24781437777523     -71.0968329784072    0.949127631236029    14.3009674310787     
6.06038200527066     0.949640010277079    14.2243173158728     0.246507342698273    -71.19165172414      0.246507342698273    -71.19165172414      0.949640010277079    14.2243173158728     
6.09536897240169     0.950147651247792    14.1479964587778     0.245205576211456    -71.2860580158506    0.245205576211456    -71.2860580158506    0.950147651247792    14.1479964587778     
6.13055792149821     0.950650590214947    14.0720043672333     0.243909076189909    -71.3800527144458    0.243909076189909    -71.3800527144458    0.950650590214947    14.0720043672333     
6.16595001861482     0.951148863127805    13.9963405328007     0.242617840166203    -71.4736366944935    0.242617840166203    -71.4736366944935    0.951148863127805    13.9963405328007     
6.20154643653786     0.951642505815026    13.9210044314384     0.241331865335209    -71.566810843952     0.241331865335209    -71.566810843952     0.951642505815026    13.9210044314384     
6.23734835482419     0.952131553981691    13.8459955237719     0.240051148558955    -71.6595760639036    0.240051148558955    -71.6595760639036    0.952131553981691    13.8459955237719     
6.27335695984038     0.95261604320639     13.7713132553644     0.238775686371446    -71.7519332682875    0.238775686371446    -71.7519332682875    0.95261604320639     13.7713132553644     
6.30957344480193     0.953096008938395    13.6969570569837     0.237505474983484    -71.8438833836365    0.237505474983484    -71.8438833836365    0.953096008938395    13.6969570569837     
6.34599900981287     0.953571486494925    13.6229263448673     0.236240510287443    -71.9354273488159    0.236240510287443    -71.9354273488159    0.953571486494925    13.6229263448673     
6.38263486190549     0.95404251105848     13.5492205209854     0.234980787862035    -72.0265661147637    0.234980787862035    -72.0265661147637    0.95404251105848     13.5492205209854     
6.41948221508036     0.954509117674262    13.475838973301      0.233726302977046    -72.1173006442331    0.233726302977046    -72.1173006442331    0.954509117674262    13.475838973301      
6.45654229034656     0.954971341247664    13.4027810760292     0.232477050598058    -72.2076319115376    0.232477050598058    -72.2076319115376    0.954971341247664    13.4027810760292     
6.49381631576211     0.955429216541853    13.3300461898922     0.231233025391125    -72.2975609022983    0.231233025391125    -72.2975609022983    0.955429216541853    13.3300461898922     
6.53130552647472     0.955882778175419    13.2576336623737     0.22999422172745     -72.3870886131928    0.22999422172745     -72.3870886131928    0.955882778175419    13.2576336623737     
6.56901116476266     0.956332060620093    13.1855428279703     0.228760633688004    -72.4762160517066    0.228760633688004    -72.4762160517066    0.956332060620093    13.1855428279703     
6.60693448007596     0.956777098198556    13.1137730084405     0.227532255068151    -72.5649442358869    0.227532255068151    -72.5649442358869    0.956777098198556    13.1137730084405     
6.6450767290778      0.957217925082307    13.0423235130515     0.22630907938221     -72.6532741940981    0.22630907938221     -72.6532741940981    0.957217925082307    13.0423235130515     
6.68343917568615     0.957654575289608    12.9711936388238     0.225091099868022    -72.7412069647801    0.225091099868022    -72.7412069647801    0.957654575289608    12.9711936388238     
6.72202309111567     0.958087082683506    12.9003826707731     0.223878309491454    -72.8287435962087    0.223878309491454    -72.8287435962087    0.958087082683506    12.9003826707731     
6.76082975391982     0.958515480969915    12.8298898821505     0.222670700950906    -72.9158851462582    0.222670700950906    -72.9158851462582    0.958515480969915    12.8298898821505     
6.79986045003322     0.958939803695773    12.7597145346791     0.221468266681761    -73.0026326821651    0.221468266681761    -73.0026326821651    0.958939803695773    12.7597145346791     
6.83911647281429     0.959360084247268    12.6898558787902     0.220270998860816    -73.0889872802968    0.220270998860816    -73.0889872802968    0.959360084247268    12.6898558787902     
6.87859912308808     0.959776355848127    12.6203131538545     0.219078889410674    -73.1749500259196    0.219078889410674    -73.1749500259196    0.959776355848127    12.6203131538545     
6.91830970918937     0.960188651557972    12.5510855884139     0.217891930004124    -73.2605220129702    0.217891930004124    -73.2605220129702    0.960188651557972    12.5510855884139     
6.95824954700605     0.960597004270749    12.4821724004079     0.216710112068451    -73.3457043438305    0.216710112068451    -73.3457043438305    0.960597004270749    12.4821724004079     
6.99841996002274     0.961001446713204    12.4135727974001     0.215533426789751    -73.4304981291026    0.215533426789751    -73.4304981291026    0.961001446713204    12.4135727974001     
7.03882227936457     0.961402011443439    12.345285976801      0.214361865117187    -73.514904487387     0.214361865117187    -73.514904487387     0.961402011443439    12.345285976801      
7.07945784384138     0.961798730849522    12.2773111260887     0.213195417767229    -73.598924545064     0.213195417767229    -73.598924545064     0.961798730849522    12.2773111260887     
7.12032799999203     0.962191637148154    12.2096474230271     0.212034075227836    -73.6825594360757    0.212034075227836    -73.6825594360757    0.962191637148154    12.2096474230271     
7.16143410212902     0.962580762383405    12.142294035882      0.210877827762631    -73.7658103017109    0.210877827762631    -73.7658103017109    0.962580762383405    12.142294035882      
7.20277751238341     0.962966138425503    12.0752501236342     0.209726665415021    -73.8486782903933    0.209726665415021    -73.8486782903933    0.962966138425503    12.0752501236342     
7.2443596007499      0.963347796969679    12.0085148361917     0.208580578012289    -73.9311645574694    0.208580578012289    -73.9311645574694    0.963347796969679    12.0085148361917     
7.28618174513228     0.963725769535077    11.9420873145974     0.20743955516965     -74.0132702650017    0.20743955516965     -74.0132702650017    0.963725769535077    11.9420873145974     
7.32824533138904     0.964100087463711    11.8759666912356     0.206303586294269    -74.094996581562     0.206303586294269    -74.094996581562     0.964100087463711    11.8759666912356     
7.37055175337935     0.964470781919476    11.8101520900364     0.205172660589241    -74.1763446820274    0.205172660589241    -74.1763446820274    0.964470781919476    11.8101520900364     
7.41310241300918     0.964837883887228    11.7446426266774     0.204046767057547    -74.2573157473788    0.204046767057547    -74.2573157473788    0.964837883887228    11.7446426266774     
7.45589872027782     0.965201424171894    11.6794374087823     0.202925894505954    -74.3379109645017    0.202925894505954    -74.3379109645017    0.965201424171894    11.6794374087823     
7.49894209332456     0.965561433397649    11.6145355361186     0.20181003154889     -74.4181315259883    0.20181003154889     -74.4181315259883    0.965561433397649    11.6145355361186     
7.54223395847571     0.965917942007147    11.5499361007912     0.200699166612285    -74.4979786299436    0.200699166612285    -74.4979786299436    0.965917942007147    11.5499361007912     
7.58577575029184     0.966270980260784    11.4856381874355     0.199593287937358    -74.5774534797913    0.199593287937358    -74.5774534797913    0.966270980260784    11.4856381874355     
7.62956891161533     0.966620578236031    11.4216408734068     0.198492383584392    -74.6565572840837    0.198492383584392    -74.6565572840837    0.966620578236031    11.4216408734068     
7.67361489361819     0.966966765826797    11.3579432289674     0.197396441436445    -74.7352912563135    0.197396441436445    -74.7352912563135    0.966966765826797    11.3579432289674     
7.71791515585012     0.967309572742852    11.2945443174727     0.196305449203049    -74.8136566147264    0.196305449203049    -74.8136566147264    0.967309572742852    11.2945443174727     
7.76247116628692     0.967649028509286    11.2314431955533     0.195219394423838    -74.8916545821377    0.195219394423838    -74.8916545821377    0.967649028509286    11.2314431955533     
7.80728440137907     0.967985162466027    11.1686389132956     0.194138264472178    -74.96928638575      0.194138264472178    -74.96928638575      0.967985162466027    11.1686389132956     
7.85235634610072     0.968318003767383    11.1061305144207     0.193062046558728    -75.0465532569725    0.193062046558728    -75.0465532569725    0.968318003767383    11.1061305144207     
7.89768849399886     0.968647581381644    11.0439170364592     0.19199072773498     -75.1234564312441    0.19199072773498     -75.1234564312441    0.968647581381644    11.0439170364592     
7.94328234724282     0.968973924090727    10.9819975109262     0.190924294896749    -75.1999971478568    0.190924294896749    -75.1999971478568    0.968973924090727    10.9819975109262     
7.98913941667405     0.969297060489845    10.9203709634915     0.189862734787634    -75.276176649782     0.189862734787634    -75.276176649782     0.969297060489845    10.9203709634915     
8.03526122185617     0.969617018987237    10.8590364141496     0.188806034002437    -75.3519961834989    0.188806034002437    -75.3519961834989    0.969617018987237    10.8590364141496     
8.08164929112538     0.969933827803921    10.797992877386      0.187754178990546    -75.4274569988248    0.187754178990546    -75.4274569988248    0.969933827803921    10.797992877386      
8.12830516164099     0.970247514973507    10.7372393623423     0.186707156059282    -75.5025603487471    0.186707156059282    -75.5025603487471    0.970247514973507    10.7372393623423     
8.1752303794365      0.970558108342015    10.6767748729785     0.185664951377196    -75.577307489258     0.185664951377196    -75.577307489258     0.970558108342015    10.6767748729785     
8.22242649947071     0.970865635567772    10.6165984082332     0.184627550977345    -75.6516996791904    0.184627550977345    -75.6516996791904    0.970865635567772    10.6165984082332     
8.26989508567932     0.971170124121307    10.5567089621816     0.183594940760516    -75.7257381800566    0.183594940760516    -75.7257381800566    0.971170124121307    10.5567089621816     
8.31763771102671     0.971471601285304    10.4971055241914     0.18256710649842     -75.799424255888     0.18256710649842     -75.799424255888     0.971471601285304    10.4971055241914     
8.3656559575581      0.971770094154586    10.4377870790766     0.181544033836848    -75.8727591730777    0.181544033836848    -75.8727591730777    0.971770094154586    10.4377870790766     
8.41395141645195     0.972065629636124    10.3787526072489     0.180525708298783    -75.9457442002242    0.180525708298783    -75.9457442002242    0.972065629636124    10.3787526072489     
8.46252568807269     0.972358234449092    10.320001084867      0.179512115287483    -76.0183806079775    0.179512115287483    -76.0183806079775    0.972358234449092    10.320001084867      
8.51138038202377     0.972647935124945    10.2615314839844     0.178503240089518    -76.0906696688871    0.178503240089518    -76.0906696688871    0.972647935124945    10.2615314839844     
8.56051711720095     0.972934758007533    10.2033427726938     0.177499067877776    -76.1626126572512    0.177499067877776    -76.1626126572512    0.972934758007533    10.2033427726938     
8.60993752184601     0.973218729253242    10.1454339152706     0.176499583714425    -76.2342108489689    0.176499583714425    -76.2342108489689    0.973218729253242    10.1454339152706     
8.65964323360066     0.973499874831167    10.0878038723141     0.17550477255385     -76.3054655213927    0.17550477255385     -76.3054655213927    0.973499874831167    10.0878038723141     
8.70963589956081     0.973778220523319    10.0304516008861     0.174514619245535    -76.3763779531843    0.174514619245535    -76.3763779531843    0.973778220523319    10.0304516008861     
8.75991717633118     0.974053791924853    9.97337605464762     0.173529108536925    -76.4469494241716    0.173529108536925    -76.4469494241716    0.974053791924853    9.97337605464762     
8.81048873008014     0.974326614444325    9.91657618399391     0.17254822507624     -76.5171812152068    0.17254822507624     -76.5171812152068    0.974326614444325    9.91657618399391     
8.861352236595       0.974596713303983    9.86005093618768     0.171571953415259    -76.587074608027     0.171571953415259    -76.587074608027     0.974596713303983    9.86005093618768     
8.91250938133746     0.974864113540074    9.80379925548933     0.170600278012065    -76.6566308851166    0.170600278012065    -76.6566308851166    0.974864113540074    9.80379925548933     
8.9639618594995      0.975128840003187    9.74782008328599     0.169633183233745    -76.7258513295708    0.169633183233745    -76.7258513295708    0.975128840003187    9.74782008328599     
9.01571137605957     0.975390917358613    9.6921123582186      0.16867065335908     -76.7947372249612    0.16867065335908     -76.7947372249612    0.975390917358613    9.6921123582186      
9.06775964583905     0.975650370086734    9.63667501630653     0.167712672581162    -76.8632898552031    0.167712672581162    -76.8632898552031    0.975650370086734    9.63667501630653     
9.1201083935591      0.97590722248343     9.5815069910706      0.166759225010011    -76.9315105044239    0.166759225010011    -76.9315105044239    0.97590722248343     9.5815069910706      
9.1727593538978      0.976161498660523    9.52660721365425     0.165810294675125    -76.9994004568337    0.165810294675125    -76.9994004568337    0.976161498660523    9.52660721365425     
9.22571427154763     0.976413222546219    9.47197461294287     0.164865865528025    -77.066960996597     0.164865865528025    -77.066960996597     0.976413222546219    9.47197461294287     
9.27897490127331     0.976662417885604    9.41760811568036     0.163925921444737    -77.1341934077067    0.163925921444737    -77.1341934077067    0.976662417885604    9.41760811568036     
9.33254300796991     0.976909108241124    9.36350664658575     0.162990446228261    -77.2010989738584    0.162990446228261    -77.2010989738584    0.976909108241124    9.36350664658575     
9.38642036672136     0.97715331699312     9.30966912846531     0.162059423610988    -77.2676789783277    0.162059423610988    -77.2676789783277    0.97715331699312     9.30966912846531     
9.44060876285923     0.97739506734036     9.25609448232566     0.161132837257098    -77.3339347038474    0.161132837257098    -77.3339347038474    0.97739506734036     9.25609448232566     
9.49510999202199     0.977634382300601    9.20278162748233     0.160210670764909    -77.3998674324879    0.160210670764909    -77.3998674324879    0.977634382300601    9.20278162748233     
9.54992586021436     0.977871284711163    9.14972948166932     0.159292907669208    -77.465478445537     0.159292907669208    -77.465478445537     0.977871284711163    9.14972948166932     
9.60505818386731     0.978105797229533    9.09693696114384     0.158379531443527    -77.5307690233835    0.158379531443527    -77.5307690233835    0.978105797229533    9.09693696114384     
9.66050878989814     0.978337942333964    9.04440298079232     0.157470525502415    -77.5957404453997    0.157470525502415    -77.5957404453997    0.978337942333964    9.04440298079232     
9.71627951577107     0.978567742324122    8.99212645423212     0.156565873203641    -77.6603939898275    0.156565873203641    -77.6603939898275    0.978567742324122    8.99212645423212     
9.77237220955811     0.97879521932172     8.94010629391345     0.155665557850396    -77.724730933664     0.155665557850396    -77.724730933664     0.97879521932172     8.94010629391345     
9.82878873000032     0.979020395271187    8.88834141121799     0.15476956269344     -77.7887525525496    0.15476956269344     -77.7887525525496    0.979020395271187    8.88834141121799     
9.88553094656939     0.979243291940343    8.83683071655725     0.153877870933235    -77.8524601206571    0.153877870933235    -77.8524601206571    0.979243291940343    8.83683071655725     
9.94260073952957     0.979463930921093    8.78557311946786     0.152990465722025    -77.9158549105817    0.152990465722025    -77.9158549105817    0.979463930921093    8.78557311946786     
10                   0.979682333630138    8.73456752870648     0.152107330165901    -77.9789381932329    0.152107330165901    -77.9789381932329    0.979682333630138    8.73456752870648     
10.0577306300174     0.979898521309688    8.68381285234223     0.151228447326828    -78.0417112377266    0.151228447326828    -78.0417112377266    0.979898521309688    8.68381285234223     
10.115794542599      0.980112515028201    8.63330799784799     0.150353800224637    -78.1041753112794    0.150353800224637    -78.1041753112794    0.980112515028201    8.63330799784799     
10.1741936618061     0.980324335681134    8.58305187218935     0.149483371838996    -78.1663316791038    0.149483371838996    -78.1663316791038    0.980324335681134    8.58305187218935     
10.2329299228075     0.980534003991696    8.5330433819128      0.148617145111332    -78.2281816043041    0.148617145111332    -78.2281816043041    0.980534003991696    8.5330433819128      
10.2920052719443     0.980741540511621    8.48328143323248     0.147755102946746    -78.2897263477733    0.147755102946746    -78.2897263477733    0.980741540511621    8.48328143323248     
10.3514216667934     0.980946965621956    8.4337649321136      0.146897228215877    -78.3509671680927    0.146897228215877    -78.3509671680927    0.980946965621956    8.4337649321136      
10.4111810762334     0.981150299533849    8.38449278435743     0.14604350375675     -78.4119053214294    0.14604350375675     -78.4119053214294    0.981150299533849    8.38449278435743     
10.471285480509      0.981351562289356    8.33546389568141     0.145193912376582    -78.4725420614385    0.145193912376582    -78.4725420614385    0.981351562289356    8.33546389568141     
10.5317368712972     0.981550773762258    8.28667717179997     0.144348436853565    -78.5328786391637    0.144348436853565    -78.5328786391637    0.981550773762258    8.28667717179997     
10.5925372517729     0.981747953658883    8.23813151850335     0.143507059938624    -78.5929163029395    0.143507059938624    -78.5929163029395    0.981747953658883    8.23813151850335     
10.6536886366756     0.981943121518939    8.18982584173465     0.142669764357142    -78.6526562982948    0.142669764357142    -78.6526562982948    0.981943121518939    8.18982584173465     
10.7151930523761     0.98213629671636     8.14175904766541     0.141836532810646    -78.712099867857     0.141836532810646    -78.712099867857     0.98213629671636     8.14175904766541     
10.7770525369432     0.982327498460155    8.09393004277009     0.141007347978484    -78.7712482512571    0.141007347978484    -78.7712482512571    0.982327498460155    8.09393004277009     
10.839269140212      0.982516745795267    8.04633773389922     0.140182192519458    -78.8301026850357    0.140182192519458    -78.8301026850357    0.982516745795267    8.04633773389922     
10.9018449238513     0.982704057603443    7.99898102835033     0.139361049073437    -78.8886644025495    0.139361049073437    -78.8886644025495    0.982704057603443    7.99898102835033     
10.9647819614319     0.982889452604106    7.95185883393858     0.138543900262938    -78.9469346338791    0.138543900262938    -78.9469346338791    0.982889452604106    7.95185883393858     
11.0280823384955     0.983072949355236    7.90497005906531     0.137730728694686    -79.0049146057371    0.137730728694686    -79.0049146057371    0.983072949355236    7.90497005906531     
11.091748152624      0.983254566254262    7.85831361278536     0.136921516961138    -79.0626055413772    0.136921516961138    -79.0626055413772    0.983254566254262    7.85831361278536     
11.1557815135085     0.983434321538953    7.81188840487308     0.136116247641985    -79.1200086605038    0.136116247641985    -79.1200086605038    0.983434321538953    7.81188840487308     
11.2201845430196     0.983612233288316    7.7656933458874      0.135314903305636    -79.1771251791827    0.135314903305636    -79.1771251791827    0.983612233288316    7.7656933458874      
11.2849593752776     0.983788319423509    7.71972734723503     0.134517466510653    -79.2339563097516    0.134517466510653    -79.2339563097516    0.983788319423509    7.71972734723503     
11.3501081567232     0.983962597708749    7.67398932123232     0.133723919807187    -79.2905032607323    0.133723919807187    -79.2905032607323    0.983962597708749    7.67398932123232     
11.4156330461885     0.984135085752225    7.62847818116662     0.132934245738365    -79.3467672367426    0.132934245738365    -79.3467672367426    0.984135085752225    7.62847818116662     
11.4815362149688     0.984305801007025    7.58319284135586     0.132148426841674    -79.4027494384086    0.132148426841674    -79.4027494384086    0.984305801007025    7.58319284135586     
11.5478198468946     0.984474760772054    7.53813221720647     0.131366445650295    -79.4584510622789    0.131366445650295    -79.4584510622789    0.984474760772054    7.53813221720647     
11.6144861384034     0.984641982192973    7.49329522527092     0.130588284694434    -79.5138733007375    0.130588284694434    -79.5138733007375    0.984641982192973    7.49329522527092     
11.6815372986132     0.98480748226312     7.44868078330357     0.129813926502621    -79.5690173419188    0.129813926502621    -79.5690173419188    0.98480748226312     7.44868078330357     
11.7489755493953     0.984971277824458    7.40428781031544     0.129043353602976    -79.6238843696209    0.129043353602976    -79.6238843696209    0.984971277824458    7.40428781031544     
11.8168031254478     0.985133385568508    7.36011522662781     0.128276548524463    -79.6784755632218    0.128276548524463    -79.6784755632218    0.985133385568508    7.36011522662781     
11.8850222743702     0.985293822037292    7.3161619539243      0.127513493798114    -79.7327920975945    0.127513493798114    -79.7327920975945    0.985293822037292    7.3161619539243      
11.9536352567372     0.985452603624281    7.27242691530281     0.126754171958237    -79.7868351430218    0.126754171958237    -79.7868351430218    0.985452603624281    7.27242691530281     
12.0226443461741     0.985609746575338    7.22890903532508     0.125998565543585    -79.840605865113     0.125998565543585    -79.840605865113     0.985609746575338    7.22890903532508     
12.0920518294321     0.985765266989677    7.18560724006593     0.125246657098522    -79.8941054247197    0.125246657098522    -79.8941054247197    0.985765266989677    7.18560724006593     
12.1618600064637     0.985919180820801    7.14252045716112     0.124498429174151    -79.9473349778523    0.124498429174151    -79.9473349778523    0.985919180820801    7.14252045716112     
12.2320711904993     0.986071503877465    7.09964761585418     0.123753864329427    -80.0002956755964    0.123753864329427    -80.0002956755964    0.986071503877465    7.09964761585418     
12.3026877081238     0.986222251824631    7.0569876470422      0.123012945132245    -80.0529886640296    0.123012945132245    -80.0529886640296    0.986222251824631    7.0569876470422      
12.3737118993535     0.986371440184418    7.01453948332067     0.122275654160514    -80.1054150841377    0.122275654160514    -80.1054150841377    0.986371440184418    7.01453948332067     
12.4451461177139     0.986519084337061    6.97230205902691     0.121541974003191    -80.1575760717321    0.121541974003191    -80.1575760717321    0.986519084337061    6.97230205902691     
12.5169927303173     0.986665199521869    6.93027431028273     0.120811887261319    -80.2094727573664    0.120811887261319    -80.2094727573664    0.986665199521869    6.93027431028273     
12.5892541179417     0.986809800838186    6.88845517503607     0.120085376549019    -80.2611062662534    0.120085376549019    -80.2611062662534    0.986809800838186    6.88845517503607     
12.6619326751094     0.986952903246342    6.84684359310199     0.11936242449448     -80.3124777181809    0.11936242449448     -80.3124777181809    0.986952903246342    6.84684359310199     
12.7350308101666     0.987094521568616    6.80543850620147     0.118643013740921    -80.36358822743      0.118643013740921    -80.36358822743      0.987094521568616    6.80543850620147     
12.8085509453628     0.987234670490195    6.76423885800112     0.117927126947533    -80.4144389026899    0.117927126947533    -80.4144389026899    0.987234670490195    6.76423885800112     
12.8824955169313     0.98737336456013     6.72324359414985     0.117214746790396    -80.4650308469753    0.117214746790396    -80.4650308469753    0.98737336456013     6.72324359414985     
12.9568669751702     0.987510618192291    6.68245166231654     0.116505855963391    -80.515365157542     0.116505855963391    -80.515365157542     0.987510618192291    6.68245166231654     
13.031667784523      0.987646445666331    6.64186201222495     0.115800437179077    -80.5654429258033    0.115800437179077    -80.5654429258033    0.987646445666331    6.64186201222495     
13.1069004236608     0.987780861128634    6.6014735956895      0.115098473169553    -80.6152652372448    0.115098473169553    -80.6152652372448    0.987780861128634    6.6014735956895      
13.1825673855641     0.987913878593272    6.56128536664887     0.114399946687313    -80.66483317134      0.114399946687313    -80.66483317134      0.987913878593272    6.56128536664887     
13.2586711776056     0.988045511942962    6.52129628119875     0.113704840506062    -80.7141478014653    0.113704840506062    -80.7141478014653    0.988045511942962    6.52129628119875     
13.3352143216332     0.988175774930015    6.48150529762499     0.113013137421529    -80.7632101948137    0.113013137421529    -80.7632101948137    0.988175774930015    6.48150529762499     
13.4121993540537     0.988304681177288    6.44191137643387     0.112324820252255    -80.8120214123095    0.112324820252255    -80.8120214123095    0.988304681177288    6.44191137643387     
13.4896288259165     0.988432244179131    6.40251348038354     0.111639871840368    -80.860582508521     0.111639871840368    -80.860582508521     0.988432244179131    6.40251348038354     
13.5675053029986     0.988558477302339    6.36331057451311     0.110958275052334    -80.9088945315738    0.110958275052334    -80.9088945315738    0.988558477302339    6.36331057451311     
13.6458313658892     0.988683393787092    6.32430162617178     0.110280012779695    -80.9569585230622    0.110280012779695    -80.9569585230622    0.988683393787092    6.32430162617178     
13.7246096100756     0.9888070067479      6.28548560504674     0.109605067939789    -81.0047755179616    0.109605067939789    -81.0047755179616    0.9888070067479      6.28548560504674     
13.8038426460289     0.988929329174545    6.24686148319033     0.108933423476448    -81.0523465445385    0.108933423476448    -81.0523465445385    0.988929329174545    6.24686148319033     
13.8835330992905     0.98905037393302     6.20842823504675     0.108265062360694    -81.0996726242609    0.108265062360694    -81.0996726242609    0.98905037393302     6.20842823504675     
13.9636836105594     0.989170153766463    6.17018483747737     0.107599967591399    -81.1467547717073    0.107599967591399    -81.1467547717073    0.989170153766463    6.17018483747737     
14.0442968357795     0.989288681296092    6.13213026978579     0.106938122195939    -81.1935939944749    0.106938122195939    -81.1935939944749    0.989288681296092    6.13213026978579     
14.1253754462275     0.989405969022133    6.09426351374202     0.106279509230838    -81.240191293087     0.106279509230838    -81.240191293087     0.989405969022133    6.09426351374202     
14.2069221286018     0.989522029324751    6.0565835536055      0.105624111782377    -81.2865476608993    0.105624111782377    -81.2865476608993    0.989522029324751    6.0565835536055      
14.288939585111      0.989636874464975    6.01908937614834     0.104971912967214    -81.3326640840053    0.104971912967214    -81.3326640840053    0.989636874464975    6.01908937614834     
14.3714305335639     0.989750516585617    5.98177997067666     0.104322895932962    -81.3785415411404    0.104322895932962    -81.3785415411404    0.989750516585617    5.98177997067666     
14.4543977074593     0.98986296771219     5.94465432905237     0.103677043858772    -81.4241810035847    0.103677043858772    -81.4241810035847    0.98986296771219     5.94465432905237     
14.5378438560766     0.989974239753829    5.907711445713       0.103034339955886    -81.4695834350651    0.103034339955886    -81.4695834350651    0.989974239753829    5.907711445713       
14.6217717445672     0.990084344504194    5.87095031769205     0.102394767468191    -81.5147497916554    0.102394767468191    -81.5147497916554    0.990084344504194    5.87095031769205     
14.7061841540456     0.990193293642386    5.83436994463813     0.10175830967274     -81.5596810216761    0.10175830967274     -81.5596810216761    0.990193293642386    5.83436994463813     
14.7910838816821     0.99030109873385     5.79796932883296     0.101124949880279    -81.6043780655916    0.101124949880279    -81.6043780655916    0.99030109873385     5.79796932883296     
14.876473740795      0.99040777123127     5.76174747520964     0.100494671435736    -81.6488418559064    0.100494671435736    -81.6488418559064    0.99040777123127     5.76174747520964     
14.9623565609443     0.990513322475476    5.72570339136984     0.099867457718728    -81.6930733170598    0.099867457718728    -81.6930733170598    0.990513322475476    5.72570339136984     
15.0487351880251     0.990617763696327    5.68983608760001     0.099243292144019    -81.7370733653192    0.099243292144019    -81.7370733653192    0.990617763696327    5.68983608760001     
15.1356124843621     0.99072110601361     5.65414457688742     0.098622158161986    -81.7808429086715    0.098622158161986    -81.7808429086715    0.99072110601361     5.65414457688742     
15.2229913288042     0.990823360437919    5.61862787493562     0.098004039259074    -81.8243828467122    0.098004039259074    -81.8243828467122    0.990823360437919    5.61862787493562     
15.3108746168203     0.990924537871539    5.58328500017884     0.097388918958224    -81.8676940705338    0.097388918958224    -81.8676940705338    0.990924537871539    5.58328500017884     
15.3992652605949     0.991024649109322    5.54811497379639     0.096776780819299    -81.9107774626108    0.096776780819299    -81.9107774626108    0.991024649109322    5.54811497379639     
15.4881661891248     0.99112370483956     5.51311681972579     0.096167608439488    -81.9536338966844    0.096167608439488    -81.9536338966844    0.99112370483956     5.51311681972579     
15.577580348316      0.991221715644856    5.47828956467616     0.095561385453711    -81.9962642376436    0.095561385453711    -81.9962642376436    0.991221715644856    5.47828956467616     
15.6675107010815     0.991318692002982    5.44363223814012     0.094958095534999    -82.038669341405     0.094958095534999    -82.038669341405     0.991318692002982    5.44363223814012     
15.7579602274392     0.991414644287749    5.40914387240578     0.094357722394866    -82.0808500547904    0.094357722394866    -82.0808500547904    0.991414644287749    5.40914387240578     
15.8489319246111     0.991509582769853    5.37482350256812     0.093760249783675    -82.122807215401     0.093760249783675    -82.122807215401     0.991509582769853    5.37482350256812     
15.9404288071222     0.991603517617729    5.34067016653938     0.093165661490977    -82.1645416514908    0.093165661490977    -82.1645416514908    0.991603517617729    5.34067016653938     
16.0324539069004     0.991696458898398    5.30668290505957     0.092573941345862    -82.206054181836     0.092573941345862    -82.206054181836     0.991696458898398    5.30668290505957     
16.1250102733774     0.991788416578307    5.27286076170599     0.091985073217275    -82.2473456156026    0.091985073217275    -82.2473456156026    0.991788416578307    5.27286076170599     
16.2181009735893     0.991879400524171    5.23920278290222     0.091399041014334    -82.2884167522113    0.091399041014334    -82.2884167522113    0.991879400524171    5.23920278290222     
16.3117290922784     0.991969420503795    5.20570801792688     0.090815828686635    -82.329268381199     0.090815828686635    -82.329268381199     0.991969420503795    5.20570801792688     
16.4058977319954     0.992058486186912    5.17237551892188     0.090235420224543    -82.3699012820778    0.090235420224543    -82.3699012820778    0.992058486186912    5.17237551892188     
16.5006100132023     0.992146607145999    5.13920434089988     0.089657799659477    -82.4103162241912    0.089657799659477    -82.4103162241912    0.992146607145999    5.13920434089988     
16.5958690743756     0.992233792857098    5.10619354175153     0.089082951064182    -82.4505139665663    0.089082951064182    -82.4505139665663    0.992233792857098    5.10619354175153     
16.6916780721106     0.992320052700624    5.07334218225224     0.088510858552988    -82.4904952577637    0.088510858552988    -82.4904952577637    0.992320052700624    5.07334218225224     
16.7880401812256     0.992405395962179    5.04064932606828     0.087941506282063    -82.5302608357233    0.087941506282063    -82.5302608357233    0.992405395962179    5.04064932606828     
16.8849585948675     0.992489831833352    5.00811403976251     0.087374878449655    -82.5698114276076    0.087374878449655    -82.5698114276076    0.992489831833352    5.00811403976251     
16.9824365246174     0.992573369412515    4.97573539280011     0.086810959296325    -82.6091477496394    0.086810959296325    -82.6091477496394    0.992573369412515    4.97573539280011     
17.0804772005971     0.992656017705619    4.9435124575528      0.086249733105166    -82.6482705069384    0.086249733105166    -82.6482705069384    0.992656017705619    4.9435124575528      
17.1790838715759     0.992737785626978    4.91144430930421     0.085691184202021    -82.6871803933514    0.085691184202021    -82.6871803933514    0.992737785626978    4.91144430930421     
17.2782598050786     0.992818682000056    4.87953002625263     0.085135296955676    -82.7258780912811    0.085135296955676    -82.7258780912811    0.992818682000056    4.87953002625263     
17.3780082874938     0.992898715558242    4.84776868951613     0.084582055778067    -82.764364271507     0.084582055778067    -82.764364271507     0.992898715558242    4.84776868951613     
17.4783326241822     0.99297789494562     4.81615938313454     0.084031445124456    -82.8026395930064    0.084031445124456    -82.8026395930064    0.99297789494562     4.81615938313454     
17.5792361395869     0.993056228717742    4.78470119407274     0.083483449493608    -82.8407047027682    0.083483449493608    -82.8407047027682    0.993056228717742    4.78470119407274     
17.6807221773432     0.993133725342384    4.75339321222329     0.082938053427966    -82.8785602356014    0.082938053427966    -82.8785602356014    0.993133725342384    4.75339321222329     
17.7827941003892     0.993210393200309    4.72223453040805     0.082395241513801    -82.916206813942     0.082395241513801    -82.916206813942     0.993210393200309    4.72223453040805     
17.8854552910777     0.993286240586009    4.69122424437991     0.081854998381364    -82.9536450476519    0.081854998381364    -82.9536450476519    0.993286240586009    4.69122424437991     
17.9887091512879     0.993361275708464    4.66036145282424     0.081317308705034    -82.9908755338139    0.081317308705034    -82.9908755338139    0.993361275708464    4.66036145282424     
18.0925591025382     0.993435506691871    4.62964525735966     0.080782157203446    -83.0278988565216    0.080782157203446    -83.0278988565216    0.993435506691871    4.62964525735966     
18.1970085860998     0.993508941576386    4.59907476253835     0.080249528639617    -83.0647155866639    0.080249528639617    -83.0647155866639    0.993508941576386    4.59907476253835     
18.3020610631106     0.993581588318856    4.56864907584683     0.079719407821072    -83.1013262817025    0.079719407821072    -83.1013262817025    0.993581588318856    4.56864907584683     
18.4077200146896     0.993653454793539    4.53836730770503     0.079191779599942    -83.1377314854456    0.079191779599942    -83.1377314854456    0.993653454793539    4.53836730770503     
18.5139889420527     0.993724548792827    4.50822857146637     0.078666628873078    -83.1739317278138    0.078666628873078    -83.1739317278138    0.993724548792827    4.50822857146637     
18.6208713666287     0.99379487802796     4.47823198341669     0.078143940582141    -83.2099275246008    0.078143940582141    -83.2099275246008    0.99379487802796     4.47823198341669     
18.7283708301755     0.993864450129736    4.44837666277302     0.077623699713689    -83.2457193772269    0.077623699713689    -83.2457193772269    0.993864450129736    4.44837666277302     
18.836490894898      0.993933272649214    4.4186617316821      0.07710589129926     -83.2813077724865    0.07710589129926     -83.2813077724865    0.993933272649214    4.4186617316821      
18.9452351435659     0.994001353058412    4.38908631521879     0.076590500415448    -83.3166931822876    0.076590500415448    -83.3166931822876    0.994001353058412    4.38908631521879     
19.0546071796325     0.994068698751001    4.35964954138365     0.076077512183967    -83.3518760633854    0.076077512183967    -83.3518760633854    0.994068698751001    4.35964954138365     
19.1646106273539     0.994135317042992    4.33035054110049     0.075566911771707    -83.3868568571078    0.075566911771707    -83.3868568571078    0.994135317042992    4.33035054110049     
19.2752491319094     0.994201215173424    4.30118844821405     0.075058684390798    -83.4216359890726    0.075058684390798    -83.4216359890726    0.994201215173424    4.30118844821405     
19.3865263595221     0.994266400305031    4.27216239948644     0.074552815298646    -83.456213868898     0.074552815298646    -83.456213868898     0.994266400305031    4.27216239948644     
19.4984459975805     0.994330879524922    4.24327153459419     0.074049289797979    -83.490590889904     0.074049289797979    -83.490590889904     0.994330879524922    4.24327153459419     
19.6110117547605     0.994394659845247    4.21451499612455     0.073548093236882    -83.5247674288053    0.073548093236882    -83.5247674288053    0.994394659845247    4.21451499612455     
19.7242273611485     0.994457748203854    4.18589192957155     0.073049211008818    -83.5587438453959    0.073049211008818    -83.5587438453959    0.994457748203854    4.18589192957155     
19.8380965683651     0.994520151464946    4.15740148333191     0.07255262855266     -83.592520482224     0.07255262855266     -83.592520482224     0.994520151464946    4.15740148333191     
19.9526231496888     0.994581876419738    4.1290428087007      0.072058331352696    -83.6260976642574    0.072058331352696    -83.6260976642574    0.994581876419738    4.1290428087007      
20.0678109001819     0.994642929787094    4.10081505986651     0.071566304938648    -83.65947569854      0.071566304938648    -83.65947569854      0.994642929787094    4.10081505986651     
20.1836636368156     0.994703318214169    4.07271739390661     0.071076534885668    -83.6926548738369    0.071076534885668    -83.6926548738369    0.994703318214169    4.07271739390661     
20.3001851985968     0.994763048277047    4.0447489707818      0.070589006814345    -83.7256354602698    0.070589006814345    -83.7256354602698    0.994763048277047    4.0447489707818      
20.4173794466953     0.994822126481368    4.01690895333095     0.070103706390692    -83.7584177089415    0.070103706390692    -83.7584177089415    0.994822126481368    4.01690895333095     
20.5352502645715     0.994880559262951    3.98919650726524     0.06962061932613     -83.7910018515485    0.06962061932613     -83.7910018515485    0.994880559262951    3.98919650726524     
20.6538015581053     0.994938352988416    3.96161080116241     0.069139731377484    -83.8233880999831    0.069139731377484    -83.8233880999831    0.994938352988416    3.96161080116241     
20.7730372557256     0.994995513955794    3.93415100646052     0.068661028346944    -83.855576645922     0.068661028346944    -83.855576645922     0.994995513955794    3.93415100646052     
20.8929613085404     0.995052048395137    3.90681629745163     0.068184496082047    -83.8875676604034    0.068184496082047    -83.8875676604034    0.995052048395137    3.90681629745163     
21.0135776904675     0.995107962469123    3.8796058512752      0.067710120475642    -83.9193612933909    0.067710120475642    -83.9193612933909    0.995107962469123    3.8796058512752      
21.1348903983665     0.995163262273647    3.85251884791124     0.067237887465848    -83.9509576733238    0.067237887465848    -83.9509576733238    0.995163262273647    3.85251884791124     
21.2569034521711     0.995217953838424    3.82555447017335     0.066767783036017    -83.9823569066532    0.066767783036017    -83.9823569066532    0.995217953838424    3.82555447017335     
21.3796208950223     0.995272043127565    3.79871190370151     0.066299793214681    -84.0135590773645    0.066299793214681    -84.0135590773645    0.995272043127565    3.79871190370151     
21.5030467934026     0.995325536040168    3.77199033695461     0.065833904075504    -84.0445642464841    0.065833904075504    -84.0445642464841    0.995325536040168    3.77199033695461     
21.6271852372702     0.99537843841089     3.7453889612027      0.065370101737224    -84.0753724515711    0.065370101737224    -84.0753724515711    0.99537843841089     3.7453889612027      
21.7520403401952     0.99543075601052     3.71890697051941     0.06490837236359     -84.1059837061923    0.06490837236359     -84.1059837061923    0.99543075601052     3.71890697051941     
21.8776162394955     0.995482494546549    3.69254356177375     0.064448702163301    -84.1363979993814    0.064448702163301    -84.1363979993814    0.995482494546549    3.69254356177375     
22.003917096374      0.995533659663724    3.66629793462193     0.063991077389931    -84.16661529508      0.063991077389931    -84.16661529508      0.995533659663724    3.66629793462193     
22.1309470960564     0.995584256944613    3.64016929149906     0.063535484341861    -84.196635531561     0.063535484341861    -84.196635531561     0.995584256944613    3.64016929149906     
22.25871044793       0.995634291910147    3.61415683761032     0.063081909362194    -84.2264586208339    0.063081909362194    -84.2264586208339    0.995634291910147    3.61415683761032     
22.3872113856834     0.995683770020175    3.58825978092256     0.062630338838683    -84.2560844480295    0.062630338838683    -84.2560844480295    0.995683770020175    3.58825978092256     
22.5164541674462     0.995732696674       3.56247733215508     0.062180759203634    -84.2855128707659    0.062180759203634    -84.2855128707659    0.995732696674       3.56247733215508     
22.6464430759306     0.995781077210915    3.53680870477073     0.061733156933828    -84.3147437184924    0.061733156933828    -84.3147437184924    0.995781077210915    3.53680870477073     
22.7771824185732     0.995828916910738    3.51125311496652     0.061287518550418    -84.3437767918128    0.061287518550418    -84.3437767918128    0.995828916910738    3.51125311496652     
22.9086765276777     0.99587622099433     3.48580978166424     0.060843830618839    -84.3726118617859    0.060843830618839    -84.3726118617859    0.99587622099433     3.48580978166424     
23.0409297605585     0.995922994624127    3.46047792650102     0.060402079748708    -84.4012486692019    0.060402079748708    -84.4012486692019    0.995922994624127    3.46047792650102     
23.1739464996848     0.995969242904644    3.43525677381939     0.059962252593713    -84.4296869238358    0.059962252593713    -84.4296869238358    0.995969242904644    3.43525677381939     
23.3077311528264     0.996014970882996    3.41014555065739     0.059524335851514    -84.4579263036753    0.059524335851514    -84.4579263036753    0.996014970882996    3.41014555065739     
23.4422881531992     0.996060183549399    3.3851434867388      0.05908831626363     -84.4859664541212    0.05908831626363     -84.4859664541212    0.996060183549399    3.3851434867388      
23.5776219596125     0.99610488583767     3.36024981446269     0.058654180615326    -84.5138069871626    0.058654180615326    -84.5138069871626    0.99610488583767     3.36024981446269     
23.7137370566166     0.996149082625727    3.33546376889321     0.058221915735495    -84.5414474805225    0.058221915735495    -84.5414474805225    0.996149082625727    3.33546376889321     
23.8506379546511     0.996192778736078    3.3107845877492      0.05779150849654     -84.568887476774     0.05779150849654     -84.568887476774     0.996192778736078    3.3107845877492      
23.9883291901949     0.996235978936306    3.28621151139343     0.057362945814251    -84.596126482427     0.057362945814251    -84.596126482427     0.996235978936306    3.28621151139343     
24.1268153259164     0.996278687939557    3.26174378282209     0.056936214647681    -84.6231639669817    0.056936214647681    -84.6231639669817    0.996278687939557    3.26174378282209     
24.2661009508242     0.996320910405007    3.23738064765374     0.056511301999016    -84.6499993619498    0.056511301999016    -84.6499993619498    0.996320910405007    3.23738064765374     
24.4061906804198     0.996362650938341    3.21312135411852     0.056088194913445    -84.6766320598411    0.056088194913445    -84.6766320598411    0.996362650938341    3.21312135411852     
24.5470891568503     0.996403914092221    3.18896515304686     0.055666880479028    -84.7030614131143    0.055666880479028    -84.7030614131143    0.996403914092221    3.18896515304686     
24.6888010490621     0.996444704366741    3.1649112978584      0.055247345826558    -84.7292867330902    0.055247345826558    -84.7292867330902    0.996444704366741    3.1649112978584      
24.8313310529557     0.996485026209891    3.14095904455066     0.054829578129424    -84.7553072888265    0.054829578129424    -84.7553072888265    0.996485026209891    3.14095904455066     
24.9746838915414     0.99652488401801     3.11710765168751     0.05441356460347     -84.7811223059512    0.05441356460347     -84.7811223059512    0.99652488401801     3.11710765168751     
25.1188643150958     0.99656428213623     3.09335638038764     0.053999292506852    -84.8067309654554    0.053999292506852    -84.8067309654554    0.99656428213623     3.09335638038764     
25.263877101319      0.996603224858923    3.06970449431296     0.053586749139895    -84.8321324024401    0.053586749139895    -84.8321324024401    0.996603224858923    3.06970449431296     
25.4097270554931     0.99664171643014     3.0461512596567      0.053175921844938    -84.8573257048192    0.053175921844938    -84.8573257048192    0.99664171643014     3.0461512596567      
25.5564190106414     0.996679761044041    3.02269594513172     0.052766798006196    -84.8823099119734    0.052766798006196    -84.8823099119734    0.996679761044041    3.02269594513172     
25.7039578276886     0.99671736284533     2.9993378219583      0.0523593650496      -84.9070840133545    0.0523593650496      -84.9070840133545    0.99671736284533     2.9993378219583      
25.8523483956219     0.996754525929678    2.97607616385225     0.051953610442644    -84.9316469470387    0.051953610442644    -84.9316469470387    0.996754525929678    2.97607616385225     
26.0015956316527     0.99679125434414     2.95291024701265     0.051549521694238    -84.9559975982243    0.051549521694238    -84.9559975982243    0.99679125434414     2.95291024701265     
26.15170448138       0.99682755208758     2.92983935010968     0.05114708635454     -84.9801347976736    0.05114708635454     -84.9801347976736    0.99682755208758     2.92983935010968     
26.3026799189538     0.996863423111071    2.90686275427209     0.050746292014806    -85.0040573200966    0.050746292014806    -85.0040573200966    0.996863423111071    2.90686275427209     
26.4545269472405     0.996898871318309    2.88397974307497     0.050347126307224    -85.027763882471     0.050347126307224    -85.027763882471     0.996898871318309    2.88397974307497     
26.6072505979881     0.996933900566016    2.86118960252711     0.049949576904758    -85.0512531423       0.049949576904758    -85.0512531423       0.996933900566016    2.86118960252711     
26.7608559319933     0.996968514664332    2.83849162105836     0.04955363152098     -85.0745236958014    0.04955363152098     -85.0745236958014    0.996968514664332    2.83849162105836     
26.9153480392692     0.997002717377216    2.81588508950703     0.049159277909908    -85.0975740760277    0.049159277909908    -85.0975740760277    0.997002717377216    2.81588508950703     
27.0707320392136     0.99703651242283     2.79336930110706     0.04876650386584     -85.1204027509112    0.04876650386584     -85.1204027509112    0.99703651242283     2.79336930110706     
27.2270130807791     0.997069903473925    2.77094355147518     0.048375297223187    -85.1430081212341    0.048375297223187    -85.1430081212341    0.997069903473925    2.77094355147518     
27.3841963426436     0.997102894158219    2.748607138598       0.047985645856305    -85.1653885185172    0.047985645856305    -85.1653885185172    0.997102894158219    2.748607138598       
27.5422870333817     0.997135488058781    2.726359362819       0.047597537679325    -85.1875422028251    0.047597537679325    -85.1875422028251    0.997135488058781    2.726359362819       
27.7012903916373     0.997167688714391    2.70419952682551     0.047210960645986    -85.2094673604834    0.047210960645986    -85.2094673604834    0.997167688714391    2.70419952682551     
27.8612116862977     0.99719949961992     2.6821269356355      0.046825902749463    -85.2311621017041    0.046825902749463    -85.2311621017041    0.99719949961992     2.6821269356355      
28.0220562166675     0.99723092422668     2.66014089658443     0.04644235202219     -85.2526244581149    0.04644235202219     -85.2526244581149    0.99723092422668     2.66014089658443     
28.1838293126445     0.997261965942794    2.63824071931202     0.046060296535699    -85.2738523801872    0.046060296535699    -85.2738523801872    0.997261965942794    2.63824071931202     
28.3465363348967     0.997292628133543    2.61642571574885     0.045679724400438    -85.2948437345593    0.045679724400438    -85.2948437345593    0.997292628133543    2.61642571574885     
28.5101826750391     0.997322914121723    2.594695200103       0.045300623765601    -85.3155963012484    0.045300623765601    -85.3155963012484    0.997322914121723    2.594695200103       
28.6747737558132     0.997352827187984    2.57304848884661     0.044922982818956    -85.3361077707466    0.044922982818956    -85.3361077707466    0.997352827187984    2.57304848884661     
28.8403150312661     0.997382370571176    2.55148490070239     0.044546789786666    -85.356375740996     0.044546789786666    -85.356375740996     0.997382370571176    2.55148490070239     
29.0068119869315     0.997411547468689    2.53000375663006     0.044172032933123    -85.3763977142351    0.044172032933123    -85.3763977142351    0.997411547468689    2.53000375663006     
29.1742701400117     0.997440361036782    2.50860437981267     0.043798700560768    -85.3961710937131    0.043798700560768    -85.3961710937131    0.997440361036782    2.50860437981267     
29.3426950395597     0.997468814390914    2.48728609564309     0.043426781009917    -85.4156931802617    0.043426781009917    -85.4156931802617    0.997468814390914    2.48728609564309     
29.5120922666639     0.997496910606073    2.46604823171009     0.043056262658592    -85.4349611687215    0.043056262658592    -85.4349611687215    0.997496910606073    2.46604823171009     
29.6824674346324     0.997524652717092    2.44489011778478     0.042687133922342    -85.4539721442119    0.042687133922342    -85.4539721442119    0.997524652717092    2.44489011778478     
29.8538261891796     0.99755204371897     2.42381108580664     0.042319383254073    -85.4727230782394    0.042319383254073    -85.4727230782394    0.99755204371897     2.42381108580664     
30.0261742086127     0.997579086567184    2.40281046986983     0.041952999143875    -85.4912108246347    0.041952999143875    -85.4912108246347    0.997579086567184    2.40281046986983     
30.1995172040202     0.997605784178004    2.3818876062091      0.041587970118848    -85.5094321153094    0.041587970118848    -85.5094321153094    0.997605784178004    2.3818876062091      
30.373860919461      0.997632139428785    2.36104183318602     0.041224284742935    -85.5273835558248    0.041224284742935    -85.5273835558248    0.997632139428785    2.36104183318602     
30.5492111321551     0.997658155158284    2.34027249127488     0.040861931616748    -85.5450616207607    0.040861931616748    -85.5450616207607    0.997658155158284    2.34027249127488     
30.7255736526745     0.997683834166944    2.31957892304881     0.040500899377399    -85.5624626488757    0.040500899377399    -85.5624626488757    0.997683834166944    2.31957892304881     
30.9029543251359     0.9977091792172      2.29896047316559     0.040141176698335    -85.5795828380463    0.040141176698335    -85.5795828380463    0.9977091792172      2.29896047316559     
31.0813590273948     0.99773419303376     2.27841648835364     0.039782752289168    -85.596418239975     0.039782752289168    -85.596418239975     0.99773419303376     2.27841648835364     
31.2607936712396     0.997758878303893    2.2579463173978      0.039425614895513    -85.6129647546525    0.039425614895513    -85.6129647546525    0.997758878303893    2.2579463173978      
31.441264202588      0.997783237677712    2.23754931112537     0.039069753298821    -85.6292181245627    0.039069753298821    -85.6292181245627    0.997783237677712    2.23754931112537     
31.6227766016838     0.997807273768452    2.21722482239165     0.038715156316222    -85.6451739286162    0.038715156316222    -85.6451739286162    0.997807273768452    2.21722482239165     
31.8053368832952     0.997830989152742    2.19697220606601     0.038361812800362    -85.6608275757959    0.038361812800362    -85.6608275757959    0.997830989152742    2.19697220606601     
31.988951096914      0.997854386370881    2.17679081901738     0.038009711639248    -85.676174298501     0.038009711639248    -85.676174298501     0.997854386370881    2.17679081901738     
32.173625326956      0.997877467927098    2.15668002010014     0.037658841756091    -85.6912091455703    0.037658841756091    -85.6912091455703    0.997877467927098    2.15668002010014     
32.3593656929628     0.997900236289819    2.13663917013976     0.037309192109158    -85.705926974969     0.037309192109158    -85.705926974969     0.997900236289819    2.13663917013976     
32.5461783498046     0.997922693891924    2.11666763191848     0.03696075169162     -85.720322446118     0.03696075169162     -85.720322446118     0.997922693891924    2.11666763191848     
32.7340694878838     0.997944843131008    2.09676477016097     0.036613509531408    -85.7343900118457    0.036613509531408    -85.7343900118457    0.997944843131008    2.09676477016097     
32.9230453333407     0.997966686369624    2.0769299515199      0.036267454691066    -85.7481239099424    0.036267454691066    -85.7481239099424    0.997966686369624    2.0769299515199      
33.1131121482591     0.997988225935537    2.05716254456167     0.035922576267624    -85.7615181542907    0.035922576267624    -85.7615181542907    0.997988225935537    2.05716254456167     
33.3042762308746     0.998009464121967    2.03746191975185     0.035578863392447    -85.7745665255506    0.035578863392447    -85.7745665255506    0.998009464121967    2.03746191975185     
33.4965439157828     0.998030403187833    2.01782744944083     0.03523630523112     -85.7872625613706    0.03523630523112     -85.7872625613706    0.998030403187833    2.01782744944083     
33.6899215741491     0.998051045357981    1.99825850784936     0.034894890983314    -85.7995995460975    0.034894890983314    -85.7995995460975    0.998051045357981    1.99825850784936     
33.8844156139203     0.99807139282343     1.97875447105405     0.034554609882666    -85.8115704999547    0.034554609882666    -85.8115704999547    0.99807139282343     1.97875447105405     
34.0800324800365     0.99809144774159     1.95931471697289     0.034215451196666    -85.8231681676569    0.034215451196666    -85.8231681676569    0.99809144774159     1.95931471697289     
34.276778654645      0.998111212236497    1.93993862535085     0.033877404226549    -85.8343850064258    0.033877404226549    -85.8343850064258    0.998111212236497    1.93993862535085     
34.4746606573149     0.99813068839903     1.92062557774519     0.033540458307186    -85.8452131733715    0.033540458307186    -85.8452131733715    0.99813068839903     1.92062557774519     
34.6736850452532     0.998149878287138    1.90137495751106     0.033204602806993    -85.8556445121989    0.033204602806993    -85.8556445121989    0.998149878287138    1.90137495751106     
34.8738584135219     0.998168783926045    1.88218614978693     0.032869827127837    -85.8656705391961    0.032869827127837    -85.8656705391961    0.998168783926045    1.88218614978693     
35.0751873952568     0.998187407308471    1.86305854148007     0.03253612070496     -85.8752824284621    0.03253612070496     -85.8752824284621    0.998187407308471    1.86305854148007     
35.2776786618874     0.998205750394835    1.84399152125192     0.032203473006897    -85.8844709963213    0.032203473006897    -85.8844709963213    0.998205750394835    1.84399152125192     
35.4813389233576     0.998223815113465    1.82498447950362     0.031871873535419    -85.8932266848757    0.031871873535419    -85.8932266848757    0.998223815113465    1.82498447950362     
35.6861749283481     0.998241603360797    1.80603680836134     0.031541311825471    -85.9015395446364    0.031541311825471    -85.9015395446364    0.998241603360797    1.80603680836134     
35.8921934645005     0.998259117001573    1.7871479016618      0.03121177744513     -85.9093992161758    0.03121177744513     -85.9093992161758    0.998259117001573    1.7871479016618      
36.0994013586417     0.998276357869037    1.76831715493761     0.030883259995569    -85.9167949107326    0.030883259995569    -85.9167949107326    0.998276357869037    1.76831715493761     
36.3078054770101     0.998293327765125    1.7495439654027      0.030555749111033    -85.9237153897041    0.030555749111033    -85.9237153897041    0.998293327765125    1.7495439654027      
36.5174127254838     0.998310028460654    1.73082773193777     0.030229234458828    -85.9301489429447    0.030229234458828    -85.9301489429447    0.998310028460654    1.73082773193777     
36.7282300498085     0.998326461695509    1.71216785507562     0.029903705739325    -85.9360833657945    0.029903705739325    -85.9360833657945    0.998326461695509    1.71216785507562     
36.9402644358284     0.99834262917882     1.6935637369866      0.029579152685972    -85.9415059347476    0.029579152685972    -85.9415059347476    0.99834262917882     1.6935637369866      
37.1535229097173     0.998358532589143    1.67501478146402     0.029255565065329    -85.9464033816643    0.029255565065329    -85.9464033816643    0.998358532589143    1.67501478146402     
37.3680125382116     0.998374173574632    1.65652039390952     0.028932932677117    -85.9507618664293    0.028932932677117    -85.9507618664293    0.998374173574632    1.65652039390952     
37.5837404288444     0.998389553753214    1.63807998131846     0.028611245354277    -85.9545669479397    0.028611245354277    -85.9545669479397    0.998389553753214    1.63807998131846     
37.8007137301811     0.99840467471275     1.61969295226538     0.028290492963063    -85.9578035533079    0.028290492963063    -85.9578035533079    0.99840467471275     1.61969295226538     
38.0189396320561     0.99841953801121     1.60135871688938     0.027970665403139    -85.9604559451468    0.027970665403139    -85.9604559451468    0.99841953801121     1.60135871688938     
38.2384253658113     0.998434145176823    1.58307668687945     0.027651752607707    -85.9625076867983    0.027651752607707    -85.9625076867983    0.998434145176823    1.58307668687945     
38.4591782045354     0.998448497708245    1.56484627546004     0.02733374454366     -85.9639416053527    0.02733374454366     -85.9639416053527    0.998448497708245    1.56484627546004     
38.6812054633052     0.998462597074708    1.54666689737631     0.027016631211754    -85.964739752293     0.027016631211754    -85.964739752293     0.998462597074708    1.54666689737631     
38.9045144994281     0.998476444716168    1.52853796887967     0.026700402646807    -85.9648833615856    0.026700402646807    -85.9648833615856    0.998476444716168    1.52853796887967     
39.1291127126853     0.998490042043466    1.51045890771317     0.026385048917937    -85.9643528050213    0.026385048917937    -85.9643528050213    0.998490042043466    1.51045890771317     
39.3550075455777     0.998503390438457    1.49242913309691     0.026070560128819    -85.9631275445943    0.026070560128819    -85.9631275445943    0.998503390438457    1.49242913309691     
39.5822064835723     0.998516491254166    1.47444806571349     0.025756926417985    -85.9611860816886    0.025756926417985    -85.9611860816886    0.998516491254166    1.47444806571349     
39.8107170553498     0.998529345814918    1.45651512769351     0.025444137959154    -85.9585059028178    0.025444137959154    -85.9585059028178    0.998529345814918    1.45651512769351     
40.0405468330546     0.998541955416474    1.43862974260094     0.02513218496161     -85.9550634216455    0.02513218496161     -85.9550634216455    0.998541955416474    1.43862974260094     
40.2717034325459     0.998554321326168    1.4207913354187      0.024821057670612    -85.9508339169822    0.024821057670612    -85.9508339169822    0.998554321326168    1.4207913354187      
40.5041945136493     0.99856644478303     1.40299933253405     0.024510746367866    -85.9457914664339    0.024510746367866    -85.9457914664339    0.99856644478303     1.40299933253405     
40.7380277804113     0.998578326997916    1.3852531617241      0.024201241372026    -85.9399088753388    0.024201241372026    -85.9399088753388    0.998578326997916    1.3852531617241      
40.9732109813542     0.99858996915363     1.36755225214134     0.023892533039272    -85.9331576005999    0.023892533039272    -85.9331576005999    0.99858996915363     1.36755225214134     
41.209751909733      0.998601372405043    1.34989603429916     0.023584611763933    -85.925507668982     0.023584611763933    -85.925507668982     0.998601372405043    1.34989603429916     
41.4476584037939     0.998612537879208    1.33228394005732     0.023277467979178    -85.9169275893944    0.023277467979178    -85.9169275893944    0.998612537879208    1.33228394005732     
41.6869383470336     0.998623466675477    1.31471540260753     0.022971092157777    -85.9073842586438    0.022971092157777    -85.9073842586438    0.998623466675477    1.31471540260753     
41.9275996684606     0.998634159865606    1.29718985645907     0.022665474812942    -85.8968428600759    0.022665474812942    -85.8968428600759    0.998634159865606    1.29718985645907     
42.1696503428582     0.998644618493865    1.27970673742422     0.022360606499244    -85.8852667544808    0.022360606499244    -85.8852667544808    0.998644618493865    1.27970673742422     
42.4130983910488     0.998654843577148    1.26226548260399     0.022056477813627    -85.8726173625583    0.022056477813627    -85.8726173625583    0.998654843577148    1.26226548260399     
42.6579518801593     0.998664836105058    1.24486553037362     0.021753079396517    -85.8588540381768    0.021753079396517    -85.8588540381768    0.998664836105058    1.24486553037362     
42.9042189238886     0.998674597040022    1.22750632036826     0.021450401933039    -85.8439339315738    0.021450401933039    -85.8439339315738    0.998674597040022    1.22750632036826     
43.1519076827765     0.998684127317375    1.2101872934686      0.021148436154355    -85.8278118415538    0.021148436154355    -85.8278118415538    0.998684127317375    1.2101872934686      
43.4010263644744     0.998693427845456    1.19290789178653     0.02084717283913     -85.8104400556398    0.02084717283913     -85.8104400556398    0.998693427845456    1.19290789178653     
43.6515832240166     0.998702499505693    1.17566755865078     0.020546602815138    -85.7917681770203    0.020546602815138    -85.7917681770203    0.998702499505693    1.17566755865078     
43.9035865640945     0.998711343152694    1.15846573859268     0.020246716961026    -85.7717429370002    0.020246716961026    -85.7717429370002    0.998711343152694    1.15846573859268     
44.1570447353313     0.998719959614324    1.14130187733184     0.01994750620825     -85.7503079915238    0.01994750620825     -85.7503079915238    0.998719959614324    1.14130187733184     
44.4119661365589     0.998728349691789    1.12417542176186     0.019648961543196    -85.7274037001698    0.019648961543196    -85.7274037001698    0.998728349691789    1.12417542176186     
44.6683592150963     0.998736514159708    1.10708581993614     0.019351074009513    -85.7029668858356    0.019351074009513    -85.7029668858356    0.998736514159708    1.10708581993614     
44.9262324670294     0.99874445376619     1.09003252105366     0.019053834710671    -85.6769305731137    0.019053834710671    -85.6769305731137    0.99874445376619     1.09003252105366     
45.1855944374923     0.998752169232902    1.07301497544474     0.018757234812777    -85.6492237031297    0.018757234812777    -85.6492237031297    0.998752169232902    1.07301497544474     
45.4464537209509     0.998759661255139    1.05603263455692     0.018461265547668    -85.6197708223362    0.018461265547668    -85.6197708223362    0.998759661255139    1.05603263455692     
45.7088189614875     0.998766930501881    1.03908495094077     0.018165918216316    -85.5884917424485    0.018165918216316    -85.5884917424485    0.998766930501881    1.03908495094077     
45.9726988530872     0.998773977615869    1.02217137823577     0.017871184192574    -85.5553011683595    0.017871184192574    -85.5553011683595    0.998773977615869    1.02217137823577     
46.2381021399261     0.998780803213645    1.00529137115628     0.017577054927317    -85.5201082904634    0.017577054927317    -85.5201082904634    0.998780803213645    1.00529137115628     
46.5050376166607     0.998787407885623    0.988444385477322    0.017283521952994    -85.4828163373613    0.017283521952994    -85.4828163373613    0.998787407885623    0.988444385477322    
46.7735141287198     0.998793792196131    0.971629878020704    0.016990576888671    -85.4433220843917    0.016990576888671    -85.4433220843917    0.998793792196131    0.971629878020704    
47.0435405725976     0.998799956683464    0.954847306640902    0.016698211445597    -85.4015153128207    0.016698211445597    -85.4015153128207    0.998799956683464    0.954847306640902    
47.3151258961481     0.998805901859934    0.938096130211051    0.016406417433368    -85.3572782138259    0.016406417433368    -85.3572782138259    0.998805901859934    0.938096130211051    
47.5882790988817     0.998811628211906    0.92137580860906     0.016115186766761    -85.3104847306009    0.016115186766761    -85.3104847306009    0.998811628211906    0.92137580860906     
47.8630092322639     0.998817136199844    0.90468580270361     0.015824511473315    -85.2609998309693    0.015824511473315    -85.2609998309693    0.998817136199844    0.90468580270361     
48.1393254000145     0.998822426258345    0.888025574340257    0.015534383701763    -85.2086787018099    0.015534383701763    -85.2086787018099    0.998822426258345    0.888025574340257    
48.4172367584099     0.998827498796179    0.871394586327622    0.015244795731409    -85.1533658553352    0.015244795731409    -85.1533658553352    0.998827498796179    0.871394586327622    
48.6967525165863     0.998832354196311    0.854792302423453    0.014955739982586    -85.0948941357854    0.014955739982586    -85.0948941357854    0.998832354196311    0.854792302423453    
48.9778819368446     0.998836992815939    0.838218187320846    0.014667209028335    -85.0330836133832    0.014667209028335    -85.0330836133832    0.998836992815939    0.838218187320846    
49.2606343349577     0.998841414986515    0.821671706634511    0.014379195607466    -84.9677403503732    0.014379195607466    -84.9677403503732    0.998841414986515    0.821671706634511    
49.5450190804791     0.998845621013766    0.805152326886962    0.014091692639199    -84.8986550215931    0.014091692639199    -84.8986550215931    0.998845621013766    0.805152326886962    
49.831045597053      0.998849611177718    0.788659515494798    0.013804693239595    -84.8256013692286    0.013804693239595    -84.8256013692286    0.998849611177718    0.788659515494798    
50.1187233627272     0.998853385732711    0.772192740755076    0.013518190740052    -84.7483344680932    0.013518190740052    -84.7483344680932    0.998853385732711    0.772192740755076    
50.408061910267      0.998856944907409    0.755751471831603    0.013232178708149    -84.6665887738451    0.013232178708149    -84.6665887738451    0.998856944907409    0.755751471831603    
50.6990708274705     0.998860288904817    0.739335178741365    0.012946650971201    -84.580075921887     0.012946650971201    -84.580075921887     0.998860288904817    0.739335178741365    
50.991759757487      0.998863417902284    0.722943332340906    0.012661601642939    -84.4884822391093    0.012661601642939    -84.4884822391093    0.998863417902284    0.722943332340906    
51.2861383991365     0.998866332051511    0.706575404312843    0.012377025153793    -84.3914659239625    0.012377025153793    -84.3914659239625    0.998866332051511    0.706575404312843    
51.5822165072306     0.998869031478549    0.690230867152296    0.012092916285366    -84.2886538422989    0.012092916285366    -84.2886538422989    0.998869031478549    0.690230867152296    
51.8800038928961     0.998871516283804    0.673909194153466    0.011809270209767    -84.179637876734     0.011809270209767    -84.179637876734     0.998871516283804    0.673909194153466    
52.1795104239003     0.998873786542025    0.65760985939619     0.011526082534637    -84.0639707555203    0.011526082534637    -84.0639707555203    0.998873786542025    0.65760985939619     
52.4807460249773     0.998875842302306    0.641332337732544    0.011243349354813    -83.9411612726343    0.011243349354813    -83.9411612726343    0.998875842302306    0.641332337732544    
52.7837206781577     0.998877683588068    0.625076104773471    0.010961067311817    -83.8106687933133    0.010961067311817    -83.8106687933133    0.998877683588068    0.625076104773471    
53.0884444230989     0.998879310397051    0.608840636875565    0.010679233662562    -83.6718969178517    0.010679233662562    -83.6718969178517    0.998879310397051    0.608840636875565    
53.3949273574177     0.998880722701296    0.592625411127638    0.010397846358979    -83.5241861500557    0.010397846358979    -83.5241861500557    0.998880722701296    0.592625411127638    
53.7031796370253     0.998881920447127    0.576429905337586    0.010116904140619    -83.3668053840495    0.010116904140619    -83.3668053840495    0.998881920447127    0.576429905337586    
54.0132114764635     0.99888290355513     0.560253598019274    0.009836406642766    -83.1989419824153    0.009836406642766    -83.1989419824153    0.99888290355513     0.560253598019274    
54.3250331492434     0.998883671920127    0.544095968379243    0.009556354523137    -83.0196901677247    0.009556354523137    -83.0196901677247    0.998883671920127    0.544095968379243    
54.6386549881854     0.998884225411148    0.527956496303674    0.009276749610989    -82.8280373854568    0.009276749610989    -82.8280373854568    0.998884225411148    0.527956496303674    
54.9540873857625     0.998884563871401    0.511834662345338    0.008997595083374    -82.6228482152691    0.008997595083374    -82.6228482152691    0.998884563871401    0.511834662345338    
55.2713407944435     0.998884687118239    0.49572994771057     0.008718895674426    -82.4028453044726    0.008718895674426    -82.4028453044726    0.998884687118239    0.49572994771057     
55.5904257270404     0.998884594943123    0.479641834246303    0.008440657925099    -82.166586665547     0.008440657925099    -82.166586665547     0.998884594943123    0.479641834246303    
55.911352757056      0.99888428711158     0.463569804427142    0.008162890482711    -81.9124385094029    0.008162890482711    -81.9124385094029    0.99888428711158     0.463569804427142    
56.2341325190349     0.998883763363164    0.447513341342487    0.007885604462181    -81.6385425653748    0.007885604462181    -81.6385425653748    0.998883763363164    0.447513341342487    
56.5587757089154     0.998883023411412    0.431471928683728    0.007608813884208    -81.3427765505164    0.007608813884208    -81.3427765505164    0.998883023411412    0.431471928683728    
56.8852930843842     0.998882066943785    0.415445050731429    0.007332536210021    -81.0227060711261    0.007332536210021    -81.0227060711261    0.998882066943785    0.415445050731429    
57.2136954652326     0.99888089362163     0.39943219234262     0.007056792998283    -80.6755257357772    0.007056792998283    -80.6755257357772    0.99888089362163     0.39943219234262     
57.5439937337157     0.998879503080117    0.383432838938113    0.006781610717654    -80.297986585558     0.006781610717654    -80.297986585558     0.998879503080117    0.383432838938113    
57.8761988349121     0.998877894928185    0.367446476489885    0.006507021759348    -79.8863060387353    0.006507021759348    -79.8863060387353    0.998877894928185    0.367446476489885    
58.2103217770871     0.998876068748478    0.351472591508463    0.00623306570893     -79.4360553109261    0.00623306570893     -79.4360553109261    0.998876068748478    0.351472591508463    
58.5463736320578     0.998874024097285    0.335510671030441    0.005959790957225    -78.9420175745093    0.005959790957225    -78.9420175745093    0.998874024097285    0.335510671030441    
58.8843655355589     0.998871760504471    0.319560202605995    0.005687256759265    -78.3980077683593    0.005687256759265    -78.3980077683593    0.998871760504471    0.319560202605995    
59.2243086876131     0.998869277473411    0.303620674286427    0.005415535891443    -77.7966416765988    0.005415535891443    -77.7966416765988    0.998869277473411    0.303620674286427    
59.566214352901      0.998866574480911    0.287691574611878    0.005144718116402    -77.1290372427619    0.005144718116402    -77.1290372427619    0.998866574480911    0.287691574611878    
59.9100938611354     0.998863650977138    0.271772392598925    0.004874914751706    -76.3844244485902    0.004874914751706    -76.3844244485902    0.998863650977138    0.271772392598925    
60.2559586074358     0.99886050638554     0.255862617728427    0.004606264766212    -75.5496305311998    0.004606264766212    -75.5496305311998    0.99886050638554     0.255862617728427    
60.6038200527067     0.998857140102761    0.239961739933246    0.004338943019702    -74.6083934427822    0.004338943019702    -74.6083934427822    0.998857140102761    0.239961739933246    
60.9536897240169     0.998853551498562    0.224069249586174    0.004073171552696    -73.5404361993364    0.004073171552696    -73.5404361993364    0.998853551498562    0.224069249586174    
61.3055792149821     0.998849739915726    0.208184637487794    0.003809235282854    -72.3202050923741    0.003809235282854    -72.3202050923741    0.998849739915726    0.208184637487794    
61.6595001861483     0.998845704669975    0.192307394854554    0.003547504167251    -70.9151314216322    0.003547504167251    -70.9151314216322    0.998845704669975    0.192307394854554    
62.0154643653786     0.998841445049868    0.176437013306707    0.00328846500257     -69.2832141254136    0.00328846500257     -69.2832141254136    0.998841445049868    0.176437013306707    
62.373483548242      0.998836960316711    0.160572984856485    0.003032767811985    -67.3696345825015    0.003032767811985    -67.3696345825015    0.998836960316711    0.160572984856485    
62.7335695984038     0.998832249704452    0.14471480189626     0.00278129460919     -65.1020068460594    0.00278129460919     -65.1020068460594    0.998832249704452    0.14471480189626     
63.0957344480194     0.998827312419578    0.128861957186736    0.002535262817839    -62.3837658114459    0.002535262817839    -62.3837658114459    0.998827312419578    0.128861957186736    
63.4599900981287     0.998822147641013    0.113013943845312    0.002296382411535    -59.0852193591495    0.002296382411535    -59.0852193591495    0.998822147641013    0.113013943845312    
63.8263486190549     0.998816754520001    0.097170255334393    0.002067094921077    -55.0323101742225    0.002067094921077    -55.0323101742225    0.998816754520001    0.097170255334393    
64.1948221508036     0.998811132180002    0.081330385449844    0.001850930273597    -49.9951894637424    0.001850930273597    -49.9951894637424    0.998811132180002    0.081330385449844    
64.5654229034656     0.998805279716569    0.065493828309488    0.001653007550539    -43.684812897242     0.001653007550539    -43.684812897242     0.998805279716569    0.065493828309488    
64.9381631576212     0.998799196197234    0.049660078341648    0.001480625473955    -35.7803336742351    0.001480625473955    -35.7803336742351    0.998799196197234    0.049660078341648    
65.3130552647473     0.99879288066138     0.033828630273854    0.001343619448634    -26.0334170125353    0.001343619448634    -26.0334170125353    0.99879288066138     0.033828630273854    
65.6901116476267     0.998786332120126    0.017998979121454    0.001253616687963    -14.4943175288301    0.001253616687963    -14.4943175288301    0.998786332120126    0.017998979121454    
66.0693448007596     0.998779549556187    0.002170620176483    0.00122103757811     -1.77579970644247    0.00122103757811     -1.77579970644247    0.998779549556187    0.002170620176483    
66.450767290778      0.998772531923748    -0.013656951003529   0.001250369160817    10.9759369322407     0.001250369160817    10.9759369322407     0.998772531923748    -0.013656951003529   
66.8343917568615     0.998765278148332    -0.029484238606623   0.001337542968676    22.5976859558461     0.001337542968676    22.5976859558461     0.998765278148332    -0.029484238606623   
67.2202309111567     0.998757787126658    -0.045311746577385   0.001472325529969    32.4435760238965     0.001472325529969    32.4435760238965     0.998757787126658    -0.045311746577385   
67.6082975391982     0.998750057726498    -0.061139978627906   0.001643052568257    40.439614196285      0.001643052568257    40.439614196285      0.998750057726498    -0.061139978627906   
67.9986045003322     0.99874208878654     -0.076969438248547   0.001839759101204    46.8251738777057     0.001839759101204    46.8251738777057     0.99874208878654     -0.076969438248547   
68.391164728143      0.998733879116231    -0.092800628718776   0.002055016317493    51.9208259586004     0.002055016317493    51.9208259586004     0.998733879116231    -0.092800628718776   
68.7859912308808     0.998725427495636    -0.108634053117789   0.002283604848579    56.0183974566513     0.002283604848579    56.0183974566513     0.998725427495636    -0.108634053117789   
69.1830970918937     0.998716732675275    -0.124470214335166   0.002521924688427    59.3508966070774     0.002521924688427    59.3508966070774     0.998716732675275    -0.124470214335166   
69.5824954700605     0.998707793375971    -0.140309615081334   0.002767486995899    62.095044301236      0.002767486995899    62.095044301236      0.998707793375971    -0.140309615081334   
69.9841996002274     0.998698608288687    -0.156152757897992   0.003018550032382    64.3825657557658     0.003018550032382    64.3825657557658     0.998698608288687    -0.156152757897992   
70.3882227936457     0.998689176074364    -0.172000145168504   0.003273874869145    66.3115207158786     0.003273874869145    66.3115207158786     0.998689176074364    -0.172000145168504   
70.7945784384139     0.998679495363754    -0.187852279128128   0.003532564717703    67.9553813548018     0.003532564717703    67.9553813548018     0.998679495363754    -0.187852279128128   
71.2032799999203     0.998669564757245    -0.20370966187414    0.003793959225059    69.3697563605375     0.003793959225059    69.3697563605375     0.998669564757245    -0.20370966187414    
71.6143410212902     0.998659382824693    -0.219572795375995   0.004057564238139    70.5972254231824     0.004057564238139    70.5972254231824     0.998659382824693    -0.219572795375995   
72.0277751238341     0.998648948105241    -0.235442181485251   0.00432300446323     71.670785198028      0.00432300446323     71.670785198028      0.998648948105241    -0.235442181485251   
72.4435960074991     0.998638259107141    -0.251318321945451   0.004589991040224    72.6163094379679     0.004589991040224    72.6163094379679     0.998638259107141    -0.251318321945451   
72.8618174513228     0.998627314307567    -0.267201718402      0.004858298963898    73.4543172287251     0.004858298963898    73.4543172287251     0.998627314307567    -0.267201718402      
73.2824533138904     0.998616112152431    -0.283092872411751   0.005127751105939    74.2012558476934     0.005127751105939    74.2012558476934     0.998616112152431    -0.283092872411751   
73.7055175337934     0.99860465105619     -0.298992285452729   0.005398206731697    74.8704413369439     0.005398206731697    74.8704413369439     0.99860465105619     -0.298992285452729   
74.1310241300918     0.998592929401657    -0.314900458933548   0.005669553125638    75.4727557084492     0.005669553125638    75.4727557084492     0.998592929401657    -0.314900458933548   
74.5589872027782     0.998580945539793    -0.330817894202805   0.005941699399467    76.0171694271649     0.005941699399467    76.0171694271649     0.998580945539793    -0.330817894202805   
74.9894209332456     0.998568697789518    -0.346745092558483   0.006214571854904    76.5111371505312     0.006214571854904    76.5111371505312     0.998568697789518    -0.346745092558483   
75.4223395847571     0.998556184437499    -0.362682555257041   0.006488110468925    76.9609005567107     0.006488110468925    76.9609005567107     0.998556184437499    -0.362682555257041   
75.8577575029184     0.998543403737948    -0.378630783522544   0.006762266199891    77.3717223514971     0.006762266199891    77.3717223514971     0.998543403737948    -0.378630783522544   
76.2956891161534     0.998530353912404    -0.394590278555673   0.007036998901229    77.748068779963      0.007036998901229    77.748068779963      0.998530353912404    -0.394590278555673   
76.7361489361819     0.998517033149523    -0.410561541542531   0.007312275689907    78.0937532301192     0.007312275689907    78.0937532301192     0.998517033149523    -0.410561541542531   
77.1791515585013     0.998503439604862    -0.426545073663489   0.007588069658949    78.4120501639847     0.007588069658949    78.4120501639847     0.998503439604862    -0.426545073663489   
77.6247116628692     0.998489571400652    -0.44254137610175    0.007864358852804    78.7057862175038     0.007864358852804    78.7057862175038     0.998489571400652    -0.44254137610175    
78.0728440137907     0.998475426625576    -0.458550950051964   0.008141125445424    78.9774135844792     0.008141125445424    78.9774135844792     0.998475426625576    -0.458550950051964   
78.5235634610072     0.998461003334539    -0.474574296728584   0.008418355076036    79.2290695430736     0.008418355076036    79.2290695430736     0.998461003334539    -0.474574296728584   
78.9768849399886     0.998446299548439    -0.490611917374179   0.008696036308594    79.4626250603639     0.008696036308594    79.4626250603639     0.998446299548439    -0.490611917374179   
79.4328234724282     0.998431313253925    -0.506664313267658   0.008974160189009    79.6797247263264     0.008974160189009    79.6797247263264     0.998431313253925    -0.506664313267658   
79.8913941667405     0.998416042403168    -0.522731985732243   0.009252719880209    79.8818197573516     0.009252719880209    79.8818197573516     0.998416042403168    -0.522731985732243   
80.3526122185618     0.998400484913605    -0.53881543614347    0.009531710359615    80.0701954241321     0.009531710359615    80.0701954241321     0.998400484913605    -0.53881543614347    
80.8164929112538     0.998384638667704    -0.554915165936985   0.009811128166977    80.2459939662262     0.009811128166977    80.2459939662262     0.998384638667704    -0.554915165936985   
81.28305161641       0.998368501512707    -0.571031676616167   0.010090971193087    80.41023383179       0.010090971193087    80.41023383179       0.998368501512707    -0.571031676616167   
81.752303794365      0.998352071260382    -0.587165469759733   0.010371238501885    80.5638259085363     0.010371238501885    80.5638259085363     0.998352071260382    -0.587165469759733   
82.2242649947071     0.99833534568676     -0.603317047029128   0.010651930179985    80.7075872782062     0.010651930179985    80.7075872782062     0.99833534568676     -0.603317047029128   
82.6989508567932     0.998318322531878    -0.619486910175782   0.010933047208826    80.8422529224057     0.010933047208826    80.8422529224057     0.998318322531878    -0.619486910175782   
83.1763771102671     0.998300999499511    -0.635675561048284   0.011214591355596    80.9684857256008     0.011214591355596    80.9684857256008     0.998300999499511    -0.635675561048284   
83.656559575581      0.99828337425691     -0.651883501599361   0.011496565079804    81.086885056224      0.011496565079804    81.086885056224      0.99828337425691     -0.651883501599361   
84.1395141645195     0.998265444434522    -0.668111233892725   0.011778971452957    81.1979941553042     0.011778971452957    81.1979941553042     0.998265444434522    -0.668111233892725   
84.6252568807269     0.998247207625721    -0.684359260109811   0.012061814089243    81.3023065208514     0.012061814089243    81.3023065208514     0.998247207625721    -0.684359260109811   
85.1138038202377     0.998228661386526    -0.70062808255634    0.012345097085517    81.400271443142      0.012345097085517    81.400271443142      0.998228661386526    -0.70062808255634    
85.6051711720096     0.998209803235316    -0.716918203668707   0.012628824969174    81.4922988193484     0.012628824969174    81.4922988193484     0.998209803235316    -0.716918203668707   
86.0993752184601     0.998190630652549    -0.733230126020259   0.012913002652719    81.5787633542954     0.012913002652719    81.5787633542954     0.998190630652549    -0.733230126020259   
86.5964323360065     0.998171141080465    -0.749564352327434   0.013197635394068    81.660008236474      0.013197635394068    81.660008236474      0.998171141080465    -0.749564352327434   
87.0963589956081     0.998151331922795    -0.765921385455703   0.01348272876175     81.7363483640002     0.01348272876175     81.7363483640002     0.998151331922795    -0.765921385455703   
87.5991717633117     0.998131200544464    -0.78230172842534    0.013768288604327    81.8080731833361     0.013768288604327    81.8080731833361     0.998131200544464    -0.78230172842534    
88.1048873008015     0.998110744271285    -0.798705884416982   0.014054321023449    81.8754491937896     0.014054321023449    81.8754491937896     0.998110744271285    -0.798705884416982   
88.61352236595       0.998089960389662    -0.815134356777329   0.014340832350047    81.9387221627025     0.014340832350047    81.9387221627025     0.998089960389662    -0.815134356777329   
89.1250938133746     0.998068846146266    -0.831587649024187   0.014627829123259    81.9981190894776     0.014627829123259    81.9981190894776     0.998068846146266    -0.831587649024187   
89.639618594995      0.998047398747738    -0.84806626485177    0.014915318071724    82.0538499509775     0.014915318071724    82.0538499509775     0.998047398747738    -0.84806626485177    
90.1571137605958     0.998025615360361    -0.864570708135559   0.015203306096942    82.1061092561009     0.015203306096942    82.1061092561009     0.998025615360361    -0.864570708135559   
90.6775964583906     0.998003493109742    -0.881101482937099   0.015491800258444    82.1550774333889     0.015491800258444    82.1550774333889     0.998003493109742    -0.881101482937099   
91.201083935591      0.99798102908049     -0.897659093508646   0.015780807760543    82.2009220721689     0.015780807760543    82.2009220721689     0.99798102908049     -0.897659093508646   
91.727593538978      0.99795822031588     -0.914244044297559   0.016070335940483    82.2437990349245     0.016070335940483    82.2437990349245     0.99795822031588     -0.914244044297559   
92.2571427154764     0.99793506381753     -0.930856839950501   0.016360392257807    82.2838534561805     0.016360392257807    82.2838534561805     0.99793506381753     -0.930856839950501   
92.7897490127332     0.997911556545058    -0.947497985317516   0.016650984284808    82.3212206411619     0.016650984284808    82.3212206411619     0.997911556545058    -0.947497985317516   
93.3254300796992     0.997887695415744    -0.964167985455916   0.016942119697941    82.3560268757411     0.016942119697941    82.3560268757411     0.997887695415744    -0.964167985455916   
93.8642036672135     0.997863477304184    -0.980867345633859   0.017233806270076    82.3883901577086     0.017233806270076    82.3883901577086     0.997863477304184    -0.980867345633859   
94.4060876285924     0.997838899041943    -0.997596571333893   0.017526051863507    82.4184208581255     0.017526051863507    82.4184208581255     0.997838899041943    -0.997596571333893   
94.9510999202199     0.997813957417203    -1.01435616825615    0.017818864423632    82.4462223204196     0.017818864423632    82.4462223204196     0.997813957417203    -1.01435616825615    
95.4992586021436     0.997788649174408    -1.03114664232146    0.018112251973223    82.4718914039487     0.018112251973223    82.4718914039487     0.997788649174408    -1.03114664232146    
96.0505818386731     0.997762971013898    -1.04796849967417    0.018406222607239    82.495518977933      0.018406222607239    82.495518977933      0.997762971013898    -1.04796849967417    
96.6050878989814     0.997736919591556    -1.06482224668478    0.018700784488105    82.5171903709566     0.018700784488105    82.5171903709566     0.997736919591556    -1.06482224668478    
97.1627951577107     0.997710491518428    -1.08170838995237    0.018995945841424    82.5369857806268     0.018995945841424    82.5369857806268     0.997710491518428    -1.08170838995237    
97.7237220955811     0.997683683360356    -1.09862743630681    0.019291714952072    82.5549806474429     0.019291714952072    82.5549806474429     0.997683683360356    -1.09862743630681    
98.2878873000033     0.997656491637608    -1.11557989281075    0.019588100160632    82.5712459964664     0.019588100160632    82.5712459964664     0.997656491637608    -1.11557989281075    
98.8553094656939     0.997628912824488    -1.13256626676134    0.019885109860143    82.5858487499774     0.019885109860143    82.5858487499774     0.997628912824488    -1.13256626676134    
99.4260073952957     0.997600943348955    -1.14958706569182    0.020182752493123    82.5988520139472     0.020182752493123    82.5988520139472     0.997600943348955    -1.14958706569182    
100                  0.997572579592239    -1.16664279737276    0.020481036548851    82.6103153408476     0.020481036548851    82.6103153408476     0.997572579592239    -1.16664279737276    
