# MHz S MA R 50      
!Freq                MagS11               AngS11               MagS21               AngS21               MagS12               AngS12               MagS22               AngS22               
1                    0.006503621821887    39.8556002291525     0.995016145844934    -0.239998647527459   0.995016145844934    -0.239998647527459   0.006503621821887    39.8556002291525     
1.00982803856765     0.006534633081895    40.0963090032409     0.995010149578866    -0.242355918033033   0.995010149578866    -0.242355918033033   0.006534633081895    40.0963090032409     
1.01975266747738     0.006566045231467    40.3372098763451     0.995004121433158    -0.244736334137193   0.995004121433158    -0.244736334137193   0.006566045231467    40.3372098763451     
1.0297748360228      0.006597862947785    40.5782847079771     0.994998061201828    -0.247140122982758   0.994998061201828    -0.247140122982758   0.006597862947785    40.5782847079771     
1.03989550282723     0.006630090946422    40.8195152913265     0.994991968676902    -0.249567513939647   0.994991968676902    -0.249567513939647   0.006630090946422    40.8195152913265     
1.05011563593533     0.006662733981495    41.0608833598095     0.994985843648366    -0.252018738626676   0.994985843648366    -0.252018738626676   0.006662733981495    41.0608833598095     
1.06043621290579     0.006695796845804    41.3023705936675     0.994979685904171    -0.254494030933573   0.994979685904171    -0.254494030933573   0.006695796845804    41.3023705936675     
1.07085822090476     0.006729284370992    41.5439586266102     0.994973495230163    -0.256993627043199   0.994973495230163    -0.256993627043199   0.006729284370992    41.5439586266102     
1.08138265680029     0.0067632014277      41.7856290524974     0.994967271410084    -0.259517765453996   0.994967271410084    -0.259517765453996   0.0067632014277      41.7856290524974     
1.09201052725771     0.006797552925731    42.0273634320539     0.994961014225532    -0.262066687002654   0.994961014225532    -0.262066687002654   0.006797552925731    42.0273634320539     
1.10274284883587     0.006832343814217    42.2691432996092     0.994954723455904    -0.264640634886981   0.994954723455904    -0.264640634886981   0.006832343814217    42.2691432996092     
1.11358064808443     0.006867579081794    42.5109501698594     0.994948398878396    -0.267239854689025   0.994948398878396    -0.267239854689025   0.006867579081794    42.5109501698594     
1.12452496164199     0.00690326375678     42.752765544642      0.994942040267973    -0.269864594398402   0.994942040267973    -0.269864594398402   0.00690326375678     42.752765544642      
1.13557683633528     0.006939402907359    42.994570919718      0.994935647397293    -0.27251510443584    0.994935647397293    -0.27251510443584    0.006939402907359    42.994570919718      
1.14673732927931     0.006976001641774    43.2363477915591     0.994929220036728    -0.275191637676997   0.994929220036728    -0.275191637676997   0.006976001641774    43.2363477915591     
1.15800750797843     0.007013065108522    43.4780776641263     0.994922757954272    -0.277894449476449   0.994922757954272    -0.277894449476449   0.007013065108522    43.4780776641263     
1.16938845042846     0.007050598496557    43.7197420556416     0.994916260915548    -0.280623797691975   0.994916260915548    -0.280623797691975   0.007050598496557    43.7197420556416     
1.18088124521983     0.007088607035503    43.9613225053401     0.994909728683759    -0.283379942709027   0.994909728683759    -0.283379942709027   0.007088607035503    43.9613225053401     
1.19248699164166     0.007127095995866    44.2028005802015     0.99490316101966     -0.286163147465476   0.99490316101966     -0.286163147465476   0.007127095995866    44.2028005802015     
1.20420679978693     0.007166070689266    44.4441578816516     0.994896557681486    -0.288973677476564   0.994896557681486    -0.288973677476564   0.007166070689266    44.4441578816516     
1.21604179065866     0.007205536468657    44.6853760522298     0.994889918424949    -0.291811800860135   0.994889918424949    -0.291811800860135   0.007205536468657    44.6853760522298     
1.22799309627712     0.007245498728576    44.9264367822137     0.994883243003198    -0.294677788362088   0.994883243003198    -0.294677788362088   0.007245498728576    44.9264367822137     
1.24006185978813     0.007285962905383    45.1673218161996     0.994876531166748    -0.297571913382086   0.994876531166748    -0.297571913382086   0.007285962905383    45.1673218161996     
1.2522492355724      0.007326934477517    45.4080129596283     0.99486978266347     -0.300494451999507   0.99486978266347     -0.300494451999507   0.007326934477517    45.4080129596283     
1.26455638935591     0.007368418965761    45.6484920852535     0.994862997238565    -0.303445682999678   0.994862997238565    -0.303445682999678   0.007368418965761    45.6484920852535     
1.27698449832146     0.007410421933503    45.8887411395455     0.994856174634445    -0.306425887900303   0.994856174634445    -0.306425887900303   0.007410421933503    45.8887411395455     
1.28953475122125     0.007452948987027    46.1287421490259     0.994849314590782    -0.30943535097822    0.994849314590782    -0.30943535097822    0.007452948987027    46.1287421490259     
1.30220834849057     0.007496005775791    46.368477226527      0.994842416844415    -0.312474359296371   0.994842416844415    -0.312474359296371   0.007496005775791    46.368477226527      
1.31500650236264     0.007539597992724    46.6079285773709     0.994835481129311    -0.315543202731051   0.994835481129311    -0.315543202731051   0.007539597992724    46.6079285773709     
1.32793043698457     0.007583731374535    46.8470785054633     0.994828507176518    -0.318642173999414   0.994828507176518    -0.318642173999414   0.007583731374535    46.8470785054633     
1.3409813885344      0.007628411702022    47.0859094192957     0.994821494714153    -0.321771568687266   0.994821494714153    -0.321771568687266   0.007628411702022    47.0859094192957     
1.35416060533942     0.007673644800396    47.3244038378544     0.994814443467286    -0.324931685277099   0.994814443467286    -0.324931685277099   0.007673644800396    47.3244038378544     
1.36746934799548     0.007719436539614    47.5625443964264     0.994807353157972    -0.32812282517642    0.994807353157972    -0.32812282517642    0.007719436539614    47.5625443964264     
1.38090888948765     0.007765792834719    47.8003138523037     0.99480022350513     -0.331345292746354   0.99480022350513     -0.331345292746354   0.007765792834719    47.8003138523037     
1.39448051531194     0.00781271964619     48.037695090375      0.994793054224559    -0.334599395330511   0.994793054224559    -0.334599395330511   0.00781271964619     48.037695090375      
1.40818552359825     0.007860222980306    48.2746711286077     0.994785845028824    -0.337885443284151   0.994785845028824    -0.337885443284151   0.007860222980306    48.2746711286077     
1.42202522523458     0.007908308889512    48.5112251234088     0.994778595627258    -0.341203750003615   0.994778595627258    -0.341203750003615   0.007908308889512    48.5112251234088     
1.43600094399235     0.007956983472802    48.7473403748678     0.994771305725879    -0.344554631956069   0.994771305725879    -0.344554631956069   0.007956983472802    48.7473403748678     
1.45011401665308     0.008006252876109    48.9830003318715     0.994763975027357    -0.3479384087095     0.994763975027357    -0.3479384087095     0.008006252876109    48.9830003318715     
1.46436579313623     0.008056123292702    49.2181885970927     0.99475660323093     -0.351355402963032   0.99475660323093     -0.351355402963032   0.008056123292702    49.2181885970927     
1.47875763662831     0.008106600963603    49.4528889318455     0.994749190032382    -0.354805940577533   0.994749190032382    -0.354805940577533   0.008106600963603    49.4528889318455     
1.4932909237133      0.008157692177999    49.6870852608064     0.994741735123957    -0.358290350606499   0.994741735123957    -0.358290350606499   0.008157692177999    49.6870852608064     
1.50796704450427     0.008209403273681    49.9207616765975     0.994734238194337    -0.361808965327279   0.994734238194337    -0.361808965327279   0.008209403273681    49.9207616765975     
1.52278740277639     0.008261740637482    50.1539024442284     0.99472669892854     -0.365362120272553   0.99472669892854     -0.365362120272553   0.008261740637482    50.1539024442284     
1.5377534161012      0.008314710705727    50.3864920053954     0.99471911700789     -0.368950154262144   0.99471911700789     -0.368950154262144   0.008314710705727    50.3864920053954     
1.55286651598218     0.008368319964701    50.6185149826365     0.994711492109954    -0.372573409435155   0.994711492109954    -0.372573409435155   0.008368319964701    50.6185149826365     
1.56812814799165     0.008422574951116    50.8499561833364     0.994703823908479    -0.376232231282382   0.994703823908479    -0.376232231282382   0.008422574951116    50.8499561833364     
1.58353977190913     0.008477482252601    51.0808006035844     0.99469611207331     -0.37992696867905    0.99469611207331     -0.37992696867905    0.008477482252601    51.0808006035844     
1.59910286186085     0.008533048508191    51.3110334318801     0.994688356270359    -0.383657973917901   0.994688356270359    -0.383657973917901   0.008533048508191    51.3110334318801     
1.61481890646085     0.008589280408837    51.5406400526869     0.994680556161517    -0.387425602742556   0.994680556161517    -0.387425602742556   0.008589280408837    51.5406400526869     
1.63068940895331     0.00864618469792     51.7696060498316     0.994672711404575    -0.391230214381224   0.994672711404575    -0.391230214381224   0.00864618469792     51.7696060498316     
1.64671588735635     0.008703768171779    51.997917209749      0.994664821653198    -0.395072171580745   0.994664821653198    -0.395072171580745   0.008703768171779    51.997917209749      
1.66289987460725     0.008762037680248    52.2255595245714     0.994656886556815    -0.398951840640953   0.994656886556815    -0.398951840640953   0.008762037680248    52.2255595245714     
1.67924291870902     0.008821000127208    52.4525191950607     0.994648905760571    -0.402869591449357   0.994648905760571    -0.402869591449357   0.008821000127208    52.4525191950607     
1.69574658287854     0.008880662471144    52.6787826333846     0.994640878905249    -0.406825797516195   0.994640878905249    -0.406825797516195   0.008880662471144    52.6787826333846     
1.71241244569602     0.008941031725714    52.9043364657349     0.994632805627193    -0.410820836009805   0.994632805627193    -0.410820836009805   0.008941031725714    52.9043364657349     
1.72924210125604     0.009002114960337    53.1291675347895     0.994624685558254    -0.414855087792324   0.994624685558254    -0.414855087792324   0.009002114960337    53.1291675347895     
1.74623715931998     0.009063919300783    53.3532629020164     0.994616518325666    -0.418928937455771   0.994616518325666    -0.418928937455771   0.009063919300783    53.3532629020164     
1.76339924547003     0.009126451929773    53.576609849821      0.994608303552023    -0.423042773358439   0.994608303552023    -0.423042773358439   0.009126451929773    53.576609849821      
1.78073000126467     0.009189720087601    53.7991958835381     0.994600040855174    -0.427196987661688   0.994600040855174    -0.427196987661688   0.009189720087601    53.7991958835381     
1.79823108439566     0.009253731072754    54.0210087332667     0.994591729848152    -0.431391976367033   0.994591729848152    -0.431391976367033   0.009253731072754    54.0210087332667     
1.81590416884664     0.009318492242552    54.2420363555516     0.994583370139067    -0.43562813935365    0.994583370139067    -0.43562813935365    0.009318492242552    54.2420363555516     
1.83375094505321     0.009384011013795    54.4622669349097     0.994574961331069    -0.439905880416209   0.994574961331069    -0.439905880416209   0.009384011013795    54.4622669349097     
1.85177312006465     0.00945029486342     54.681688885204      0.994566503022209    -0.444225607303063   0.994566503022209    -0.444225607303063   0.00945029486342     54.681688885204      
1.86997241770718     0.009517351329175    54.9002908508672     0.994557994805399    -0.448587731754879   0.994557994805399    -0.448587731754879   0.009517351329175    54.9002908508672     
1.88835057874883     0.009585188010295    55.1180617079742     0.994549436268302    -0.452992669543542   0.994549436268302    -0.452992669543542   0.009585188010295    55.1180617079742     
1.90690936106601     0.009653812568196    55.3349905651662     0.994540826993232    -0.457440840511498   0.994540826993232    -0.457440840511498   0.009653812568196    55.3349905651662     
1.92565053981157     0.009723232727176    55.5510667644295     0.994532166557092    -0.461932668611472   0.994532166557092    -0.461932668611472   0.009723232727176    55.5510667644295     
1.94457590758465     0.009793456275131    55.7662798817282     0.994523454531258    -0.466468581946565   0.994523454531258    -0.466468581946565   0.009793456275131    55.7662798817282     
1.96368727460211     0.009864491064275    55.9806197274951     0.994514690481489    -0.471049012810713   0.994514690481489    -0.471049012810713   0.009864491064275    55.9806197274951     
1.98298646887169     0.009936345011879    56.1940763469817     0.994505873967824    -0.475674397729585   0.994505873967824    -0.475674397729585   0.009936345011879    56.1940763469817     
2.00247533636688     0.010009026101012    56.4066400204697     0.994497004544508    -0.480345177501834   0.994497004544508    -0.480345177501834   0.010009026101012    56.4066400204697     
2.02215574120345     0.010082542381303    56.6183012633466     0.994488081759868    -0.485061797240766   0.994488081759868    -0.485061797240766   0.010082542381303    56.6183012633466     
2.04202956581779     0.010156901969702    56.8290508260489     0.994479105156194    -0.489824706416412   0.994479105156194    -0.489824706416412   0.010156901969702    56.8290508260489     
2.06209871114691     0.010232113051263    57.0388796938721     0.994470074269697    -0.494634358898014   0.994470074269697    -0.494634358898014   0.010232113051263    57.0388796938721     
2.08236509681036     0.010308183879928    57.2477790866544     0.994460988630341    -0.499491212996887   0.994460988630341    -0.499491212996887   0.010308183879928    57.2477790866544     
2.10283066129373     0.010385122779328    57.4557404583338     0.994451847761752    -0.504395731509719   0.994451847761752    -0.504395731509719   0.010385122779328    57.4557404583338     
2.12349736213415     0.010462938143594    57.6627554963828     0.99444265118112     -0.509348381762314   0.99444265118112     -0.509348381762314   0.010462938143594    57.6627554963828     
2.1443671761075      0.010541638438173    57.8688161211229     0.994433398399083    -0.514349635653705   0.994433398399083    -0.514349635653705   0.010541638438173    57.8688161211229     
2.16544209941748     0.010621232200662    58.0739144849223     0.994424088919602    -0.519399969700722   0.994424088919602    -0.519399969700722   0.010621232200662    58.0739144849223     
2.18672414788656     0.010701728041645    58.27804297128       0.994414722239851    -0.524499865082999   0.994414722239851    -0.524499865082999   0.010701728041645    58.27804297128       
2.20821535714879     0.010783134645548    58.4811941937977     0.994405297850105    -0.529649807688379   0.994405297850105    -0.529649807688379   0.010783134645548    58.4811941937977     
2.22991778284451     0.010865460771501    58.6833609950455     0.994395815233592    -0.534850288158788   0.994395815233592    -0.534850288158788   0.010865460771501    58.6833609950455     
2.25183350081699     0.010948715254205    58.8845364453224     0.994386273866414    -0.540101801936567   0.994386273866414    -0.540101801936567   0.010948715254205    58.8845364453224     
2.27396460731093     0.011032907004817    59.084713841314      0.994376673217376    -0.545404849311175   0.994376673217376    -0.545404849311175   0.011032907004817    59.084713841314      
2.29631321917304     0.011118045011846    59.2838867046541     0.994367012747883    -0.550759935466423   0.994367012747883    -0.550759935466423   0.011118045011846    59.2838867046541     
2.31888147405447     0.011204138342048    59.4820487803896     0.994357291911817    -0.556167570528138   0.994357291911817    -0.556167570528138   0.011204138342048    59.4820487803896     
2.34167153061528     0.011291196141346    59.679194035354      0.994347510155353    -0.561628269612238   0.994347510155353    -0.561628269612238   0.011291196141346    59.679194035354      
2.36468556873092     0.011379227635747    59.8753166564531     0.994337666916903    -0.567142552873361   0.994337666916903    -0.567142552873361   0.011379227635747    59.8753166564531     
2.38792578970076     0.011468242132282    60.0704110488636     0.994327761626902    -0.572710945553866   0.994327761626902    -0.572710945553866   0.011468242132282    60.0704110488636     
2.41139441645862     0.011558249019942    60.2644718341522     0.994317793707716    -0.578333978033378   0.994317793707716    -0.578333978033378   0.011558249019942    60.2644718341522     
2.43509369378538     0.011649257770634    60.457493848314      0.994307762573477    -0.584012185878766   0.994307762573477    -0.584012185878766   0.011649257770634    60.457493848314      
2.45902588852373     0.011741277940145    60.6494721397361     0.994297667629945    -0.589746109894615   0.994297667629945    -0.589746109894615   0.011741277940145    60.6494721397361     
2.48319328979498     0.011834319169117    60.8404019670886     0.994287508274346    -0.595536296174181   0.994287508274346    -0.595536296174181   0.011834319169117    60.8404019670886     
2.507598209218       0.011928391184024    61.0302787971482     0.994277283895242    -0.601383296150844   0.994277283895242    -0.601383296150844   0.011928391184024    61.0302787971482     
2.53224298113036     0.012023503798172    61.2190983025536     0.994266993872326    -0.60728766665004    0.994266993872326    -0.60728766665004    0.012023503798172    61.2190983025536     
2.55712996281156     0.012119666912696    61.4068563595009     0.994256637576358    -0.613249969941705   0.994256637576358    -0.613249969941705   0.012119666912696    61.4068563595009     
2.58226153470855     0.012216890517579    61.5935490453769     0.994246214368892    -0.619270773793197   0.994246214368892    -0.619270773793197   0.012216890517579    61.5935490453769     
2.60764010066341     0.012315184692669    61.7791726363397     0.994235723602209    -0.625350651522771   0.994235723602209    -0.625350651522771   0.012315184692669    61.7791726363397     
2.63326808814327     0.012414559608716    61.9637236048424     0.99422516461906     -0.631490182053503   0.99422516461906     -0.631490182053503   0.012414559608716    61.9637236048424     
2.65914794847249     0.012515025528413    62.14719861711       0.994214536752581    -0.637689949967796   0.994214536752581    -0.637689949967796   0.012515025528413    62.14719861711       
2.68528215706716     0.012616592807449    62.3295945305673     0.994203839326056    -0.643950545562358   0.994203839326056    -0.643950545562358   0.012616592807449    62.3295945305673     
2.71167321367182     0.012719271895569    62.5109083912236     0.994193071652782    -0.650272564903733   0.994193071652782    -0.650272564903733   0.012719271895569    62.5109083912236     
2.73832364259864     0.012823073337649    62.6911374310165     0.994182233035852    -0.656656609884346   0.994182233035852    -0.656656609884346   0.012823073337649    62.6911374310165     
2.7652359929688      0.012928007774777    62.8702790651179     0.994171322767995    -0.663103288279118   0.994171322767995    -0.663103288279118   0.012928007774777    62.8702790651179     
2.79241283895633     0.013034085945345    63.0483308892028     0.994160340131395    -0.669613213802547   0.994160340131395    -0.669613213802547   0.013034085945345    63.0483308892028     
2.81985678003439     0.01314131868615     63.2252906766883     0.994149284397456    -0.676187006166414   0.994149284397456    -0.676187006166414   0.01314131868615     63.2252906766883     
2.8475704412238      0.013249716933506    63.4011563759421     0.99413815482667     -0.682825291138041   0.99413815482667     -0.682825291138041   0.013249716933506    63.4011563759421     
2.87555647334424     0.013359291724367    63.5759261074621     0.99412695066838     -0.689528700598999   0.99412695066838     -0.689528700598999   0.013359291724367    63.5759261074621     
2.90381755326771     0.013470054197452    63.7495981610349     0.994115671160559    -0.696297872604499   0.994115671160559    -0.696297872604499   0.013470054197452    63.7495981610349     
2.93235638417463     0.013582015594397    63.9221709928696     0.994104315529665    -0.703133451443322   0.994104315529665    -0.703133451443322   0.013582015594397    63.9221709928696     
2.96117569581238     0.013695187260894    64.0936432227137     0.994092882990359    -0.7100360876982     0.994092882990359    -0.7100360876982     0.013695187260894    64.0936432227137     
2.99027824475639     0.013809580647861    64.2640136309531     0.994081372745362    -0.717006438307004   0.994081372745362    -0.717006438307004   0.013809580647861    64.2640136309531     
3.01966681467385     0.013925207312608    64.4332811556953     0.994069783985174    -0.724045166624262   0.994069783985174    -0.724045166624262   0.013925207312608    64.4332811556953     
3.0493442165899      0.014042078920021    64.6014448898427     0.994058115887873    -0.731152942483436   0.994058115887873    -0.731152942483436   0.014042078920021    64.6014448898427     
3.07931328915658     0.014160207243748    64.7685040781555     0.994046367618928    -0.738330442259741   0.994046367618928    -0.738330442259741   0.014160207243748    64.7685040781555     
3.10957689892427     0.014279604167406    64.9344581143061     0.994034538330906    -0.745578348933529   0.994034538330906    -0.745578348933529   0.014279604167406    64.9344581143061     
3.14013794061596     0.014400281685785    65.0993065379298     0.994022627163261    -0.75289735215431    0.994022627163261    -0.75289735215431    0.014400281685785    65.0993065379298     
3.17099933740406     0.014522251906077    65.2630490316706     0.994010633242098    -0.760288148305367   0.994010633242098    -0.760288148305367   0.014522251906077    65.2630490316706     
3.20216404119004     0.014645527049098    65.4256854182258     0.993998555679944    -0.767751440569005   0.993998555679944    -0.767751440569005   0.014645527049098    65.4256854182258     
3.23363503288679     0.014770119450536    65.5872156573934     0.993986393575467    -0.775287938992385   0.993986393575467    -0.775287938992385   0.014770119450536    65.5872156573934     
3.26541532270369     0.014896041562198    65.7476398431187     0.993974146013219    -0.782898360553986   0.993974146013219    -0.782898360553986   0.014896041562198    65.7476398431187     
3.2975079504346      0.015023305953276    65.9069582005469     0.993961812063426    -0.790583429230734   0.993961812063426    -0.790583429230734   0.015023305953276    65.9069582005469     
3.32991598574859     0.015151925311612    66.0651710830828     0.993949390781657    -0.798343876065736   0.993949390781657    -0.798343876065736   0.015151925311612    66.0651710830828     
3.36264252848355     0.015281912444988    66.2222789694563     0.993936881208627    -0.806180439236659   0.993936881208627    -0.806180439236659   0.015281912444988    66.2222789694563     
3.39569070894269     0.015413280282411    66.3782824607982     0.993924282369838    -0.814093864124709   0.993924282369838    -0.814093864124709   0.015413280282411    66.3782824607982     
3.42906368819397     0.015546041875422    66.5331822777274     0.99391159327537     -0.822084903384371   0.99391159327537     -0.822084903384371   0.015546041875422    66.5331822777274     
3.46276465837245     0.015680210399405    66.6869792574494     0.993898812919577    -0.830154317013724   0.993898812919577    -0.830154317013724   0.015680210399405    66.6869792574494     
3.49679684298562     0.015815799154913    66.8396743508705     0.993885940280774    -0.838302872425422   0.993885940280774    -0.838302872425422   0.015815799154913    66.8396743508705     
3.5311634972217      0.015952821569       66.9912686197246     0.993872974320959    -0.846531344518362   0.993872974320959    -0.846531344518362   0.015952821569       66.9912686197246     
3.56586790826106     0.016091291196571    67.1417632337194     0.993859913985517    -0.854840515750038   0.993859913985517    -0.854840515750038   0.016091291196571    67.1417632337194     
3.60091339559058     0.016231221721731    67.2911594676989     0.993846758202894    -0.863231176209549   0.993846758202894    -0.863231176209549   0.016231221721731    67.2911594676989     
3.63630331132119     0.016372626959158    67.4394586988248     0.993833505884296    -0.871704123691326   0.993833505884296    -0.871704123691326   0.016372626959158    67.4394586988248     
3.67204104050851     0.016515520855474    67.586662403779      0.993820155923372    -0.880260163769509   0.993820155923372    -0.880260163769509   0.016515520855474    67.586662403779      
3.70813000147661     0.01665991749064     67.7327721559864     0.993806707195873    -0.888900109873072   0.993806707195873    -0.888900109873072   0.01665991749064     67.7327721559864     
3.74457364614496     0.016805831079348    67.8777896228604     0.993793158559322    -0.897624783361559   0.993793158559322    -0.897624783361559   0.016805831079348    67.8777896228604     
3.78137546035867     0.016953275972439    68.0217165630722     0.993779508852696    -0.906435013601691   0.993779508852696    -0.906435013601691   0.016953275972439    68.0217165630722     
3.81853896422182     0.017102266658316    68.1645548238434     0.993765756896071    -0.915331638044558   0.993765756896071    -0.915331638044558   0.017102266658316    68.1645548238434     
3.85606771243425     0.017252817764383    68.3063063382633     0.993751901490236    -0.924315502303524   0.993751901490236    -0.924315502303524   0.017252817764383    68.3063063382633     
3.8939652946315      0.017404944058487    68.4469731226337     0.993737941416406    -0.93338746023301    0.993737941416406    -0.93338746023301    0.017404944058487    68.4469731226337     
3.93223533572822     0.01755866045037     68.5865572738382     0.993723875435776    -0.942548374007768   0.993723875435776    -0.942548374007768   0.01755866045037     68.5865572738382     
3.97088149626481     0.017713981993143    68.7250609667405     0.99370970228922     -0.951799114203201   0.99370970228922     -0.951799114203201   0.017713981993143    68.7250609667405     
4.00990747275765     0.017870923884754    68.8624864516092     0.993695420696836    -0.961140559876082   0.993695420696836    -0.961140559876082   0.017870923884754    68.8624864516092     
4.0493169980526      0.018029501469487    68.9988360515725     0.993681029357649    -0.97057359864642    0.993681029357649    -0.97057359864642    0.018029501469487    68.9988360515725     
4.08911384168209     0.018189730239456    69.134112160101      0.993666526949141    -0.9800991267797     0.993666526949141    -0.9800991267797     0.018189730239456    69.134112160101      
4.12930181022563     0.018351625836125    69.2683172385204     0.993651912126881    -0.989718049270165   0.993651912126881    -0.989718049270165   0.018351625836125    69.2683172385204     
4.16988474767398     0.018515204051828    69.4014538135546     0.993637183524102    -0.9994312799247     0.993637183524102    -0.9994312799247     0.018515204051828    69.4014538135546     
4.21086653579675     0.018680480831306    69.5335244748992     0.993622339751308    -1.00923974144767    0.993622339751308    -1.00923974144767    0.018680480831306    69.5335244748992     
4.25225109451377     0.018847472273258    69.6645318728252     0.993607379395818    -1.01914436552629    0.993607379395818    -1.01914436552629    0.018847472273258    69.6645318728252     
4.29404238226996     0.019016194631902    69.7944787158155     0.993592301021346    -1.02914609291711    0.993592301021346    -1.02914609291711    0.019016194631902    69.7944787158155     
4.33624439641402     0.019186664318549    69.9233677682317     0.993577103167578    -1.039245873533      0.993577103167578    -1.039245873533      0.019186664318549    69.9233677682317     
4.37886117358071     0.019358897903185    70.0512018480131     0.993561784349677    -1.04944466653106    0.993561784349677    -1.04944466653106    0.019358897903185    70.0512018480131     
4.42189679007703     0.019532912116071    70.1779838244078     0.993546343057847    -1.05974344040143    0.993546343057847    -1.05974344040143    0.019532912116071    70.1779838244078     
4.46535536227205     0.019708723849354    70.3037166157367     0.993530777756882    -1.07014317305676    0.993530777756882    -1.07014317305676    0.019708723849354    70.3037166157367     
4.5092410469907      0.019886350158692    70.4284031871894     0.993515086885662    -1.08064485192262    0.993515086885662    -1.08064485192262    0.019886350158692    70.4284031871894     
4.55355804191134     0.020065808264885    70.5520465486519     0.993499268856673    -1.09124947402863    0.993499268856673    -1.09124947402863    0.020065808264885    70.5520465486519     
4.59831058596726     0.020247115555527    70.6746497525697     0.993483322055507    -1.1019580461006     0.993483322055507    -1.1019580461006     0.020247115555527    70.6746497525697     
4.64350295975215     0.020430289586665    70.7962158918403     0.993467244840389    -1.11277158465333    0.993467244840389    -1.11277158465333    0.020430289586665    70.7962158918403     
4.68913948592957     0.020615348084477    70.9167480977413     0.993451035541591    -1.12369111608429    0.993451035541591    -1.12369111608429    0.020615348084477    70.9167480977413     
4.73522452964636     0.020802308946956    71.0362495378893     0.993434692460992    -1.13471767676834    0.993434692460992    -1.13471767676834    0.020802308946956    71.0362495378893     
4.78176249895019     0.020991190245613    71.1547234142345     0.993418213871482    -1.14585231315312    0.993418213871482    -1.14585231315312    0.020991190245613    71.1547234142345     
4.82875784521119     0.021182010227188    71.2721729610841     0.993401598016431    -1.15709608185528    0.993401598016431    -1.15709608185528    0.021182010227188    71.2721729610841     
4.87621506354775     0.02137478731538     71.3886014431625     0.993384843109144    -1.16845004975783    0.993384843109144    -1.16845004975783    0.02137478731538     71.3886014431625     
4.92413869325642     0.021569540112587    71.504012153701      0.993367947332285    -1.17991529410809    0.993367947332285    -1.17991529410809    0.021569540112587    71.504012153701      
4.97253331824619     0.021766287401661    71.6184084125631     0.993350908837296    -1.19149290261676    0.993350908837296    -1.19149290261676    0.021766287401661    71.6184084125631     
5.02140356747681     0.021965048147673    71.7317935643994     0.993333725743818    -1.20318397355772    0.993333725743818    -1.20318397355772    0.021965048147673    71.7317935643994     
5.07075411540169     0.022165841499699    71.8441709768368     0.993316396139069    -1.21498961586881    0.993316396139069    -1.21498961586881    0.022165841499699    71.8441709768368     
5.1205896824149      0.022368686792612    71.9555440386992     0.993298918077262    -1.22691094925356    0.993298918077262    -1.22691094925356    0.022368686792612    71.9555440386992     
5.17091503530276     0.022573603548895    72.0659161582601     0.99328128957898     -1.23894910428378    0.99328128957898     -1.23894910428378    0.022573603548895    72.0659161582601     
5.22173498769974     0.02278061148046     72.1752907615273     0.993263508630491    -1.25110522250301    0.993263508630491    -1.25110522250301    0.02278061148046     72.1752907615273     
5.27305440054887     0.022989730490491    72.2836712905586     0.99324557318316     -1.26338045653105    0.99324557318316     -1.26338045653105    0.022989730490491    72.2836712905586     
5.32487818256676     0.023200980675293    72.3910612018102     0.993227481152758    -1.27577597016938    0.993227481152758    -1.27577597016938    0.023200980675293    72.3910612018102     
5.37721129071304     0.023414382326158    72.4974639645144     0.99320923041879     -1.28829293850741    0.99320923041879     -1.28829293850741    0.023414382326158    72.4974639645144     
5.43005873066454     0.023629955931248    72.6028830590895     0.993190818823814    -1.30093254802983    0.993190818823814    -1.30093254802983    0.023629955931248    72.6028830590895     
5.4834255572941      0.023847722177489    72.7073219755796     0.993172244172747    -1.31369599672486    0.993172244172747    -1.31369599672486    0.023847722177489    72.7073219755796     
5.537316875154       0.024067701952483    72.8107842121256     0.993153504232136    -1.32658449419344    0.993153504232136    -1.32658449419344    0.024067701952483    72.8107842121256     
5.59173783896428     0.024289916346428    72.9132732734645     0.993134596729454    -1.33959926175942    0.993134596729454    -1.33959926175942    0.024289916346428    72.9132732734645     
5.64669365410578     0.024514386654063    73.0147926694599     0.993115519352319    -1.35274153258074    0.993115519352319    -1.35274153258074    0.024514386654063    73.0147926694599     
5.70218957711802     0.024741134376621    73.1153459136621     0.993096269747792    -1.36601255176157    0.993096269747792    -1.36601255176157    0.024741134376621    73.1153459136621     
5.75823091620196     0.024970181223796    73.2149365218956     0.99307684552157     -1.37941357646544    0.99307684552157     -1.37941357646544    0.024970181223796    73.2149365218956     
5.8148230317278      0.025201549115731    73.3135680108765     0.99305724423721     -1.39294587602937    0.99305724423721     -1.39294587602937    0.025201549115731    73.3135680108765     
5.87197133674765     0.025435260185017    73.4112438968586     0.993037463415353    -1.4066107320791     0.993037463415353    -1.4066107320791     0.025435260185017    73.4112438968586     
5.92968129751332     0.025671336778705    73.5079676943065     0.993017500532862    -1.42040943864511    0.993017500532862    -1.42040943864511    0.025671336778705    73.5079676943065     
5.98795843399913     0.025909801460343    73.6037429145969     0.992997353022038    -1.4343433022799     0.992997353022038    -1.4343433022799     0.025909801460343    73.6037429145969     
6.04680832042993     0.026150677012015    73.6985730647477     0.99297701826974     -1.44841364217613    0.99297701826974     -1.44841364217613    0.026150677012015    73.6985730647477     
6.10623658581427     0.026393986436405    73.792461646173      0.992956493616538    -1.46262179028589    0.992956493616538    -1.46262179028589    0.026393986436405    73.792461646173      
6.16624891448282     0.026639752958878    73.8854121534655     0.992935776355852    -1.47696909144096    0.992935776355852    -1.47696909144096    0.026639752958878    73.8854121534655     
6.22685104663206     0.026888000029566    73.9774280732047     0.992914863733014    -1.4914569034741     0.992914863733014    -1.4914569034741     0.026888000029566    73.9774280732047     
6.28804877887334     0.027138751325481    74.0685128827912     0.992893752944392    -1.50608659734143    0.992893752944392    -1.50608659734143    0.027138751325481    74.0685128827912     
6.34984796478735     0.027392030752638    74.1586700493063     0.992872441136432    -1.52085955724588    0.992872441136432    -1.52085955724588    0.027392030752638    74.1586700493063     
6.41225451548396     0.027647862448195    74.2479030283965     0.992850925404736    -1.53577718076161    0.992850925404736    -1.53577718076161    0.027647862448195    74.2479030283965     
6.4752744001677      0.02790627078261     74.3362152631827     0.99282920279308     -1.55084087895965    0.99282920279308     -1.55084087895965    0.02790627078261     74.3362152631827     
6.53891364670863     0.028167280361812    74.4236101831943     0.992807270292407    -1.56605207653441    0.992807270292407    -1.56605207653441    0.028167280361812    74.4236101831943     
6.60317834221899     0.02843091602939     74.510091203326      0.992785124839875    -1.58141221193155    0.992785124839875    -1.58141221193155    0.02843091602939     74.510091203326      
6.66807463363536     0.028697202868799    74.5956617228193     0.992762763317791    -1.59692273747664    0.992762763317791    -1.59692273747664    0.028697202868799    74.5956617228193     
6.73360872830667     0.028966166205577    74.6803251242661     0.992740182552587    -1.61258511950512    0.992740182552587    -1.61258511950512    0.028966166205577    74.6803251242661     
6.7997868945879      0.029237831609585    74.7640847726357     0.992717379313744    -1.62840083849333    0.992717379313744    -1.62840083849333    0.029237831609585    74.7640847726357     
6.86661546243968     0.029512224897261    74.8469440143238     0.992694350312726    -1.64437138919053    0.992694350312726    -1.64437138919053    0.029512224897261    74.8469440143238     
6.93410082403372     0.029789372133887    74.9289061762232     0.992671092201864    -1.66049828075217    0.992671092201864    -1.66049828075217    0.029789372133887    74.9289061762232     
7.00224943436427     0.030069299635874    75.0099745648168     0.992647601573217    -1.67678303687421    0.992647601573217    -1.67678303687421    0.030069299635874    75.0099745648168     
7.07106781186548     0.030352033973071    75.0901524652905     0.992623874957467    -1.69322719592854    0.992623874957467    -1.69322719592854    0.030352033973071    75.0901524652905     
7.14056253903493     0.030637601971077    75.1694431406681     0.9925999088227      -1.70983231109966    0.9925999088227      -1.70983231109966    0.030637601971077    75.1694431406681     
7.21074026306324     0.030926030713579    75.2478498309655     0.992575699573267    -1.72659995052226    0.992575699573267    -1.72659995052226    0.030926030713579    75.2478498309655     
7.28160769646991     0.031217347544707    75.3253757523656     0.992551243548511    -1.74353169742018    0.992551243548511    -1.74353169742018    0.031217347544707    75.3253757523656     
7.35317161774528     0.031511580071397    75.4020240964123     0.992526537021592    -1.76062915024637    0.992526537021592    -1.76062915024637    0.031511580071397    75.4020240964123     
7.42543887199899     0.031808756165783    75.477798029224      0.99250157619817     -1.77789392282406    0.99250157619817     -1.77789392282406    0.031808756165783    75.477798029224      
7.49841637161469     0.032108903967592    75.5527006907255     0.992476357215182    -1.79532764448909    0.992476357215182    -1.79532764448909    0.032108903967592    75.5527006907255     
7.57211109691119     0.032412051886567    75.6267351938985     0.992450876139453    -1.81293196023321    0.992450876139453    -1.81293196023321    0.032412051886567    75.6267351938985     
7.64653009681013     0.032718228604903    75.6999046240507     0.992425128966454    -1.83070853084898    0.992425128966454    -1.83070853084898    0.032718228604903    75.6999046240507     
7.72168048951023     0.033027463079694    75.7722120381016     0.992399111618847    -1.84865903307532    0.992399111618847    -1.84865903307532    0.033027463079694    75.7722120381016     
7.79756946316818     0.033339784545405    75.8436604638859     0.992372819945196    -1.86678515974465    0.992372819945196    -1.86678515974465    0.033339784545405    75.8436604638859     
7.87420427658609     0.033655222516359    75.9142528994744     0.99234624971848     -1.8850886199309     0.99234624971848     -1.8850886199309     0.033655222516359    75.9142528994744     
7.9515922599059      0.033973806789231    75.9839923125109     0.992319396634681    -1.90357113909894    0.992319396634681    -1.90357113909894    0.033973806789231    75.9839923125109     
8.02974081531045     0.034295567445575    76.0528816395651     0.992292256311332    -1.92223445925504    0.992292256311332    -1.92223445925504    0.034295567445575    76.0528816395651     
8.10865741773151     0.034620534854354    76.1209237855022     0.992264824286006    -1.94108033909859    0.992264824286006    -1.94108033909859    0.034620534854354    76.1209237855022     
8.1883496155648      0.034948739674492    76.188121622867      0.992237096014795    -1.96011055417496    0.992237096014795    -1.96011055417496    0.034948739674492    76.188121622867      
8.26882503139194     0.035280212857441    76.2544779912839     0.992209066870761    -1.97932689702962    0.992209066870761    -1.97932689702962    0.035280212857441    76.2544779912839     
8.35009136270957     0.035614985649769    76.3199956968714     0.99218073214238     -1.99873117736344    0.99218073214238     -1.99873117736344    0.035614985649769    76.3199956968714     
8.43215638266564     0.035953089595753    76.3846775116705     0.99215208703187     -2.01832522218908    0.99215208703187     -2.01832522218908    0.035953089595753    76.3846775116705     
8.5150279408029      0.036294556540006    76.4485261730888     0.992123126653611    -2.03811087598881    0.992123126653611    -2.03811087598881    0.036294556540006    76.4485261730888     
8.59871396380969     0.0366394186301      76.5115443833563     0.99209384603246     -2.05809000087331    0.99209384603246     -2.05809000087331    0.0366394186301      76.5115443833563     
8.68322245627816     0.036987708319222    76.5737348089962     0.992064240102024    -2.07826447674181    0.992064240102024    -2.07826447674181    0.036987708319222    76.5737348089962     
8.76856150146991     0.037339458368837    76.6351000803085     0.992034303702928    -2.09863620144337    0.992034303702928    -2.09863620144337    0.037339458368837    76.6351000803085     
8.85473926208912     0.037694701851368    76.6956427908661     0.992004031581075    -2.11920709093946    0.992004031581075    -2.11920709093946    0.037694701851368    76.6956427908661     
8.94176398106338     0.038053472152898    76.7553654970231     0.991973418385825    -2.13997907946766    0.991973418385825    -2.13997907946766    0.038053472152898    76.7553654970231     
9.02964398233206     0.038415802975876    76.8142707174365     0.991942458668135    -2.16095411970657    0.991942458668135    -2.16095411970657    0.038415802975876    76.8142707174365     
9.11838767164252     0.038781728341849    76.8723609325984     0.991911146878746    -2.18213418294211    0.991911146878746    -2.18213418294211    0.038781728341849    76.8723609325984     
9.20800353735417     0.039151282594208    76.9296385843809     0.991879477366214    -2.2035212592347     0.991879477366214    -2.2035212592347     0.039151282594208    76.9296385843809     
9.2985001512503      0.039524500400945    76.9861060755914     0.991847444375002    -2.22511735758802    0.991847444375002    -2.22511735758802    0.039524500400945    76.9861060755914     
9.38988616935805     0.039901416757426    77.0417657695395     0.991815042043513    -2.2469245061188     0.991815042043513    -2.2469245061188     0.039901416757426    77.0417657695395     
9.4821703327763      0.040282066989185    77.0966199896143     0.991782264402038    -2.26894475222771    0.991782264402038    -2.26894475222771    0.040282066989185    77.0966199896143     
9.5753614685118      0.040666486754723    77.1506710188722     0.991749105370722    -2.29118016277178    0.991749105370722    -2.29118016277178    0.040666486754723    77.1506710188722     
9.66946849032349     0.041054712048334    77.203921099635      0.991715558757482    -2.31363282423771    0.991715558757482    -2.31363282423771    0.041054712048334    77.203921099635      
9.76450039957502     0.041446779202932    77.2563724330975     0.99168161825585     -2.33630484291661    0.99168161825585     -2.33630484291661    0.041446779202932    77.2563724330975     
9.86046628609583     0.041842724892901    77.3080271789454     0.991647277442811    -2.35919834507979    0.991647277442811    -2.35919834507979    0.041842724892901    77.3080271789454     
9.95737532905055     0.042242586136961    77.3588874549816     0.991612529776621    -2.38231547715597    0.991612529776621    -2.38231547715597    0.042242586136961    77.3588874549816     
10.055236797817      0.042646400301038    77.4089553367625     0.991577368594486    -2.40565840590936    0.991577368594486    -2.40565840590936    0.042646400301038    77.4089553367625     
10.1540600528727     0.043054205101155    77.4582328572424     0.991541787110343    -2.4292293186193     0.991541787110343    -2.4292293186193     0.043054205101155    77.4582328572424     
10.2538545466906     0.043466038606336    77.5067220064272     0.991505778412461    -2.45303042326087    0.991505778412461    -2.45303042326087    0.043466038606336    77.5067220064272     
10.3546298246425     0.043881939241523    77.5544247310359     0.991469335461085    -2.47706394868673    0.991469335461085    -2.47706394868673    0.043881939241523    77.5544247310359     
10.4563955259127     0.044301945790499    77.6013429341703     0.991432451086007    -2.50133214481018    0.991432451086007    -2.50133214481018    0.044301945790499    77.6013429341703     
10.55916138442       0.044726097398833    77.6474784749929     0.991395117984089    -2.52583728278941    0.991395117984089    -2.52583728278941    0.044726097398833    77.6474784749929     
10.662937229748      0.045154433576832    77.6928331684121     0.991357328716734    -2.55058165521287    0.991357328716734    -2.55058165521287    0.045154433576832    77.6928331684121     
10.7677329880864     0.045586994202507    77.7374087847747     0.991319075707355    -2.57556757628586    0.991319075707355    -2.57556757628586    0.045586994202507    77.7374087847747     
10.8735586831794     0.046023819524544    77.7812070495667     0.991280351238723    -2.60079738201825    0.991280351238723    -2.60079738201825    0.046023819524544    77.7812070495667     
10.9804244372852     0.046464950165297    77.8242296431193     0.991241147450328    -2.6262734304134     0.991241147450328    -2.6262734304134     0.046464950165297    77.8242296431193     
11.088340472144      0.046910427123781    77.8664782003231     0.991201456335643    -2.65199810165808    0.991201456335643    -2.65199810165808    0.046910427123781    77.8664782003231     
11.1973171099554     0.047360291778685    77.9079543103485     0.99116126973941     -2.67797379831381    0.99116126973941     -2.67797379831381    0.047360291778685    77.9079543103485     
11.3073647743662     0.047814585891383    77.9486595163723     0.991120579354768    -2.70420294550897    0.991120579354768    -2.70420294550897    0.047814585891383    77.9486595163723     
11.4184939914671     0.048273351608968    77.9885953153106     0.991079376720445    -2.73068799113241    0.991079376720445    -2.73068799113241    0.048273351608968    77.9885953153106     
11.5307153907997     0.048736631467281    78.0277631575579     0.991037653217774    -2.75743140602772    0.991037653217774    -2.75743140602772    0.048736631467281    78.0277631575579     
11.644039706373      0.049204468393961    78.0661644467312     0.990995400067793    -2.78443568418903    0.990995400067793    -2.78443568418903    0.049204468393961    78.0661644467312     
11.7584777776904     0.049676905711494    78.1038005394215     0.990952608328178    -2.81170334295771    0.990952608328178    -2.81170334295771    0.049676905711494    78.1038005394215     
11.8740405507864     0.050153987140274    78.1406727449485     0.990909268890168    -2.83923692321997    0.990909268890168    -2.83923692321997    0.050153987140274    78.1406727449485     
11.9907390792733     0.050635756801667    78.1767823251222     0.990865372475411    -2.86703898960579    0.990865372475411    -2.86703898960579    0.050635756801667    78.1767823251222     
12.108584525399      0.051122259221088    78.2121304940093     0.990820909632818    -2.89511213068883    0.990820909632818    -2.89511213068883    0.051122259221088    78.2121304940093     
12.2275881611142     0.051613539331072    78.2467184177041     0.990775870735226    -2.92345895918708    0.990775870735226    -2.92345895918708    0.051613539331072    78.2467184177041     
12.3477613691509     0.052109642474365    78.2805472141044     0.990730245976161    -2.952082112165      0.990730245976161    -2.952082112165      0.052109642474365    78.2805472141044     
12.469115644111      0.052610614407006    78.3136179526927     0.990684025366433    -2.98098425123626    0.990684025366433    -2.98098425123626    0.052610614407006    78.3136179526927     
12.5916625935657     0.053116501301421    78.3459316543206     0.99063719873068     -3.01016806276767    0.99063719873068     -3.01016806276767    0.053116501301421    78.3459316543206     
12.7154139391661     0.053627349749512    78.3774892909989     0.990589755703898    -3.03963625808384    0.990589755703898    -3.03963625808384    0.053627349749512    78.3774892909989     
12.8403815177638     0.054143206765762    78.4082917856911     0.99054168572786     -3.06939157367307    0.99054168572786     -3.06939157367307    0.054143206765762    78.4082917856911     
12.9665772825437     0.054664119790325    78.4383400121109     0.990492978047506    -3.09943677139394    0.990492978047506    -3.09943677139394    0.054664119790325    78.4383400121109     
13.0940133041669     0.055190136692127    78.4676347945248     0.990443621707203    -3.12977463868271    0.990443621707203    -3.12977463868271    0.055190136692127    78.4676347945248     
13.2227017719255     0.055721305771963    78.4961769075568     0.990393605547048    -3.16040798876196    0.990393605547048    -3.16040798876196    0.055721305771963    78.4961769075568     
13.3526549949084     0.056257675765598    78.523967075998      0.990342918199003    -3.19133966084969    0.990342918199003    -3.19133966084969    0.056257675765598    78.523967075998      
13.4838854031788     0.056799295846857    78.5510059746199     0.990291548082973    -3.22257252036929    0.990291548082973    -3.22257252036929    0.056799295846857    78.5510059746199     
13.616405548963      0.057346215630722    78.5772942279901     0.990239483402898    -3.25410945916057    0.990239483402898    -3.25410945916057    0.057346215630722    78.5772942279901     
13.7502281078509     0.057898485176417    78.6028324102924     0.990186712142648    -3.28595339569121    0.990186712142648    -3.28595339569121    0.057898485176417    78.6028324102924     
13.8853658800088     0.058456154990493    78.6276210451499     0.990133222061952    -3.31810727526913    0.990133222061952    -3.31810727526913    0.058456154990493    78.6276210451499     
14.0218317914034     0.05901927602991     78.6516606054508     0.990079000692206    -3.35057407025559    0.990079000692206    -3.35057407025559    0.05901927602991     78.6516606054508     
14.1596388950383     0.059587899705102    78.6749515131781     0.990024035332204    -3.3833567802788     0.990024035332204    -3.3833567802788     0.059587899705102    78.6749515131781     
14.2988003722027     0.060162077883043    78.6974941392413     0.989968313043766    -3.41645843244818    0.989968313043766    -3.41645843244818    0.060162077883043    78.6974941392413     
14.4393295337318     0.060741862890304    78.7192888033119     0.989911820647396    -3.44988208156952    0.989911820647396    -3.44988208156952    0.060741862890304    78.7192888033119     
14.5812398212802     0.061327307516093    78.7403357736613     0.989854544717728    -3.4836308103602     0.989854544717728    -3.4836308103602     0.061327307516093    78.7403357736613     
14.7245448086079     0.06191846501529     78.7606352670012     0.989796471578973    -3.51770772966549    0.989796471578973    -3.51770772966549    0.06191846501529     78.7606352670012     
14.8692582028779     0.062515389111464    78.780187448327      0.989737587300244    -3.5521159786747     0.989737587300244    -3.5521159786747     0.062515389111464    78.780187448327      
15.0153938459681     0.063118133999884    78.7989924307641     0.989677877690842    -3.58685872513835    0.989677877690842    -3.58685872513835    0.063118133999884    78.7989924307641     
15.1629657157946     0.063726754350504    78.8170502754156     0.98961732829544     -3.62193916558558    0.98961732829544     -3.62193916558558    0.063726754350504    78.8170502754156     
15.3119879276493     0.064341305310941    78.8343609912138     0.989555924389138    -3.65736052554163    0.989555924389138    -3.65736052554163    0.064341305310941    78.8343609912138     
15.4624747355496     0.064961842509428    78.8509245347734     0.989493650972512    -3.69312605974599    0.989493650972512    -3.69312605974599    0.064961842509428    78.8509245347734     
15.6144405336018     0.065588422057747    78.8667408102469     0.989430492766492    -3.72923905237054    0.989430492766492    -3.72923905237054    0.065588422057747    78.8667408102469     
15.7678998573783     0.066221100554153    78.8818096691829     0.989366434207229    -3.76570281723829    0.989366434207229    -3.76570281723829    0.066221100554153    78.8818096691829     
15.9228673853073     0.066859935086253    78.8961309103858     0.989301459440812    -3.80252069804166    0.989301459440812    -3.80252069804166    0.066859935086253    78.8961309103858     
16.0793579400776     0.067504983233884    78.9097042797792     0.989235552317916    -3.8396960685615     0.989235552317916    -3.8396960685615     0.067504983233884    78.9097042797792     
16.2373864900557     0.068156303071945    78.9225294702697     0.989168696388363    -3.87723233288572    0.989168696388363    -3.87723233288572    0.068156303071945    78.9225294702697     
16.3969681507177     0.06881395317322     78.9346061216137     0.989100874895589    -3.91513292562822    0.989100874895589    -3.91513292562822    0.06881395317322     78.9346061216137     
16.5581181860954     0.069477992611153    78.9459338202872     0.989032070771011    -3.9534013121476     0.989032070771011    -3.9534013121476     0.069477992611153    78.9459338202872     
16.720852010236      0.070148480962602    78.956512099356      0.98896226662825     -3.99204098876545    0.98896226662825     -3.99204098876545    0.070148480962602    78.956512099356      
16.8851851886765     0.070825478310559    78.9663404383492     0.988891444757358    -4.03105548298514    0.988891444757358    -4.03105548298514    0.070825478310559    78.9663404383492     
17.0511334399327     0.071509045246829    78.9754182631347     0.98881958711886     -4.07044835370972    0.98881958711886     -4.07044835370972    0.071509045246829    78.9754182631347     
17.2187126370024     0.072199242874681    78.9837449457959     0.988746675337702    -4.11022319145984    0.988746675337702    -4.11022319145984    0.072199242874681    78.9837449457959     
17.3879388088841     0.072896132811447    78.9913198045115     0.988672690697174    -4.15038361859098    0.988672690697174    -4.15038361859098    0.072896132811447    78.9913198045115     
17.5588281421096     0.073599777191088    78.998142103437      0.988597614132594    -4.19093328951051    0.988597614132594    -4.19093328951051    0.073599777191088    78.998142103437      
17.7313969822929     0.074310238666713    79.0042110525882     0.988521426225013    -4.23187589089396    0.988521426225013    -4.23187589089396    0.074310238666713    79.0042110525882     
17.9056618356931     0.075027580413052    79.0095258077267     0.988444107194741    -4.27321514190082    0.988444107194741    -4.27321514190082    0.075027580413052    79.0095258077267     
18.0816393707936     0.075751866128881    79.0140854702476     0.98836563689481     -4.31495479438956    0.98836563689481     -4.31495479438956    0.075751866128881    79.0140854702476     
18.259346419896      0.076483160039391    79.0178890870696     0.988285994804256    -4.35709863313161    0.988285994804256    -4.35709863313161    0.076483160039391    79.0178890870696     
18.4387999807307     0.07722152689851     79.0209356505267     0.988205160021381    -4.39965047602501    0.988205160021381    -4.39965047602501    0.07722152689851     79.0209356505267     
18.6200172180824     0.077967031991164    79.0232240982628     0.988123111256837    -4.44261417430654    0.988123111256837    -4.44261417430654    0.077967031991164    79.0232240982628     
18.803015465432      0.078719741135479    79.0247533131273     0.988039826826602    -4.48599361276299    0.988039826826602    -4.48599361276299    0.078719741135479    79.0247533131273     
18.9878122266143     0.079479720684923    79.0255221230744     0.987955284644879    -4.5297927099413     0.987955284644879    -4.5297927099413     0.079479720684923    79.0255221230744     
19.1744251774927     0.08024703753038     79.0255293010643     0.987869462216824    -4.57401541835722    0.987869462216824    -4.57401541835722    0.08024703753038     79.0255293010643     
19.3628721676495     0.081021759102162    79.0247735649652     0.987782336631218    -4.61866572470301    0.987782336631218    -4.61866572470301    0.081021759102162    79.0247735649652     
19.5531712220935     0.081803953371943    79.0232535774599     0.987693884552941    -4.6637476500532     0.987693884552941    -4.6637476500532     0.081803953371943    79.0232535774599     
19.745340542984      0.082593688854621    79.0209679459537     0.98760408221539     -4.70926525006877    0.98760408221539     -4.70926525006877    0.082593688854621    79.0209679459537     
19.9393985113718     0.08339103461011     79.0179152224849     0.987512905412749    -4.75522261520028    0.987512905412749    -4.75522261520028    0.08339103461011     79.0179152224849     
20.1353636889572     0.084196060245038    79.0140939036379     0.987420329492134    -4.80162387088814    0.987420329492134    -4.80162387088814    0.084196060245038    79.0140939036379     
20.3332548198658     0.085008835914375    79.0095024304588     0.98732632934561     -4.84847317776188    0.98732632934561     -4.84847317776188    0.085008835914375    79.0095024304588     
20.5330908324412     0.085829432322965    79.0041391883744     0.987230879402074    -4.89577473183667    0.987230879402074    -4.89577473183667    0.085829432322965    79.0041391883744     
20.7348908410554     0.086657920726962    78.9980025071132     0.987133953619039    -4.94353276470788    0.987133953619039    -4.94353276470788    0.086657920726962    78.9980025071132     
20.9386741479372     0.087494372935193    78.9910906606298     0.987035525474249    -4.99175154374361    0.987035525474249    -4.99175154374361    0.087494372935193    78.9910906606298     
21.1444602450185     0.088338861310397    78.9834018670317     0.986935567957196    -5.04043537227427    0.986935567957196    -5.04043537227427    0.088338861310397    78.9834018670317     
21.3522688157986     0.08919145877037     78.9749342885101     0.986834053560471    -5.08958858977944    0.986834053560471    -5.08958858977944    0.08919145877037     78.9749342885101     
21.562119737227      0.090052238789014    78.9656860312732     0.986730954270994    -5.13921557207278    0.986730954270994    -5.13921557207278    0.090052238789014    78.9656860312732     
21.7740330816047     0.090921275397262    78.9556551454833     0.986626241561135    -5.18932073148303    0.986626241561135    -5.18932073148303    0.090921275397262    78.9556551454833     
21.9880291185039     0.091798643183893    78.9448396251964     0.986519886379663    -5.23990851703261    0.986519886379663    -5.23990851703261    0.091798643183893    78.9448396251964     
22.204128316707      0.092684417296232    78.9332374083063     0.986411859142551    -5.29098341461286    0.986411859142551    -5.29098341461286    0.092684417296232    78.9332374083063     
22.4223513461646     0.09357867344071     78.9208463764927     0.986302129723675    -5.34254994715534    0.986302129723675    -5.34254994715534    0.09357867344071     78.9208463764927     
22.642719079972      0.094481487883324    78.9076643551713     0.98619066744536     -5.3946126748007     0.98619066744536     -5.3946126748007     0.094481487883324    78.9076643551713     
22.8652525963663     0.095392937449931    78.8936891134501     0.98607744106875     -5.44717619506232    0.98607744106875     -5.44717619506232    0.095392937449931    78.8936891134501     
23.0899731807424     0.096313099526428    78.8789183640882     0.985962418784093    -5.50024514298743    0.985962418784093    -5.50024514298743    0.096313099526428    78.8789183640882     
23.3169023276886     0.097242052058784    78.8633497634592     0.985845568200826    -5.55382419131335    0.985845568200826    -5.55382419131335    0.097242052058784    78.8633497634592     
23.5460617430431     0.09817987355291     78.8469809115199     0.985726856337562    -5.60791805061945    0.985726856337562    -5.60791805061945    0.09817987355291     78.8469809115199     
23.7774733459699     0.099126643074396    78.8298093517821     0.985606249611903    -5.66253146947477    0.985606249611903    -5.66253146947477    0.099126643074396    78.8298093517821     
24.0111592710553     0.100082440248071    78.8118325712907     0.985483713830069    -5.71766923458112    0.985483713830069    -5.71766923458112    0.100082440248071    78.8118325712907     
24.2471418704251     0.101047345257414    78.7930480006051     0.985359214176494    -5.7733361709108     0.985359214176494    -5.7733361709108     0.101047345257414    78.7930480006051     
24.4854437158828     0.102021438843779    78.7734530137875     0.985232715203108    -5.82953714183961    0.985232715203108    -5.82953714183961    0.102021438843779    78.7734530137875     
24.7260876010684     0.103004802305458    78.7530449283951     0.985104180818633    -5.88627704927433    0.985104180818633    -5.88627704927433    0.103004802305458    78.7530449283951     
24.9690965436387     0.103997517496555    78.7318210054781     0.984973574277615    -5.94356083377475    0.984973574277615    -5.94356083377475    0.103997517496555    78.7318210054781     
25.2144937874688     0.104999666825673    78.7097784495842     0.984840858169337    -6.00139347466977    0.984840858169337    -6.00139347466977    0.104999666825673    78.7097784495842     
25.4623028048757     0.106011333254401    78.6869144087683     0.984705994406579    -6.05977999016725    0.984705994406579    -6.05977999016725    0.106011333254401    78.6869144087683     
25.7125472988631     0.107032600295617    78.663225974608      0.984568944214264    -6.11872543745856    0.984568944214264    -6.11872543745856    0.107032600295617    78.663225974608      
25.9652512053888     0.108063552011557    78.6387101822271     0.984429668117852    -6.17823491281484    0.984429668117852    -6.17823491281484    0.108063552011557    78.6387101822271     
26.2204386956539     0.109104273011697    78.6133640103235     0.984288125931693    -6.2383135516784     0.984288125931693    -6.2383135516784     0.109104273011697    78.6133640103235     
26.4781341784154     0.110154848450392    78.5871843812057     0.984144276747143    -6.29896652874555    0.984144276747143    -6.29896652874555    0.110154848450392    78.5871843812057     
26.7383623023202     0.111215364024303    78.5601681608361     0.983998078920554    -6.36019905804303    0.983998078920554    -6.36019905804303    0.111215364024303    78.5601681608361     
27.001147958263      0.112285905969577    78.5323121588807     0.98384949006112     -6.42201639299632    0.98384949006112     -6.42201639299632    0.112285905969577    78.5323121588807     
27.2665162817676     0.113366561058781    78.5036131287681     0.983698467018536    -6.48442382649004    0.983698467018536    -6.48442382649004    0.113366561058781    78.5036131287681     
27.5344926553901     0.114457416597608    78.4740677677547     0.983544965870542    -6.54742669092068    0.983544965870542    -6.54742669092068    0.114457416597608    78.4740677677547     
27.8051027111478     0.115558560421288    78.4436727169992     0.983388941910246    -6.61103035823996    0.983388941910246    -6.61103035823996    0.115558560421288    78.4436727169992     
28.0783723329703     0.116670080890771    78.4124245616457     0.98323034963338     -6.67524023999047    0.98323034963338     -6.67524023999047    0.116670080890771    78.4124245616457     
28.3543276591755     0.117792066888604    78.3803198309151     0.983069142725327    -6.74006178733091    0.983069142725327    -6.74006178733091    0.117792066888604    78.3803198309151     
28.6329950849695     0.118924607814537    78.3473549982052     0.98290527404801     -6.80550049105277    0.98290527404801     -6.80550049105277    0.118924607814537    78.3473549982052     
28.9144012649718     0.120067793580848    78.3135264812019     0.982738695626657    -6.87156188158727    0.982738695626657    -6.87156188158727    0.120067793580848    78.3135264812019     
29.1985731157643     0.121221714607342    78.2788306419983     0.982569358636369    -6.93825152900106    0.982569358636369    -6.93825152900106    0.121221714607342    78.2788306419983     
29.4855378184662     0.122386461816067    78.2432637872251     0.982397213388567    -7.00557504298316    0.982397213388567    -7.00557504298316    0.122386461816067    78.2432637872251     
29.7753228213339     0.123562126625694    78.2068221681911     0.982222209317263    -7.07353807281916    0.982222209317263    -7.07353807281916    0.123562126625694    78.2068221681911     
30.0679558423861     0.124748800945573    78.1695019810348     0.982044294965197    -7.14214630735555    0.982044294965197    -7.14214630735555    0.124748800945573    78.1695019810348     
30.3634648720553     0.125946577169455    78.1312993668861     0.981863417969803    -7.21140547495205    0.981863417969803    -7.21140547495205    0.125946577169455    78.1312993668861     
30.6618781758652     0.127155548168862    78.0922104120414     0.981679525049053    -7.2813213434215     0.981679525049053    -7.2813213434215     0.127155548168862    78.0922104120414     
30.963224297134      0.128375807286108    78.0522311481492     0.981492561987162    -7.35189971995805    0.981492561987162    -7.35189971995805    0.128375807286108    78.0522311481492     
31.267532059705      0.129607448326938    78.0113575524084     0.981302473620046    -7.42314645105197    0.981302473620046    -7.42314645105197    0.129607448326938    78.0113575524084     
31.5748305707028     0.130850565552804    77.9695855477799     0.981109203820804    -7.49506742239171    0.981109203820804    -7.49506742239171    0.130850565552804    77.9695855477799     
31.8851492233185     0.132105253672738    77.9269110032105     0.980912695484918    -7.56766855875168    0.980912695484918    -7.56766855875168    0.132105253672738    77.9269110032105     
32.1985176996205     0.133371607834845    77.883329733871      0.980712890515375    -7.64095582386658    0.980712890515375    -7.64095582386658    0.133371607834845    77.883329733871      
32.5149659733933     0.134649723617368    77.838837501409      0.980509729807635    -7.71493522029095    0.980509729807635    -7.71493522029095    0.134649723617368    77.838837501409      
32.8345243130055     0.135939697019339    77.7934300142138     0.98030315323448     -7.78961278924357    0.98030315323448     -7.78961278924357    0.135939697019339    77.7934300142138     
33.157223284304      0.137241624450795    77.7471029276993     0.980093099630713    -7.86499461043639    0.980093099630713    -7.86499461043639    0.137241624450795    77.7471029276993     
33.4830937535382     0.138555602722553    77.6998518446007     0.979879506777731    -7.94108680188793    0.979879506777731    -7.94108680188793    0.138555602722553    77.6998518446007     
33.8121668903121     0.13988172903553     77.6516723152863     0.97966231138801     -8.01789551971991    0.97966231138801     -8.01789551971991    0.13988172903553     77.6516723152863     
34.1444741705657     0.141220100969581    77.6025598380877     0.979441449089395    -8.09542695793658    0.979441449089395    -8.09542695793658    0.141220100969581    77.6025598380877     
34.480047379586      0.142570816471876    77.5525098596458     0.979216854409327    -8.17368734818761    0.979216854409327    -8.17368734818761    0.142570816471876    77.5525098596458     
34.8189186150468     0.14393397384477     77.5015177752739     0.978988460758953    -8.25268295951179    0.978988460758953    -8.25268295951179    0.14393397384477     77.5015177752739     
35.1611202900792     0.145309671733174    77.4495789293392     0.978756200417136    -8.33242009806372    0.978756200417136    -8.33242009806372    0.145309671733174    77.4495789293392     
35.5066851363717     0.146698009111402    77.396688615663      0.978520004514296    -8.41290510681968    0.978520004514296    -8.41290510681968    0.146698009111402    77.396688615663      
35.8556462073013     0.148099085269487    77.3428420779398     0.978279803016223    -8.4941443652652     0.978279803016223    -8.4941443652652     0.148099085269487    77.3428420779398     
36.2080368810945     0.149512999798959    77.2880345101753     0.978035524707797    -8.57614428906239    0.978035524707797    -8.57614428906239    0.149512999798959    77.2880345101753     
36.5638908640206     0.150939852578056    77.2322610571453     0.977787097176555    -8.65891132969572    0.977787097176555    -8.65891132969572    0.150939852578056    77.2322610571453     
36.9232421936154     0.152379743756363    77.1755168148753     0.977534446796248    -8.74245197409744    0.977534446796248    -8.74245197409744    0.152379743756363    77.1755168148753     
37.2861252419367     0.153832773738868    77.1177968311415     0.977277498710254    -8.82677274425018    0.977277498710254    -8.82677274425018    0.153832773738868    77.1177968311415     
37.6525747188525     0.155299043169419    77.0590961059929     0.977016176815003    -8.91188019676781    0.977016176815003    -8.91188019676781    0.155299043169419    77.0590961059929     
38.0226256753606     0.15677865291356     76.999409592297      0.976750403743278    -8.99778092245273    0.976750403743278    -8.99778092245273    0.15677865291356     76.999409592297      
38.3963135069412     0.158271704040744    76.9387321963084     0.976480100847464    -9.0844815458292     0.976480100847464    -9.0844815458292     0.158271704040744    76.9387321963084     
38.7736739569428     0.159778297805895    76.8770587782605     0.976205188182806    -9.17198872465285    0.976205188182806    -9.17198872465285    0.159778297805895    76.8770587782605     
39.1547431200009     0.161298535630316    76.8143841529832     0.97592558449055     -9.26030914939433    0.97592558449055     -9.26030914939433    0.161298535630316    76.8143841529832     
39.5395574454905     0.162832519081926    76.750703090544      0.975641207181122    -9.34944954269771    0.975641207181122    -9.34944954269771    0.162832519081926    76.750703090544      
39.9281537410125     0.164380349854796    76.6860103169162     0.975351972317262    -9.43941665881241    0.975351972317262    -9.43941665881241    0.164380349854796    76.6860103169162     
40.320569175914      0.165942129747998    76.6203005146732     0.975057794597137    -9.53021728299787    0.975057794597137    -9.53021728299787    0.165942129747998    76.6203005146732     
40.7168412848443     0.167517960643714    76.5535683237098     0.974758587337467    -9.62185823090013    0.974758587337467    -9.62185823090013    0.167517960643714    76.5535683237098     
41.1170079713445     0.169107944484625    76.4858083419915     0.974454262456678    -9.71434634790072    0.974454262456678    -9.71434634790072    0.169107944484625    76.4858083419915     
41.521107511473      0.170712183250541    76.4170151263336     0.974144730458014    -9.80768850843489    0.974144730458014    -9.80768850843489    0.170712183250541    76.4170151263336     
41.9291785574671     0.172330778934267    76.3471831932068     0.973829900412792    -9.90189161528152    0.973829900412792    -9.90189161528152    0.172330778934267    76.3471831932068     
42.3412601414396     0.173963833516681    76.2763070195763     0.973509679943583    -9.99696259882097    0.973509679943583    -9.99696259882097    0.173963833516681    76.2763070195763     
42.7573916791124     0.175611448941013    76.2043810437701     0.973183975207524    -10.0929084162616    0.973183975207524    -10.0929084162616    0.175611448941013    76.2043810437701     
43.1776129735866     0.177273727086323    76.131399666378      0.972852690879708    -10.1897360508351    0.972852690879708    -10.1897360508351    0.177273727086323    76.131399666378      
43.6019642191499     0.178950769740111    76.0573572511853     0.972515730136599    -10.2874525109572    0.972515730136599    -10.2874525109572    0.178950769740111    76.0573572511853     
44.0304860051208     0.180642678570126    75.9822481261377     0.972172994639617    -10.3860648293558    0.972172994639617    -10.3860648293558    0.180642678570126    75.9822481261377     
44.4632193197313     0.182349555095265    75.9060665843418     0.971824384518774    -10.4855800621633    0.971824384518774    -10.4855800621633    0.182349555095265    75.9060665843418     
44.9002055540473     0.184071500655631    75.8288068850983     0.971469798356522    -10.5860052879755    0.971469798356522    -10.5860052879755    0.184071500655631    75.8288068850983     
45.3414865059277     0.18580861638165     75.7504632549737     0.971109133171632    -10.6873476068715    0.971109133171632    -10.6873476068715    0.18580861638165     75.7504632549737     
45.7871043840223     0.187561003162317    75.6710298889054     0.970742284403367    -10.7896141393989    0.970742284403367    -10.7896141393989    0.187561003162317    75.6710298889054     
46.2371018118093     0.189328761612484    75.5905009513463     0.97036914589574     -10.8928120255198    0.97036914589574     -10.8928120255198    0.189328761612484    75.5905009513463     
46.6915218316719     0.191111992039195    75.5088705774466     0.969989609881999    -10.9969484235184    0.969989609881999    -10.9969484235184    0.191111992039195    75.5088705774466     
47.1504079090157     0.192910794407094    75.4261328742747     0.969603566969377    -11.1020305088695    0.969603566969377    -11.1020305088695    0.192910794407094    75.4261328742747     
47.6138039364257     0.194725268302811    75.3422819220769     0.969210906124002    -11.2080654730656    0.969210906124002    -11.2080654730656    0.194725268302811    75.3422819220769     
48.0817542378652     0.196555512898381    75.2573117755803     0.968811514656142    -11.3150605224036    0.968811514656142    -11.3150605224036    0.196555512898381    75.2573117755803     
48.554303572915      0.198401626913626    75.1712164653345     0.968405278205653    -11.4230228767287    0.968405278205653    -11.4230228767287    0.198401626913626    75.1712164653345     
49.0314971410547     0.200263708577543    75.0839899990967     0.967992080727818    -11.5319597681358    0.967992080727818    -11.5319597681358    0.200263708577543    75.0839899990967     
49.5133805859864     0.20214185558861     74.9956263632613     0.967571804479425    -11.6418784396267    0.967571804479425    -11.6418784396267    0.20214185558861     74.9956263632613     
50                   0.204036165074062    74.906119524331      0.967144330005272    -11.7527861437224    0.967144330005272    -11.7527861437224    0.204036165074062    74.906119524331      
50.4914019283823     0.205946733548081    74.8154634304358     0.966709536124963    -11.8646901410302    0.966709536124963    -11.8646901410302    0.205946733548081    74.8154634304358     
50.9876333738689     0.207873656868892    74.7236520128954     0.96626729992019     -11.9775976987638    0.96626729992019     -11.9775976987638    0.207873656868892    74.7236520128954     
51.4887418011403     0.20981703019477     74.6306791878303     0.965817496722372    -12.0915160892165    0.965817496722372    -12.0915160892165    0.20981703019477     74.6306791878303     
51.9947751413614     0.211776947938906    74.5365388578197     0.96536000010077     -12.206452588185     0.96536000010077     -12.206452588185     0.211776947938906    74.5365388578197     
52.5057817967668     0.213753503723165    74.4412249136079     0.964894681851074    -12.3224144733457    0.964894681851074    -12.3224144733457    0.213753503723165    74.4412249136079     
53.0218106452898     0.215746790330684    74.34473123586       0.964421411984521    -12.4394090225796    0.964421411984521    -12.4394090225796    0.215746790330684    74.34473123586       
53.542911045238      0.217756899657305    74.2470516969688     0.963940058717513    -12.5574435122464    0.963940058717513    -12.5574435122464    0.217756899657305    74.2470516969688     
54.0691328400147     0.219783922661862    74.148180162912      0.963450488461832    -12.6765252154076    0.963450488461832    -12.6765252154076    0.219783922661862    74.148180162912      
54.6005263628855     0.22182794931525     74.048110495162      0.962952565815435    -12.7966613999959    0.962952565815435    -12.7966613999959    0.22182794931525     74.048110495162      
55.1371424417936     0.223889068548318    73.9468365526483     0.962446153553862    -12.9178593269315    0.962446153553862    -12.9178593269315    0.223889068548318    73.9468365526483     
55.6790324042214     0.225967368198562    73.8443521937735     0.96193111262239     -13.0401262481844    0.96193111262239     -13.0401262481844    0.225967368198562    73.8443521937735     
56.2262480820992     0.228062934955591    73.7406512784851     0.961407302128765    -13.1634694047806    0.961407302128765    -13.1634694047806    0.228062934955591    73.7406512784851     
56.7788418167641     0.230175854305357    73.6357276704011     0.960874579336736    -13.2878960247525    0.960874579336736    -13.2878960247525    0.230175854305357    73.6357276704011     
57.3368664639655     0.232306210473172    73.5295752389935     0.960332799660361    -13.4134133210328    0.960332799660361    -13.4134133210328    0.232306210473172    73.5295752389935     
57.9003753989213     0.234454086365469    73.4221878618274     0.959781816659098    -13.5400284892904    0.959781816659098    -13.5400284892904    0.234454086365469    73.4221878618274     
58.4694225214231     0.236619563510317    73.3135594268596     0.959221482033735    -13.6677487057071    0.959221482033735    -13.6677487057071    0.236619563510317    73.3135594268596     
59.0440622609915     0.238802721996673    73.203683834795      0.958651645623189    -13.7965811246961    0.958651645623189    -13.7965811246961    0.238802721996673    73.203683834795      
59.624349582083      0.241003640412384    73.0925550015018     0.958072155402278    -13.92653287656      0.958072155402278    -13.92653287656      0.241003640412384    73.0925550015018     
60.2103399893465     0.243222395780911    72.9801668604895     0.957482857480359    -14.0576110650868    0.957482857480359    -14.0576110650868    0.243222395780911    72.9801668604895     
60.8020895329329     0.245459063496799    72.8665133654438     0.956883596101101    -14.1898227650869    0.956883596101101    -14.1898227650869    0.245459063496799    72.8665133654438     
61.399654813856      0.24771371725986     72.7515884928276     0.956274213643134    -14.3231750198649    0.956274213643134    -14.3231750198649    0.24771371725986     72.7515884928276     
62.0030929894067     0.2499864290081      72.6353862445408     0.955654550621943    -14.4576748386311    0.955654550621943    -14.4576748386311    0.2499864290081      72.6353862445408     
62.6124617786198     0.252277268849361    72.5179006506452     0.955024445692785    -14.5933291938471    0.955024445692785    -14.5933291938471    0.252277268849361    72.5179006506452     
63.2278194677954     0.254586304991709    72.3991257721515     0.95438373565483     -14.7301450185093    0.95438373565483     -14.7301450185093    0.254586304991709    72.3991257721515     
63.849224916073      0.256913603672542    72.2790557038722     0.953732255456499    -14.8681292033661    0.953732255456499    -14.8681292033661    0.256913603672542    72.2790557038722     
64.4767375610624     0.259259229086454    72.1576845773375     0.953069838202083    -15.0072885940706    0.953069838202083    -15.0072885940706    0.259259229086454    72.1576845773375     
65.1104174245285     0.261623243311825    72.0350065637769     0.952396315159681    -15.1476299882672    0.952396315159681    -15.1476299882672    0.261623243311825    72.0350065637769     
65.7503251181322     0.264005706236186    71.9110158771679     0.951711515770464    -15.2891601326116    0.951711515770464    -15.2891601326116    0.264005706236186    71.9110158771679     
66.3965218492285     0.266406675480335    71.7857067773485     0.951015267659415    -15.4318857197253    0.951015267659415    -15.4318857197253    0.266406675480335    71.7857067773485     
67.0490694267202     0.268826206321226    71.6590735731982     0.950307396647421    -15.5758133850812    0.950307396647421    -15.5758133850812    0.268826206321226    71.6590735731982     
67.7080302669708     0.271264351613661    71.5311106258843     0.949587726765023    -15.7209497038232    0.949587726765023    -15.7209497038232    0.271264351613661    71.5311106258843     
68.3734673997739     0.27372116171078     71.4018123521768     0.94885608026759     -15.8673011875175    0.94885608026759     -15.8673011875175    0.27372116171078     71.4018123521768     
69.0454444743825     0.276196684383348    71.2711732278299     0.948112277652152    -16.0148742808358    0.948112277652152    -16.0148742808358    0.276196684383348    71.2711732278299     
69.724025765597      0.278690964737944    71.1391877910305     0.947356137675958    -16.163675358171     0.947356137675958    -16.163675358171     0.278690964737944    71.1391877910305     
70.4092761799127     0.28120404513394     71.0058506459156     0.94658747737663     -16.3137107201841    0.94658747737663     -16.3137107201841    0.28120404513394     71.0058506459156     
71.101261261729      0.283735965099423    70.8711564661563     0.945806112094208    -16.4649865902826    0.945806112094208    -16.4649865902826    0.283735965099423    70.8711564661563     
71.8000471996175     0.286286761245999    70.7350999986107     0.945011855494902    -16.6175091110316    0.945011855494902    -16.6175091110316    0.286286761245999    70.7350999986107     
72.505700832654      0.28885646718256     70.5976760670424     0.944204519596839    -16.771284340496     0.944204519596839    -16.771284340496     0.28885646718256     70.5976760670424     
73.2182896568116     0.291445113428004    70.4588795759091     0.943383914797619    -16.9263182485145    0.943383914797619    -16.9263182485145    0.291445113428004    70.4588795759091     
73.9378818314157     0.294052727322974    70.3187055142166     0.942549849903954    -17.0826167129063    0.942549849903954    -17.0826167129063    0.294052727322974    70.3187055142166     
74.6645461856649     0.296679332940645    70.1771489594399     0.941702132163257    -17.2401855156099    0.941702132163257    -17.2401855156099    0.296679332940645    70.1771489594399     
75.3983522252133     0.299324950996579    70.0342050815118     0.940840567297407    -17.399030338755     0.940840567297407    -17.399030338755     0.299324950996579    70.0342050815118     
76.1393701388196     0.30198959875772     69.8898691468764     0.939964959538603    -17.5591567606682    0.939964959538603    -17.5591567606682    0.30198959875772     69.8898691468764     
76.8876708050602     0.304673289950555    69.7441365226089     0.939075111667427    -17.7205702518118    0.939075111667427    -17.7205702518118    0.304673289950555    69.7441365226089     
77.6433257991088     0.307376034668477    69.5970026806        0.938170825053143    -17.8832761706573    0.938170825053143    -17.8832761706573    0.307376034668477    69.5970026806        
78.4064073995826     0.31009783927845     69.4484632018042     0.937251899696382    -18.0472797594955    0.937251899696382    -18.0472797594955    0.31009783927845     69.4484632018042     
79.1769885954563     0.312838706326968    69.2985137805513     0.936318134274066    -18.2125861401809    0.936318134274066    -18.2125861401809    0.312838706326968    69.2985137805513     
79.9551430930425     0.315598634445402    69.1471502289215     0.935369326186817    -18.3792003098148    0.935369326186817    -18.3792003098148    0.315598634445402    69.1471502289215     
80.7409453230425     0.318377618254797    68.9943684811789     0.934405271608841    -18.5471271363659    0.934405271608841    -18.5471271363659    0.318377618254797    68.9943684811789     
81.5344704476655     0.32117564827017     68.8401645982679     0.933425765540273    -18.7163713542307    0.933425765540273    -18.7163713542307    0.32117564827017     68.8401645982679     
82.3357943678177     0.32399271080438     68.6845347723665     0.932430601862127    -18.8869375597345    0.932430601862127    -18.8869375597345    0.32399271080438     68.6845347723665     
83.1449937303624     0.32682878787163     68.5274753314984     0.931419573393815    -19.0588302065739    0.931419573393815    -19.0588302065739    0.32682878787163     68.5274753314984     
83.962145935451      0.329683857090716    68.3689827441986     0.930392471953396    -19.2320536012044    0.930392471953396    -19.2320536012044    0.329683857090716    68.3689827441986     
84.7873291439269     0.332557891588044    68.2090536242365     0.929349088420456    -19.4066118981717    0.929349088420456    -19.4066118981717    0.332557891588044    68.2090536242365     
85.620622284801      0.335450859900538    68.0476847353881     0.928289212801783    -19.5825090953912    0.928289212801783    -19.5825090953912    0.335450859900538    68.0476847353881     
86.4621050628019     0.33836272587852     67.8848729962593     0.927212634299843    -19.7597490293767    0.927212634299843    -19.7597490293767    0.33836272587852     67.8848729962593     
87.3118579659989     0.341293448588606    67.7206154851613     0.926119141384041    -19.9383353704181    0.926119141384041    -19.9383353704181    0.341293448588606    67.7206154851613     
88.1699622735015     0.344242982216801    67.5549094450256     0.925008521864919    -20.1182716177157    0.925008521864919    -20.1182716177157    0.344242982216801    67.5549094450256     
89.0365000632333     0.347211275971794    67.3877522883686     0.923880562971264    -20.2995610944677    0.923880562971264    -20.2995610944677    0.347211275971794    67.3877522883686     
89.9115542197829     0.350198273988599    67.2191416022952     0.922735051430063    -20.4822069429156    0.922735051430063    -20.4822069429156    0.350198273988599    67.2191416022952     
90.7952084423319     0.353203915232682    67.0490751535398     0.921571773549632    -20.6662121193528    0.921571773549632    -20.6662121193528    0.353203915232682    67.0490751535398     
91.6875472526606     0.356228133404562    66.8775508935477     0.920390515305535    -20.8515793890933    0.920390515305535    -20.8515793890933    0.356228133404562    66.8775508935477     
92.5886560032326     0.359270856845182    66.7045669635837     0.91919106242974     -21.0383113214102    0.91919106242974     -21.0383113214102    0.359270856845182    66.7045669635837     
93.4986208853588     0.36233200844195     66.5301216998759     0.917973200502686    -21.2264102844401    0.917973200502686    -21.2264102844401    0.36233200844195     66.5301216998759     
94.4175289374417     0.365411505535782    66.3542136387824     0.916736715048532    -21.4158784400644    0.916736715048532    -21.4158784400644    0.365411505535782    66.3542136387824     
95.3454680533007     0.368509259829101    66.1768415219839     0.915481391633487    -21.6067177387636    0.915481391633487    -21.6067177387636    0.368509259829101    66.1768415219839     
96.2825269905787     0.371625177294993    65.9980043016947     0.914207015967197    -21.7989299144511    0.914207015967197    -21.7989299144511    0.371625177294993    65.9980043016947     
97.2287953792325     0.374759158087681    65.8177011458899     0.912913374007365    -21.9925164792941    0.912913374007365    -21.9925164792941    0.374759158087681    65.8177011458899     
98.1843637301053     0.37791109645437     65.6359314435457     0.911600252067409    -22.1874787185173    0.911600252067409    -22.1874787185173    0.37791109645437     65.6359314435457     
99.1493234435845     0.38108088064866     65.4526948098858     0.910267436927304    -22.3838176852009    0.910267436927304    -22.3838176852009    0.38108088064866     65.4526948098858     
100.123766818344     0.384268392845666    65.2679910916333     0.908914715947563    -22.581534195074     0.908914715947563    -22.581534195074     0.384268392845666    65.2679910916333     
101.107787060173     0.387473509058937    65.0818203722621     0.907541877186299    -22.7806288213063    0.907541877186299    -22.7806288213063    0.387473509058937    65.0818203722621     
102.101478290889     0.390696099059383    64.8941829772421     0.906148709519468    -22.9811018893063    0.906148709519468    -22.9811018893063    0.390696099059383    64.8941829772421     
103.104935557346     0.39393602629634     64.7050794792753     0.904735002764153    -23.1829534715279    0.904735002764153    -23.1829534715279    0.39393602629634     64.7050794792753     
104.118254840518     0.397193147820888    64.5145107035171     0.903300547804943    -23.3861833822912    0.903300547804943    -23.3861833822912    0.397193147820888    64.5145107035171     
105.141533064687     0.400467314211652    64.3224777327774     0.901845136723392    -23.5907911726226    0.901845136723392    -23.5907911726226    0.400467314211652    64.3224777327774     
106.174868106708     0.403758369503162    64.1289819126979     0.900368562930446    -23.7967761251201    0.900368562930446    -23.7967761251201    0.403758369503162    64.1289819126979     
107.218358805375     0.407066151117015    63.9340248568968     0.89887062130189     -24.0041372488473    0.89887062130189     -24.0041372488473    0.407066151117015    63.9340248568968     
108.272104970874     0.410390489795906    63.7376084520804     0.897351108316683    -24.2128732742633    0.897351108316683    -24.2128732742633    0.410390489795906    63.7376084520804     
109.336207394328     0.413731209540802    63.5397348631104     0.895809822198237    -24.4229826481938    0.895809822198237    -24.4229826481938    0.413731209540802    63.5397348631104     
110.410767857439     0.417088127551341    63.3404065380255     0.894246563058445    -24.6344635288499    0.894246563058445    -24.6344635288499    0.417088127551341    63.3404065380255     
111.495889142226     0.420461054169649    63.139626213009      0.892661133044561    -24.847313780898     0.892661133044561    -24.847313780898     0.420461054169649    63.139626213009      
112.591675040849     0.423849792827768    62.9373969172961     0.89105333648869     -25.0615309705908    0.89105333648869     -25.0615309705908    0.423849792827768    62.9373969172961     
113.698230365547     0.42725413999883     62.7337219780163     0.889422980059922    -25.2771123609622    0.889422980059922    -25.2771123609622    0.42725413999883     62.7337219780163     
114.815660958652     0.430673885152173    62.5286050249625     0.887769872919019    -25.4940549070956    0.887769872919019    -25.4940549070956    0.430673885152173    62.5286050249625     
115.944073702724     0.434108810712562    62.322049995282      0.886093826875509    -25.7123552514688    0.886093826875509    -25.7123552514688    0.434108810712562    62.322049995282      
117.083576530764     0.437558692023675    62.1140611380808     0.884394656547125    -25.9320097193858    0.884394656547125    -25.9320097193858    0.437558692023675    62.1140611380808     
118.234278436546     0.441023297316043    61.9046430189372     0.88267217952148     -26.1530143144985    0.88267217952148     -26.1530143144985    0.441023297316043    61.9046430189372     
119.396289485038     0.44450238767962     61.6938005243134     0.88092621651987     -26.3753647144302    0.88092621651987     -26.3753647144302    0.44450238767962     61.6938005243134     
120.569720822931     0.447995717041117    61.4815388658635     0.879156591563065    -26.5990562665018    0.879156591563065    -26.5990562665018    0.447995717041117    61.4815388658635     
121.754684689269     0.451503032146296    61.2678635846263     0.877363132138966    -26.8240839835722    0.877363132138966    -26.8240839835722    0.451503032146296    61.2678635846263     
122.951294426187     0.455024072547411    61.0527805550972     0.875545669372009    -27.0504425400001    0.875545669372009    -27.0504425400001    0.455024072547411    61.0527805550972     
124.159664489749     0.458558570595883    60.8362959891742     0.873704038194134    -27.2781262677313    0.873704038194134    -27.2781262677313    0.458558570595883    60.8362959891742     
125.3799104609       0.462106251440481    60.6184164399658     0.871838077517236    -27.5071291525215    0.871838077517236    -27.5071291525215    0.462106251440481    60.6184164399658     
126.612149056518     0.465666833031052    60.3991488054583     0.869947630406808    -27.737444830302     0.869947630406808    -27.737444830302     0.465666833031052    60.3991488054583     
127.856498140578     0.469240026128063    60.1785003320316     0.868032544256802    -27.9690665836943    0.868032544256802    -27.9690665836943    0.469240026128063    60.1785003320316     
129.113076735428     0.472825534318       59.9564786178187     0.866092670965345    -28.201987338681     0.866092670965345    -28.201987338681     0.472825534318       59.9564786178187     
130.382005033171     0.476423054034866    59.7330916158987     0.864127867111212    -28.4361996614431    0.864127867111212    -28.4361996614431    0.476423054034866    59.7330916158987     
131.663404407164     0.48003227458786     59.5083476373175     0.86213799413091     -28.6716957553681    0.86213799413091     -28.6716957553681    0.48003227458786     59.5083476373175     
132.957397423625     0.483652878195381    59.2822553539309     0.860122918496064    -28.9084674582375    0.860122918496064    -28.9084674582375    0.483652878195381    59.2822553539309     
134.264107853358     0.487284540025515    59.0548238010555     0.858082511891004    -29.1465062396014    0.858082511891004    -29.1465062396014    0.487284540025515    59.0548238010555     
135.583660683591     0.490926928243109    58.8260623799277     0.856016651390292    -29.3858031983496    0.856016651390292    -29.3858031983496    0.490926928243109    58.8260623799277     
136.916182129932     0.494579704063527    58.5959808599612     0.85392521963595     -29.6263490604803    0.85392521963595     -29.6263490604803    0.494579704063527    58.5959808599612     
138.26179964844      0.498242521813248    58.3645893807924     0.851808105014211    -29.8681341770811    0.851808105014211    -29.8681341770811    0.498242521813248    58.3645893807924     
139.620641947817     0.501915028997368    58.13189845411       0.849665201831547    -30.1111485225261    0.849665201831547    -30.1111485225261    0.501915028997368    58.13189845411       
140.992839001719     0.505596866374117    57.8979189652614     0.84749641048971     -30.3553816928942    0.84749641048971     -30.3553816928942    0.505596866374117    57.8979189652614     
142.37852206119      0.509287668036471    57.6626621746265     0.84530163765958     -30.6008229046206    0.84530163765958     -30.6008229046206    0.509287668036471    57.6626621746265     
143.777823667212     0.512987061500936    57.4261397187551     0.843080796453525    -30.8474609933835    0.843080796453525    -30.8474609933835    0.512987061500936    57.4261397187551     
145.190877663385     0.516694667803559    57.1883636112595     0.840833806596074    -31.0952844132351    0.840833806596074    -31.0952844132351    0.516694667803559    57.1883636112595     
146.617819208731     0.520410101603255    56.9493462434552     0.838560594592588    -31.344281235984     0.838560594592588    -31.344281235984     0.520410101603255    56.9493462434552     
148.058784790619     0.524132971292437    56.7091003847456     0.836261093895712    -31.5944391508329    0.836261093895712    -31.5944391508329    0.524132971292437    56.7091003847456     
149.51391223782      0.527862879115073    56.467639182741      0.833935245069322    -31.8457454642817    0.833935245069322    -31.8457454642817    0.527862879115073    56.467639182741      
150.983340733693     0.531599421292055    56.2249761631111     0.831582995949647    -32.0981871002955    0.831582995949647    -32.0981871002955    0.531599421292055    56.2249761631111     
152.467210829495     0.535342188154058    55.9811252291594     0.829204301803426    -32.3517506007518    0.829204301803426    -32.3517506007518    0.535342188154058    55.9811252291594     
153.965664457829     0.53909076428175     55.7361006611187     0.826799125482636    -32.6064221261637    0.826799125482636    -32.6064221261637    0.53909076428175     55.7361006611187     
155.478844946214     0.542844728653407    55.4899171151607     0.8243674375757      -32.8621874566909    0.8243674375757      -32.8621874566909    0.542844728653407    55.4899171151607     
157.006897030798     0.546603654799884    55.2425896221147     0.821909216554744    -33.1190319934385    0.821909216554744    -33.1190319934385    0.546603654799884    55.2425896221147     
158.549966870203     0.550367110966904    54.9941335858916     0.819424448918732    -33.3769407600516    0.819424448918732    -33.3769407600516    0.550367110966904    54.9941335858916     
160.108202059502     0.554134660284633    54.7445647816081     0.816913129332123    -33.6358984046082    0.816913129332123    -33.6358984046082    0.554134660284633    54.7445647816081     
161.681751644339     0.557905860944432    54.4938993534085     0.814375260758816    -33.8958892018145    0.814375260758816    -33.8958892018145    0.557905860944432    54.4938993534085     
163.270766135184     0.561680266382718    54.2421538119798     0.811810854591083    -34.1568970555047    0.811810854591083    -34.1568970555047    0.561680266382718    54.2421538119798     
164.87539752173      0.565457425471884    53.9893450317563     0.809219930773227    -34.4189055014528    0.809219930773227    -34.4189055014528    0.565457425471884    53.9893450317563     
166.49579928743      0.56923688271808     53.7354902478131     0.806602517919671    -34.6818977104927    0.806602517919671    -34.6818977104927    0.56923688271808     53.7354902478131     
168.132126424177     0.57301817846581     53.4806070524445     0.803958653427232    -34.9458564919547    0.803958653427232    -34.9458564919547    0.57301817846581     53.4806070524445     
169.784535447134     0.576800849109153    53.2247133914256     0.801288383581297    -35.2107642974153    0.801288383581297    -35.2107642974153    0.576800849109153    53.2247133914256     
171.453184409699     0.580584427309501    52.9678275599562     0.798591763655631    -35.4766032247679    0.798591763655631    -35.4766032247679    0.580584427309501    52.9678275599562     
173.138232918623     0.584368442219581    52.709968198286      0.795868858005586    -35.7433550226071    0.795868858005586    -35.7433550226071    0.584368442219581    52.709968198286      
174.839842149281     0.588152419713639    52.451154287021      0.793119740154452    -36.0110010949344    0.793119740154452    -36.0110010949344    0.588152419713639    52.451154287021      
176.558174861085     0.591935882623557    52.1914051421094     0.790344492872653    -36.2795225061817    0.790344492872653    -36.2795225061817    0.591935882623557    52.1914051421094     
178.293395413053     0.595718350980682    51.9307404095103     0.787543208249685    -36.5488999865527    0.787543208249685    -36.5488999865527    0.595718350980682    51.9307404095103     
180.045669779529     0.599499342263178    51.6691800595433     0.784715987758402    -36.8191139376808    0.784715987758402    -36.8191139376808    0.599499342263178    51.6691800595433     
181.81516556606      0.603278371648629    51.4067443809213     0.781862942311553    -37.0901444386042    0.781862942311553    -37.0901444386042    0.603278371648629    51.4067443809213     
183.602052025426     0.60705495227163     51.1434539744718     0.778984192310311    -37.3619712520521    0.778984192310311    -37.3619712520521    0.60705495227163     51.1434539744718     
185.406500073831     0.610828595486136    50.8793297465434     0.776079867684615    -37.6345738310432    0.776079867684615    -37.6345738310432    0.610828595486136    50.8793297465434     
187.228682307248     0.614598811132273    50.6143929021041     0.773150107925126    -37.9079313257927    0.773150107925126    -37.9079313257927    0.614598811132273    50.6143929021041     
189.068773017933     0.618365107807274    50.3486649375375     0.770195062106606    -38.1820225909212    0.770195062106606    -38.1820225909212    0.618365107807274    50.3486649375375     
190.926948211091     0.622126993140334    50.0821676331329     0.767214888902614    -38.4568261929665    0.767214888902614    -38.4568261929665    0.622126993140334    50.0821676331329     
192.803385621712     0.625883974070953    49.8149230452845     0.764209756591302    -38.7323204181879    0.764209756591302    -38.7323204181879    0.625883974070953    49.8149230452845     
194.698264731575     0.629635557130537    49.5469534983942     0.761179843052215    -39.0084832806642    0.761179843052215    -39.0084832806642    0.629635557130537    49.5469534983942     
196.611766786411     0.63338124872684     49.2782815764938     0.758125335753988    -39.2852925306723    0.758125335753988    -39.2852925306723    0.63338124872684     49.2782815764938     
198.544074813241     0.637120555430965    49.0089301145849     0.75504643173277     -39.5627256633464    0.75504643173277     -39.5627256633464    0.637120555430965    49.0089301145849     
200.495373637882     0.640852984266538    48.7389221897059     0.751943337561366    -39.84075992761      0.751943337561366    -39.84075992761      0.640852984266538    48.7389221897059     
202.46584990263      0.644578043000669    48.4682811117371     0.748816269308963    -40.1193723353682    0.748816269308963    -40.1193723353682    0.644578043000669    48.4682811117371     
204.455692084104     0.648295240436358    48.1970304139453     0.74566545249139     -40.3985396709591    0.74566545249139     -40.3985396709591    0.648295240436358    48.1970304139453     
206.465090511282     0.652004086705984    47.9251938432794     0.742491122011928    -40.6782385008533    0.742491122011928    -40.6782385008533    0.652004086705984    47.9251938432794     
208.494237383699     0.655704093565414    47.6527953504292     0.739293522092528    -40.9584451835911    0.739293522092528    -40.9584451835911    0.655704093565414    47.6527953504292     
210.543326789838     0.659394774688457    47.3798590796458     0.736072906195552    -41.2391358799526    0.736072906195552    -41.2391358799526    0.659394774688457    47.3798590796458     
212.612554725689     0.663075645961148    47.1064093583486     0.732829536935988    -41.5202865633449    0.732829536935988    -41.5202865633449    0.663075645961148    47.1064093583486     
214.702119113498     0.666746225775546    46.8324706865157     0.72956368598415     -41.801873030401     0.72956368598415     -41.801873030401     0.666746225775546    46.8324706865157     
216.812219820701     0.670406035322638    46.5580677258738     0.726275633958962    -42.0838709117806    0.726275633958962    -42.0838709117806    0.670406035322638    46.5580677258738     
218.943058679036     0.674054598883884    46.2832252889004     0.722965670311816    -42.3662556831552    0.722965670311816    -42.3662556831552    0.674054598883884    46.2832252889004     
221.094839503851     0.677691444121084    46.0079683276461     0.719634093201196    -42.6490026763737    0.719634093201196    -42.6490026763737    0.677691444121084    46.0079683276461     
223.267768113603     0.681316102364126    45.7323219223882     0.716281209358029    -42.9320870907943    0.716281209358029    -42.9320870907943    0.681316102364126    45.7323219223882     
225.462052349535     0.684928108896188    45.4563112701324     0.712907333941995    -43.2154840047667    0.712907333941995    -43.2154840047667    0.684928108896188    45.4563112701324     
227.677902095567     0.68852700323605     45.1799616729705     0.709512790388881    -43.4991683872584    0.709512790388881    -43.4991683872584    0.68852700323605     45.1799616729705     
229.915529298363     0.69211232941709     44.903298526307      0.706097910249127    -43.7831151096089    0.706097910249127    -43.7831151096089    0.69211232941709     44.903298526307      
232.175147987608     0.695683636262561    44.626347306972      0.70266303301776     -44.0672989573975    0.70266303301776     -44.0672989573975    0.695683636262561    44.626347306972      
234.456974296479     0.699240477656816    44.3491335612253     0.699208505955876    -44.3516946424175    0.699208505955876    -44.3516946424175    0.699240477656816    44.3491335612253     
236.761226482318     0.702782412812029    44.0716828926751     0.695734683903895    -44.6362768147349    0.695734683903895    -44.6362768147349    0.702782412812029    44.0716828926751     
239.088124947509     0.706309006530106    43.7940209501172     0.69224192908679     -44.9210200748252    0.69224192908679     -44.9210200748252    0.706309006530106    43.7940209501172     
241.437892260559     0.709819829459393    43.51617341531       0.688730610911564    -45.2058989857713    0.688730610911564    -45.2058989857713    0.709819829459393    43.51617341531       
243.810753177387     0.713314458345831    43.2381659907021     0.685201105757157    -45.490888085509     0.685201105757157    -45.490888085509     0.713314458345831    43.2381659907021     
246.206934662821     0.716792476278183    42.9600243871259     0.681653796757121    -45.7759618991043    0.681653796757121    -45.7759618991043    0.716792476278183    42.9600243871259     
248.626665912309     0.720253472927089    42.6817743114645     0.678089073575293    -46.061094951054     0.678089073575293    -46.061094951054     0.720253472927089    42.6817743114645     
251.07017837384      0.723697044777515    42.4034414543169     0.674507332174803    -46.3462617775891    0.674507332174803    -46.3462617775891    0.723697044777515    42.4034414543169     
253.537705770084     0.727122795354344    42.1250514776693     0.670908974580669    -46.6314369389677    0.670908974580669    -46.6314369389677    0.727122795354344    42.1250514776693     
256.029484120745     0.730530335440865    41.8466300025816     0.667294408636352    -46.9165950317513    0.667294408636352    -46.9165950317513    0.730530335440865    41.8466300025816     
258.545751765138     0.733919283289734    41.568202596918      0.663664047754541    -47.2017107010371    0.663664047754541    -47.2017107010371    0.733919283289734    41.568202596918      
261.086749384987     0.737289264826281    41.2897947631194     0.6600183106626      -47.486758652643     0.6600183106626      -47.486758652643     0.737289264826281    41.2897947631194     
263.652720027444     0.740639913843854    41.0114319260409     0.656357621142899    -47.7717136652278    0.656357621142899    -47.7717136652278    0.740639913843854    41.0114319260409     
266.243909128338     0.743970872190928    40.7331394208673     0.652682407768514    -48.0565506023311    0.652682407768514    -48.0565506023311    0.743970872190928    40.7331394208673     
268.860564535652     0.747281789949836    40.4549424811154     0.648993103634557    -48.341244424323     0.648993103634557    -48.341244424323     0.747281789949836    40.4549424811154     
271.502936533227     0.750572325606842    40.1768662267423     0.645290146085618    -48.6257702002461    0.645290146085618    -48.6257702002461    0.750572325606842    40.1768662267423     
274.171277864705     0.753842146213398    39.8989356523711     0.641573976439565    -48.9101031195385    0.641573976439565    -48.9101031195385    0.753842146213398    39.8989356523711     
276.8658437577       0.757090927538457    39.6211756156413     0.637845039708222    -49.1942185036279    0.637845039708222    -49.1942185036279    0.757090927538457    39.6211756156413     
279.586891948214     0.760318354211605    39.3436108257065     0.634103784315196    -49.4780918173777    0.634103784315196    -49.4780918173777    0.760318354211605    39.3436108257065     
282.334682705289     0.763524119856942    39.0662658318836     0.63035066181135     -49.761698680377     0.63035066181135     -49.761698680377     0.763524119856942    39.0662658318836     
285.109478855901     0.76670792721757     38.7891650124702     0.62658612658822     -50.0450148780621    0.62658612658822     -50.0450148780621    0.76670792721757     38.7891650124702     
287.911545810098     0.769869488270617    38.5123325637366     0.62281063558984     -50.3280163726584    0.62281063558984     -50.3280163726584    0.769869488270617    38.5123325637366     
290.74115158639      0.773008524332657    38.2357924891118     0.619024648023334    -50.6106793139262    0.619024648023334    -50.6106793139262    0.773008524332657    38.2357924891118     
293.598566837383     0.776124766155528    37.9595685885662     0.615228625068694    -50.8929800497074    0.615228625068694    -50.8929800497074    0.776124766155528    37.9595685885662     
296.484064875666     0.779217954012485    37.6836844482061     0.611423029588108    -51.1748951362562    0.611423029588108    -51.1748951362562    0.779217954012485    37.6836844482061     
299.397921699956     0.782287837774644    37.4081634300887     0.607608325835244    -51.456401348347     0.607608325835244    -51.456401348347     0.782287837774644    37.4081634300887     
302.340416021497     0.785334176977704    37.1330286622702     0.603784979164891    -51.7374756891453    0.603784979164891    -51.7374756891453    0.785334176977704    37.1330286622702     
305.311829290714     0.788356740879028    36.8583030290878     0.599953455743328    -52.0180953998416    0.599953455743328    -52.0180953998416    0.788356740879028    36.8583030290878     
308.312445724141     0.791355308505018    36.5840091616948     0.596114222259763    -52.2982379690284    0.596114222259763    -52.2982379690284    0.791355308505018    36.5840091616948     
311.342552331603     0.794329668688869    36.3101694288516     0.592267745639278    -52.5778811418178    0.592267745639278    -52.5778811418178    0.794329668688869    36.3101694288516     
314.402438943667     0.797279620098806    36.0368059279778     0.588414492757622    -52.8570029286941    0.588414492757622    -52.8570029286941    0.797279620098806    36.0368059279778     
317.492398239367     0.800204971256787    35.7639404764798     0.584554930158164    -53.1355816140868    0.584554930158164    -53.1355816140868    0.800204971256787    35.7639404764798     
320.612725774198     0.803105540547879    35.4915946033528     0.580689523771414    -53.4135957646652    0.580689523771414    -53.4135957646652    0.803105540547879    35.4915946033528     
323.763720008385     0.80598115622031     35.2197895410711     0.576818738637426    -53.6910242373409    0.576818738637426    -53.6910242373409    0.80598115622031     35.2197895410711     
326.945682335432     0.808831656376425    34.9485462177629     0.572943038631424    -53.9678461869808    0.572943038631424    -53.9678461869808    0.808831656376425    34.9485462177629     
330.158917110949     0.811656888954576    34.6778852496869     0.569062886192942    -54.2440410738137    0.569062886192942    -54.2440410738137    0.811656888954576    34.6778852496869     
333.403731681768     0.81445671170222     34.4078269340015     0.565178742058816    -54.5195886705398    0.565178742058816    -54.5195886705398    0.81445671170222     34.4078269340015     
336.680436415333     0.817230992140272    34.1383912418447     0.56129106500033     -54.7944690691253    0.56129106500033     -54.7944690691253    0.817230992140272    34.1383912418447     
339.989344729395     0.819979607519011    33.8695978117143     0.557400311564778    -55.0686626872898    0.557400311564778    -55.0686626872898    0.819979607519011    33.8695978117143     
343.330773121984     0.822702444765614    33.6014659431647     0.5535069358217      -55.3421502746735    0.5535069358217      -55.3421502746735    0.822702444765614    33.6014659431647     
346.705041201686     0.825399400423617    33.3340145908124     0.549611389114134    -55.6149129186902    0.549611389114134    -55.6149129186902    0.825399400423617    33.3340145908124     
350.112471718213     0.828070380584471    33.067262358657      0.545714119815014    -55.8869320500569    0.545714119815014    -55.8869320500569    0.828070380584471    33.067262358657      
353.553390593274     0.830715300811405    32.8012274947203     0.54181557308905     -56.1581894480029    0.54181557308905     -56.1581894480029    0.830715300811405    32.8012274947203     
357.028126951747     0.833334086055884    32.5359278859993     0.53791619066025     -56.4286672451555    0.53791619066025     -56.4286672451555    0.833334086055884    32.5359278859993     
360.537013153162     0.83592667056682     32.27138105374       0.534016410585302    -56.6983479321007    0.534016410585302    -56.6983479321007    0.83592667056682     32.27138105374       
364.080384823495     0.838492997792888    32.0076041490259     0.530116667033026    -56.9672143616217    0.530116667033026    -56.9672143616217    0.838492997792888    32.0076041490259     
367.658580887264     0.841033020278087    31.7446139486858     0.52621739007007     -57.2352497526111    0.52621739007007     -57.2352497526111    0.841033020278087    31.7446139486858     
371.271943599949     0.843546699550918    31.4824268515163     0.522319005452971    -57.5024376936619    0.522319005452971    -57.5024376936619    0.843546699550918    31.4824268515163     
374.920818580735     0.84603400600737     31.2210588748189     0.5184219344268      -57.7687621463353    0.5184219344268      -57.7687621463353    0.84603400600737     31.2210588748189     
378.60555484556      0.848494918788018    30.9605256512497     0.51452659353046     -58.0342074481099    0.51452659353046     -58.0342074481099    0.848494918788018    30.9605256512497     
382.326504840506     0.850929425649511    30.7008424259801     0.510633394408812    -58.2987583150094    0.510633394408812    -58.2987583150094    0.850929425649511    30.7008424259801     
386.084024475512     0.853337522830703    30.4420240541649     0.506742743631694    -58.562399843917     0.506742743631694    -58.562399843917     0.853337522830703    30.4420240541649     
389.878473158409     0.855719214913748    30.1840849987146     0.502855042519934    -58.8251175145755    0.502855042519934    -58.8251175145755    0.855719214913748    30.1840849987146     
393.710213829304     0.858074514680416    29.9270393283681     0.498970686978459    -59.0868971912775    0.498970686978459    -59.0868971912775    0.858074514680416    29.9270393283681     
397.579612995295     0.860403442963911    29.6709007160636     0.495090067336539    -59.3477251242488    0.495090067336539    -59.3477251242488    0.860403442963911    29.6709007160636     
401.487040765522     0.862706028496501    29.4156824376023     0.491213568195211    -59.6075879507297    0.491213568195211    -59.6075879507297    0.862706028496501    29.4156824376023     
405.432870886576     0.864982307753219    29.1613973705993     0.48734156828196     -59.8664726957564    0.48734156828196     -59.8664726957564    0.864982307753219    29.1613973705993     
409.41748077824      0.86723232479193     28.9080579937192     0.48347444031262     -60.1243667726494    0.48347444031262     -60.1243667726494    0.86723232479193     28.9080579937192     
413.441251569597     0.869456131090059    28.6556763861891     0.479612550860576    -60.3812579832128    0.479612550860576    -60.3812579832128    0.869456131090059    28.6556763861891     
417.504568135478     0.871653785378235    28.4042642275845     0.475756260233211    -60.6371345176477    0.475756260233211    -60.6371345176477    0.871653785378235    28.4042642275845     
421.607819133282     0.873825353471144    28.1538327978839     0.471905922355594    -60.8919849541862    0.471905922355594    -60.8919849541862    0.873825353471144    28.1538327978839     
425.751397040145     0.87597090809587     27.9043929777818     0.468061884661432    -61.1457982584537    0.468061884661432    -61.1457982584537    0.87597090809587     27.9043929777818     
429.935698190485     0.87809052871799     27.6559552492589     0.464224487991174    -61.3985637825606    0.464224487991174    -61.3985637825606    0.87809052871799     27.6559552492589     
434.161122813908     0.880184301365689    27.4085296964        0.46039406649729     -61.6502712639333    0.46039406649729     -61.6502712639333    0.880184301365689    27.4085296964        
438.428075073495     0.882252318452145    27.1621260064556     0.456570947556628    -61.9009108238858    0.456570947556628    -61.9009108238858    0.882252318452145    27.1621260064556     
442.736963104457     0.884294678596491    26.9167534711355     0.452755451689781    -62.1504729659451    0.452755451689781    -62.1504729659451    0.884294678596491    26.9167534711355     
447.088199053169     0.886311486443528    26.6724209881348     0.448947892487421    -62.3989485739279    0.448947892487421    -62.3989485739279    0.886311486443528    26.6724209881348     
451.482199116603     0.888302852482518    26.4291370628782     0.445148576543476    -62.6463289097837    0.445148576543476    -62.6463289097837    0.888302852482518    26.4291370628782     
455.919383582126     0.890268892865236    26.186909810481      0.441357803395087    -62.8926056112016    0.441357803395087    -62.8926056112016    0.890268892865236    26.186909810481      
460.400176867709     0.892209729223544    25.9457469579162     0.437575865469217    -63.1377706889961    0.437575865469217    -63.1377706889961    0.892209729223544    25.9457469579162     
464.925007562515     0.894125488486722    25.7056558463806     0.433803048035818    -63.3818165242726    0.433803048035818    -63.3818165242726    0.894125488486722    25.7056558463806     
469.494308467903     0.896016302698752    25.466643433855      0.430039629167438    -63.6247358653795    0.430039629167438    -63.6247358653795    0.896016302698752    25.466643433855      
474.108516638815     0.897882308835774    25.2287162978495     0.42628587970515     -63.8665218246562    0.42628587970515     -63.8665218246562    0.897882308835774    25.2287162978495     
478.76807342559      0.899723648623967    24.9918806383232     0.422542063230651    -64.1071678749829    0.422542063230651    -64.1071678749829    0.899723648623967    24.9918806383232     
483.473424516174     0.901540468357975    24.7561422807783     0.418808436044415    -64.3466678461351    0.418808436044415    -64.3466678461351    0.901540468357975    24.7561422807783     
488.225019978751     0.903332918720129    24.5215066795144     0.41508524714977     -64.5850159209532    0.41508524714977     -64.5850159209532    0.903332918720129    24.5215066795144     
493.023314304792     0.905101154600643    24.2879789210372     0.411372738242725    -64.8222066313334    0.411372738242725    -64.8222066313334    0.905101154600643    24.2879789210372     
497.868766452528     0.906845334918929    24.0555637276173     0.407671143707409    -65.0582348540425    0.407671143707409    -65.0582348540425    0.906845334918929    24.0555637276173     
502.761839890849     0.908565622446231    23.8242654609866     0.403980690616999    -65.2930958063673    0.403980690616999    -65.2930958063673    0.908565622446231    23.8242654609866     
507.703002643637     0.91026218362973     23.5940881261692     0.400301598739911    -65.5267850416012    0.400301598739911    -65.5267850416012    0.91026218362973     23.5940881261692     
512.692727334528     0.911935188418266    23.3650353754373     0.396634080551193    -65.759298444377     0.396634080551193    -65.759298444377     0.911935188418266    23.3650353754373     
517.731491232123     0.913584810089831    23.1371105123844     0.392978341248839    -65.990632225848     0.392978341248839    -65.990632225848     0.913584810089831    23.1371105123844     
522.819776295637     0.915211225080951    22.9103164961115     0.389334578774983    -66.2207829187267    0.389334578774983    -66.2207829187267    0.915211225080951    22.9103164961115     
527.958069220998     0.916814612818136    22.6846559455141     0.385702983841709    -66.4497473721848    0.385702983841709    -66.4497473721848    0.916814612818136    22.6846559455141     
533.146861487401     0.91839515555144     22.4601311436703     0.382083739961375    -66.6775227466178    0.382083739961375    -66.6775227466178    0.91839515555144     22.4601311436703     
538.386649404319     0.919953038190325    22.2367440423141     0.378477023481234    -66.9041065082848    0.378477023481234    -66.9041065082848    0.919953038190325    22.2367440423141     
543.67793415897      0.921488448141881    22.014496266396      0.374883003622226    -67.1294964238213    0.374883003622226    -67.1294964238213    0.921488448141881    22.014496266396      
549.021221864262     0.923001575151531    21.7933891187169     0.371301842521747    -67.3536905546367    0.371301842521747    -67.3536905546367    0.923001575151531    21.7933891187169     
554.4170236072       0.924492611146288    21.5734235846343     0.367733695280228    -67.5766872511937    0.367733695280228    -67.5766872511937    0.924492611146288    21.5734235846343     
559.865855497771     0.925961750080669    21.3546003368309     0.364178710011374    -67.7984851471795    0.364178710011374    -67.7984851471795    0.925961750080669    21.3546003368309     
565.368238718311     0.927409187785341    21.13691974014       0.360637027895872    -68.0190831535705    0.360637027895872    -68.0190831535705    0.927409187785341    21.13691974014       
570.924699573356     0.928835121818542    20.9203818564235     0.357108783238413    -68.2384804525928    0.357108783238413    -68.2384804525928    0.928835121818542    20.9203818564235     
576.535769539985     0.930239751320388    20.7049864494925     0.353594103527868    -68.4566764915844    0.353594103527868    -68.4566764915844    0.930239751320388    20.7049864494925     
582.201985318651     0.931623276870069    20.4907329900706     0.350093109500447    -68.6736709767572    0.350093109500447    -68.6736709767572    0.931623276870069    20.4907329900706     
587.923888884522     0.932985900346029    20.2776206607877     0.34660591520568     -68.8894638668684    0.34660591520568     -68.8894638668684    0.932985900346029    20.2776206607877     
593.702027539319     0.934327824789144    20.0656483612031     0.343132628075055    -69.1040553667978    0.343132628075055    -69.1040553667978    0.934327824789144    20.0656483612031     
599.536953963665     0.935649254268957    19.8548147128511     0.339673348993182    -69.3174459210345    0.339673348993182    -69.3174459210345    0.935649254268957    19.8548147128511     
605.429226269948     0.936950393752977    19.645118064305      0.336228172371286    -69.5296362070745    0.336228172371286    -69.5296362070745    0.936950393752977    19.645118064305      
611.379408055709     0.938231448979093    19.4365564962519     0.332797186222914    -69.7406271287305    0.332797186222914    -69.7406271287305    0.938231448979093    19.4365564962519     
617.388068457545     0.939492626331118    19.2291278265752     0.329380472241675    -69.9504198093566    0.329380472241675    -69.9504198093566    0.939492626331118    19.2291278265752     
623.45578220555      0.940734132717451    19.0228296154423     0.325978105880904    -70.1590155849804    0.325978105880904    -70.1590155849804    0.940734132717451    19.0228296154423     
629.583129678288     0.941956175452919    18.8176591703876     0.322590156435059    -70.3664159973529    0.322590156435059    -70.3664159973529    0.941956175452919    18.8176591703876     
635.770696958305     0.943158962143751    18.6136135513905     0.319216687122761    -70.5726227869072    0.319216687122761    -70.5726227869072    0.943158962143751    18.6136135513905     
642.019075888189     0.944342700575717    18.4106895759449     0.315857755171293    -70.7776378856284    0.315857755171293    -70.7776378856284    0.944342700575717    18.4106895759449     
648.328864127183     0.945507598605426    18.2088838241107     0.312513411902456    -70.9814634098313    0.312513411902456    -70.9814634098313    0.945507598605426    18.2088838241107     
654.700665208343     0.946653864054758    18.008192643551      0.309183702819641    -71.1841016528458    0.309183702819641    -71.1841016528458    0.946653864054758    18.008192643551      
661.135088596274     0.947781704608433    17.8086121545446     0.30586866769598     -71.3855550776022    0.30586866769598     -71.3855550776022    0.947781704608433    17.8086121545446     
667.632749745421     0.948891327714698    17.6101382549745     0.302568340663482    -71.5858263091199    0.302568340663482    -71.5858263091199    0.948891327714698    17.6101382549745     
674.194270158943     0.949982940489112    17.4127666252874     0.299282750302992    -71.7849181268874    0.299282750302992    -71.7849181268874    0.949982940489112    17.4127666252874     
680.82027744815      0.951056749621396    17.2164927334203     0.296011919734887    -71.9828334571353    0.296011919734887    -71.9828334571353    0.951056749621396    17.2164927334203     
687.511405392546     0.95211296128535     17.0213118396936     0.292755866710403    -72.1795753649916    0.292755866710403    -72.1795753649916    0.95211296128535     17.0213118396936     
694.26829400044      0.953151781051762    16.8272190016644     0.289514603703457    -72.3751470465155    0.289514603703457    -72.3751470465155    0.953151781051762    16.8272190016644     
701.09158957017      0.954173413804337    16.6342090789397     0.28628813800286     -72.5695518206028    0.28628813800286     -72.5695518206028    0.954173413804337    16.6342090789397     
707.981944751917     0.955178063658536    16.4422767379481     0.283076471804874    -72.7627931207507    0.283076471804874    -72.7627931207507    0.955178063658536    16.4422767379481     
714.940018610136     0.956165933883379    16.2514164566621     0.279879602305924    -72.9548744866782    0.279879602305924    -72.9548744866782    0.956165933883379    16.2514164566621     
721.96647668659      0.957137226826076    16.0616225292749     0.276697521795457    -73.1457995557882    0.276697521795457    -73.1457995557882    0.957137226826076    16.0616225292749     
729.061991064012     0.958092143839532    15.8728890708259     0.273530217748815    -73.3355720544607    0.273530217748815    -73.3355720544607    0.958092143839532    15.8728890708259     
736.227240430394     0.959030885212605    15.6852100217752     0.270377672920034    -73.5241957891652    0.270377672920034    -73.5241957891652    0.959030885212605    15.6852100217752     
743.462910143895     0.959953650103144    15.4985791525215     0.267239865434507    -73.7116746373791    0.267239865434507    -73.7116746373791    0.959953650103144    15.4985791525215     
750.769692298403     0.960860636473698    15.3129900678663     0.264116768881421    -73.898012538295     0.264116768881421    -73.898012538295     0.960860636473698    15.3129900678663     
758.14828578973      0.96175204102989     15.1284362114185     0.261008352405882    -74.0832134833038    0.261008352405882    -74.0832134833038    0.96175204102989     15.1284362114185     
765.599396382467     0.962628059161382    14.9449108699422     0.257914580800685    -74.2672815062309    0.257914580800685    -74.2672815062309    0.962628059161382    14.9449108699422     
773.12373677748      0.963488884885392    14.7624071776418     0.254835414597633    -74.450220673311     0.254835414597633    -74.450220673311     0.963488884885392    14.7624071776418     
780.72202668009      0.964334710792712    14.5809181203866     0.251770810158351    -74.6320350728767    0.251770810158351    -74.6320350728767    0.964334710792712    14.5809181203866     
788.394992868913     0.965165727996154    14.4004365398724     0.248720719764542    -74.8127288047375    0.248720719764542    -74.8127288047375    0.965165727996154    14.4004365398724     
796.143369265367     0.965982126081413    14.2209551377178     0.245685091707606    -74.9923059692261    0.245685091707606    -74.9923059692261    0.965982126081413    14.2209551377178     
803.967897003883     0.966784093060232    14.0424664794987     0.242663870377598    -75.1707706558804    0.242663870377598    -75.1707706558804    0.966784093060232    14.0424664794987     
811.869324502785     0.967571815325877    13.8649629987131     0.239656996351434    -75.3481269317348    0.239656996351434    -75.3481269317348    0.967571815325877    13.8649629987131     
819.848407535887     0.968345477610823    13.688437000682      0.236664406480341    -75.5243788291857    0.236664406480341    -75.5243788291857    0.968345477610823    13.688437000682      
827.905909304773     0.969105262946604    13.512880666384      0.233686033976471    -75.6995303333931    0.233686033976471    -75.6995303333931    0.969105262946604    13.512880666384      
836.042600511801     0.969851352625792    13.3382860562193     0.230721808498652    -75.8735853691839    0.230721808498652    -75.8735853691839    0.969851352625792    13.3382860562193     
844.259259433826     0.970583926166022    13.1646451137083     0.227771656237229    -76.0465477874095    0.227771656237229    -76.0465477874095    0.970583926166022    13.1646451137083     
852.556671996634     0.971303161276021    12.9919496691203     0.224835499997977    -76.2184213507134    0.224835499997977    -76.2184213507134    0.971303161276021    12.9919496691203     
860.93563185012      0.97200923382358     12.820191443035      0.22191325928503     -76.389209718656     0.22191325928503     -76.389209718656     0.97200923382358     12.820191443035      
869.396940444203     0.972702317805422    12.6493620498331     0.219004850382806    -76.5589164321431    0.219004850382806    -76.5589164321431    0.972702317805422    12.6493620498331     
877.941407105482     0.973382585318896    12.4794530011198     0.216110186436894    -76.7275448970943    0.216110186436894    -76.7275448970943    0.973382585318896    12.4794530011198     
886.569849114648     0.97405020653545     12.3104557090782     0.213229177533896    -76.8950983672875    0.213229177533896    -76.8950983672875    0.97405020653545     12.3104557090782     
895.283091784658     0.974705349675827    12.1423614897539     0.210361730780174    -77.0615799263039    0.210361730780174    -77.0615799263039    0.974705349675827    12.1423614897539     
904.081968539678     0.975348180986931    11.9751615662713     0.207507750379498    -77.226992468496     0.207507750379498    -77.226992468496     0.975348180986931    11.9751615662713     
912.967320994799     0.975978864720303    11.8088470719796     0.204667137709575    -77.3913386788892    0.204667137709575    -77.3913386788892    0.975978864720303    11.8088470719796     
921.939999036536     0.976597563112157    11.6434090535325     0.201839791397439    -77.5546210119223    0.201839791397439    -77.5546210119223    0.976597563112157    11.6434090535325     
931.000860904122     0.977204436364924    11.478838473897      0.199025607393693    -77.7168416689201    0.199025607393693    -77.7168416689201    0.977204436364924    11.478838473897      
940.150773271599     0.977799642630243    11.3151262152969     0.196224479045595    -77.8780025741835    0.196224479045595    -77.8780025741835    0.977799642630243    11.3151262152969     
949.390611330714     0.978383337993362    11.1522630820864     0.193436297168954    -78.0381053495686    0.193436297168954    -78.0381053495686    0.978383337993362    11.1522630820864     
958.721258874632     0.978955676458882    10.9902398035583     0.190660950118877    -78.1971512874145    0.190660950118877    -78.1971512874145    0.978955676458882    10.9902398035583     
968.143608382474     0.979516809937798    10.8290470366848     0.187898323859309    -78.3551413216654    0.187898323859309    -78.3551413216654    0.979516809937798    10.8290470366848     
977.658561104677     0.980066888235802    10.6686753687916     0.185148302031399    -78.5120759970149    0.185148302031399    -78.5120759970149    0.980066888235802    10.6686753687916     
987.267027149201     0.980606059042769    10.5091153201676     0.182410766020682    -78.6679554358845    0.182410766020682    -78.6679554358845    0.980606059042769    10.5091153201676     
996.969925568589     0.9811344679234      10.350357346609      0.179685595023064    -78.8227793030254    0.179685595023064    -78.8227793030254    0.9811344679234      10.350357346609      
1006.76818444786     0.981652258308981    10.1923918418983     0.176972666109635    -78.9765467675146    0.176972666109635    -78.9765467675146    0.981652258308981    10.1923918418983     
1016.66274099329     0.982159571490175    10.0352091402214     0.174271854290304    -79.129256461884     0.174271854290304    -79.129256461884     0.982159571490175    10.0352091402214     
1026.65454162206     0.982656546610852    9.8787995185202      0.171583032576255    -79.2809064381       0.171583032576255    -79.2809064381       0.982656546610852    9.8787995185202      
1036.74454205277     0.983143320662862    9.72315319878329     0.168906072041255    -79.4314941200739    0.168906072041255    -79.4314941200739    0.983143320662862    9.72315319878329     
1046.93370739686     0.983620028481742    9.56826035027555     0.166240841881789    -79.5810162523479    0.166240841881789    -79.5810162523479    0.983620028481742    9.56826035027555     
1057.22301225093     0.984086802743306    9.41411109170651     0.163587209476083    -79.7294688445633    0.163587209476083    -79.7294688445633    0.984086802743306    9.41411109170651     
1067.61344078993     0.984543773961059    9.26069549333954     0.160945040441986    -79.8768471112654    0.160945040441986    -79.8768471112654    0.984543773961059    9.26069549333954     
1078.10598686135     0.984991070484414    9.10800357904098     0.158314198693747    -80.0231454065537    0.158314198693747    -80.0231454065537    0.984991070484414    9.10800357904098     
1088.70165408023     0.985428818497666    8.95602532827201     0.155694546497713    -80.1683571530193    0.155694546497713    -80.1683571530193    0.985428818497666    8.95602532827201     
1099.40145592519     0.985857142019675    8.80475067802248     0.153085944526949    -80.3124747643471    0.153085944526949    -80.3124747643471    0.985857142019675    8.80475067802248     
1110.20641583535     0.986276162904231    8.65416952468885     0.150488251914828    -80.455489560883     0.150488251914828    -80.455489560883     0.986276162904231    8.65416952468885     
1121.11756730823     0.98668600084105     8.50427172589565     0.147901326307592    -80.597391677372     0.147901326307592    -80.597391677372     0.98668600084105     8.50427172589565     
1132.1359539986      0.987086773357388    8.35504710226363     0.145325023915941    -80.7381699619781    0.145325023915941    -80.7381699619781    0.987086773357388    8.35504710226363     
1143.26262981832     0.987478595820201    8.20648543912325     0.142759199565656    -80.8778118655737    0.142759199565656    -80.8778118655737    0.987478595820201    8.20648543912325     
1154.49865903712     0.987861581438856    8.0585764881753      0.140203706747315    -81.0163033201557    0.140203706747315    -81.0163033201557    0.987861581438856    8.0585764881753      
1165.84511638443     0.988235841268324    7.91130996910038     0.137658397665112    -81.1536286050853    0.137658397665112    -81.1536286050853    0.988235841268324    7.91130996910038     
1177.30308715216     0.988601484212851    7.76467557111711     0.135123123284867    -81.2897701996767    0.135123123284867    -81.2897701996767    0.988601484212851    7.76467557111711     
1188.8736672985      0.988958617030046    7.61866295449038     0.132597733381227    -81.4247086204412    0.132597733381227    -81.4247086204412    0.988958617030046    7.61866295449038     
1200.55796355276     0.989307344335387    7.47326175199072     0.130082076584148    -81.5584222410637    0.130082076584148    -81.5584222410637    0.989307344335387    7.47326175199072     
1212.35709352126     0.989647768607085    7.32846157030626     0.127576000424705    -81.6908870928958    0.127576000424705    -81.6908870928958    0.989647768607085    7.32846157030626     
1224.27218579414     0.989979990191293    7.1842519914063      0.125079351380275    -81.8220766434329    0.125079351380275    -81.8220766434329    0.989979990191293    7.1842519914063      
1236.30438005342     0.99030410730763     7.04062257386117     0.122591974919235    -81.9519615498489    0.122591974919235    -81.9519615498489    0.99030410730763     7.04062257386117     
1248.45482718194     0.990620216054988    6.89756285411426     0.120113715545159    -82.0805093842208    0.120113715545159    -82.0805093842208    0.990620216054988    6.89756285411426     
1260.72468937344     0.990928410417591    6.75506234771303     0.117644416840714    -82.2076843265365    0.117644416840714    -82.2076843265365    0.990928410417591    6.75506234771303     
1273.11514024379     0.991228782271296    6.61311055049462     0.115183921511281    -82.3334468209632    0.115183921511281    -82.3334468209632    0.991228782271296    6.61311055049462     
1285.62736494316     0.991521421390092    6.47169693973062     0.112732071428469    -82.4577531901054    0.112732071428469    -82.4577531901054    0.991521421390092    6.47169693973062     
1298.26256026944     0.991806415452782    6.33081097523091     0.110288707673664    -82.5805552011044    0.110288707673664    -82.5805552011044    0.991806415452782    6.33081097523091     
1311.0219347827      0.992083850049828    6.19044210040695     0.107853670581744    -82.7017995763859    0.107853670581744    -82.7017995763859    0.992083850049828    6.19044210040695     
1323.90670892077     0.99235380869032     6.05057974329589     0.105426799785173    -82.8214274406012    0.105426799785173    -82.8214274406012    0.99235380869032     6.05057974329589     
1336.91811511601     0.99261637280907     5.91121331754786     0.103007934258697    -82.9393736938088    0.103007934258697    -82.9393736938088    0.99261637280907     5.91121331754786     
1350.05739791315     0.992871621773786    5.7723322233745      0.100596912364878    -83.055566299126     0.100596912364878    -83.055566299126     0.992871621773786    5.7723322233745      
1363.32581408838     0.993119632892325    5.63392584846285     0.098193571900769    -83.1699254708827    0.098193571900769    -83.1699254708827    0.993119632892325    5.63392584846285     
1376.7246327695      0.993360481419994    5.49598356885345     0.095797750146101    -83.2823627466513    0.095797750146101    -83.2823627466513    0.993360481419994    5.49598356885345     
1390.25513555739     0.993594240566876    5.35849474978401     0.093409283913359    -83.3927799232656    0.093409283913359    -83.3927799232656    0.993594240566876    5.35849474978401     
1403.91861664852     0.993820981505175    5.22144874650134     0.091028009600308    -83.5010678329605    0.091028009600308    -83.5010678329605    0.993820981505175    5.22144874650134     
1417.71638295877     0.994040773376556    5.08483490503911     0.088653763245486    -83.6071049308581    0.088653763245486    -83.6071049308581    0.994040773376556    5.08483490503911     
1431.64975424847     0.994253683299453    4.94864256296647     0.086286380587451    -83.7107556589483    0.086286380587451    -83.7107556589483    0.994253683299453    4.94864256296647     
1445.72006324859     0.99445977637635     4.8128610501048      0.083925697128611    -83.8118685441635    0.083925697128611    -83.8118685441635    0.99445977637635     4.8128610501048      
1459.92865578821     0.994659115700996    4.67747968921598     0.081571548204699    -83.9102739787012    0.081571548204699    -83.9102739787012    0.994659115700996    4.67747968921598     
1474.27689092331     0.994851762365559    4.54248779666232     0.079223769061206    -84.005781618866     0.079223769061206    -84.005781618866     0.994851762365559    4.54248779666232     
1488.7661410667      0.99503777546768     4.40787468303918     0.07688219493835     -84.0981773236778    0.07688219493835     -84.0981773236778    0.99503777546768     4.40787468303918     
1503.3977921193      0.995217212117441    4.27362965378055     0.074546661166569    -84.1872195353491    0.074546661166569    -84.1872195353491    0.995217212117441    4.27362965378055     
1518.17324360276     0.995390127444213    4.13974200973974     0.072217003275       -84.2726349792032    0.072217003275       -84.2726349792032    0.995390127444213    4.13974200973974     
1533.09390879326     0.99555657460338     4.00620104774542     0.069893057116073    -84.3541135289366    0.069893057116073    -84.3541135289366    0.99555657460338     4.00620104774542     
1548.1612148567      0.995716604782914    3.8729960611342      0.06757465901013     -84.4313020419337    0.06757465901013     -84.4313020419337    0.995716604782914    3.8729960611342      
1563.37660298525     0.995870267209822    3.74011634025951     0.065261645915067    -84.5037969153442    0.065261645915067    -84.5037969153442    0.995870267209822    3.74011634025951     
1578.74152853514     0.9960176091564      3.60755117298032     0.062953855627498    -84.5711350422336    0.062953855627498    -84.5711350422336    0.9960176091564      3.60755117298032     
1594.25746116593     0.996158675946344    3.47528984512755     0.060651127023738    -84.6327827518851    0.060651127023738    -84.6327827518851    0.996158675946344    3.47528984512755     
1609.92588498102     0.996293510960651    3.34332164095116     0.058353300351559    -84.6881221900554    0.058353300351559    -84.6881221900554    0.996293510960651    3.34332164095116     
1625.74829866967     0.996422155643347    3.21163584354831     0.05606021758715     -84.736434420461     0.05606021758715     -84.736434420461     0.996422155643347    3.21163584354831     
1641.72621565028     0.996544649507       3.08022173527278     0.053771722876514    -84.7768782886848    0.053771722876514    -84.7768782886848    0.996544649507       3.08022173527278     
1657.8611642152      0.996661030138026    2.94906859812782     0.051487663087279    -84.8084637555054    0.051487663087279    -84.8084637555054    0.996661030138026    2.94906859812782     
1674.15468767691     0.996771333201776    2.81816571414199     0.049207888506323    -84.830017935576     0.049207888506323    -84.830017935576     0.996771333201776    2.81816571414199     
1690.60834451561     0.996875592447386    2.68750236572982     0.046932253732181    -84.8401414041528    0.046932253732181    -84.8401414041528    0.996875592447386    2.68750236572982     
1707.22370852829     0.996973839712412    2.55706783603803     0.044660618830823    -84.8371513581276    0.044660618830823    -84.8371513581276    0.996973839712412    2.55706783603803     
1724.0023689793      0.997066104927193    2.42685140927749     0.042392850852341    -84.8190067783285    0.042392850852341    -84.8190067783285    0.997066104927193    2.42685140927749     
1740.94593075234     0.997152416118992    2.2968423710427      0.040128825849598    -84.7832085809195    0.040128825849598    -84.7832085809195    0.997152416118992    2.2968423710427      
1758.05601450396     0.997232799415866    2.16703000861921     0.037868431606432    -84.7266644437209    0.037868431606432    -84.7266644437209    0.997232799415866    2.16703000861921     
1775.33425681859     0.997307279050278    2.03740361127988     0.035611571387071    -84.6455028352407    0.035611571387071    -84.6455028352407    0.997307279050278    2.03740361127988     
1792.78231036506     0.997375877362448    1.90795247057067     0.033358169185074    -84.5348125258167    0.033358169185074    -84.5348125258167    0.997375877362448    1.90795247057067     
1810.40184405472     0.99743861480342     1.77866588058756     0.031108177223976    -84.3882703217098    0.031108177223976    -84.3882703217098    0.99743861480342     1.77866588058756     
1828.19454320103     0.997495509937872    1.64953313824406     0.028861586925456    -84.1975968841262    0.028861586925456    -84.1975968841262    0.997495509937872    1.64953313824406     
1846.16210968077     0.997546579446627    1.52054354353196     0.026618445372169    -83.9517405419936    0.026618445372169    -83.9517405419936    0.997546579446627    1.52054354353196     
1864.30626209684     0.997591838128888    1.39168639977441     0.02437888076664     -83.6356165901262    0.02437888076664     -83.6356165901262    0.997591838128888    1.39168639977441     
1882.62873594263     0.997631298904194    1.26295101387375     0.022143143185185    -83.2280925887407    0.022143143185185    -83.2280925887407    0.997631298904194    1.26295101387375     
1901.13128376803     0.997664972814066    1.13432669655315     0.019911672507132    -82.6986380100563    0.019911672507132    -82.6986380100563    0.997664972814066    1.13432669655315     
1919.81567534706     0.997692869023383    1.00580276259531     0.017685217210424    -82.0014837193237    0.017685217210424    -82.0014837193237    0.997692869023383    1.00580276259531     
1938.68369784714     0.997714994821444    0.877368531076605    0.015465054531542    -81.0648459498867    0.015465054531542    -81.0648459498867    0.997714994821444    0.877368531076605    
1957.73715600005     0.997731355622747    0.749013325598822    0.013253428723773    -79.7696124408546    0.013253428723773    -79.7696124408546    0.997731355622747    0.749013325598822    
1976.97787227453     0.997741954967459    0.620726474519622    0.011054505928713    -77.9033550982159    0.011054505928713    -77.9033550982159    0.997741954967459    0.620726474519622    
1996.40768705062     0.997746794521599    0.492497311181274    0.008876714077997    -75.0494275105288    0.008876714077997    -75.0494275105288    0.997746794521599    0.492497311181274    
2016.0284587957      0.997745874076905    0.364315174140249    0.006739460341353    -70.2778258778891    0.006739460341353    -70.2778258778891    0.997745874076905    0.364315174140249    
2035.84206424222     0.997739191550414    0.236169407396588    0.004697143472045    -61.1106205959068    0.004697143472045    -61.1106205959068    0.997739191550414    0.236169407396588    
2055.85039856722     0.99772674298374     0.1080493606258      0.002952273384726    -39.591919189266     0.002952273384726    -39.591919189266     0.99772674298374     0.1080493606258      
2076.05537557365     0.997708522542043    -0.02005561058773    0.002317997774533    8.66529611083932     0.002317997774533    8.66529611083932     0.997708522542043    -0.02005561058773    
2096.45892787336     0.997684522512711    -0.148156144513368   0.003468771604098    48.0499522761151     0.003468771604098    48.0499522761151     0.997684522512711    -0.148156144513368   
2117.06300707198     0.997654733303732    -0.276262873032969   0.005356721554053    63.8972348294841     0.005356721554053    63.8972348294841     0.997654733303732    -0.276262873032969   
2137.86958395562     0.997619143441783    -0.40438642139443    0.007440649511438    71.1362320020969     0.007440649511438    71.1362320020969     0.997619143441783    -0.40438642139443    
2158.88064867933     0.997577739570013    -0.532537407959923   0.009594049179989    75.1098566584005     0.009594049179989    75.1098566584005     0.997577739570013    -0.532537407959923   
2180.0982109575      0.997530506445537    -0.660726443946721   0.011779309592009    77.568191369284      0.011779309592009    77.568191369284      0.997530506445537    -0.660726443946721   
2201.52430025604     0.997477426936649    -0.788964133161331   0.013981973140394    79.2117696454183     0.013981973140394    79.2117696454183     0.997477426936649    -0.788964133161331   
2223.16096598657     0.997418482019733    -0.917261071724188   0.016195445506213    80.3697231658128     0.016195445506213    80.3697231658128     0.997418482019733    -0.917261071724188   
2245.01027770237     0.997353650775901    -1.04562784778621    0.018416358407306    81.2157822607369     0.018416358407306    81.2157822607369     0.997353650775901    -1.04562784778621    
2267.07432529639     0.997282910387359    -1.17407504123413    0.020642857574202    81.8499310772639     0.020642857574202    81.8499310772639     0.997282910387359    -1.17407504123413    
2289.35521920112     0.997206236133476    -1.30261322338592    0.02287387363168     82.3336535880489     0.02287387363168     82.3336535880489     0.997206236133476    -1.30261322338592    
2311.85509059046     0.99712360138661     -1.43125295667352    0.025108776409002    82.7067859757662     0.025108776409002    82.7067859757662     0.99712360138661     -1.43125295667352    
2334.5760915836      0.997034977607646    -1.56000479431299    0.027347196797995    82.9962502938685     0.027347196797995    82.9962502938685     0.997034977607646    -1.56000479431299    
2357.52039545078     0.996940334341292    -1.68887927996149    0.029588928634992    83.2208839389198     0.029588928634992    83.2208839389198     0.996940334341292    -1.68887927996149    
2380.69019682128     0.996839639211102    -1.81788694735924    0.031833871638477    83.3942563377048     0.031833871638477    83.3942563377048     0.996839639211102    -1.81788694735924    
2404.08771189326     0.996732857914281    -1.94703831995609    0.034081996685947    83.5263864839505     0.034081996685947    83.5263864839505     0.996732857914281    -1.94703831995609    
2427.71517864575     0.996619954216216    -2.07634391052247    0.036333323859004    83.6248305103846     0.036333323859004    83.6248305103846     0.996619954216216    -2.07634391052247    
2451.57485705274     0.996500889944804    -2.20581422074207    0.038587908097615    83.6953930226127     0.038587908097615    83.6953930226127     0.996500889944804    -2.20581422074207    
2475.66902929932     0.996375624984527    -2.33545974078755    0.040845829554928    83.7426056089785     0.040845829554928    83.7426056089785     0.996375624984527    -2.33545974078755    
2500                 0.996244117270339    -2.46529094887628    0.043107186947887    83.7700567501756     0.043107186947887    83.7700567501756     0.996244117270339    -2.46529094887628    
