# MHz S MA R 50      
!Freq                MagS11               AngS11               MagS21               AngS21               MagS12               AngS12               MagS22               AngS22               
1                    0.002210130963543    25.1336307008869     0.997999566477085    -0.053891987281201   0.997999566477085    -0.053891987281201   0.002210130963543    25.1336307008869     
1.01062519796669     0.002215851106847    25.3492147528512     0.997997952723464    -0.054464512480524   0.997997952723464    -0.054464512480524   0.002215851106847    25.3492147528512     
1.02136329076521     0.002221656183011    25.5660502029212     0.997996330273043    -0.055043119465607   0.997996330273043    -0.055043119465607   0.002221656183011    25.5660502029212     
1.0322154779255      0.002227547521979    25.7841308831304     0.997994699076543    -0.05562787283399    0.997994699076543    -0.05562787283399    0.002227547521979    25.7841308831304     
1.04318297172274     0.002233526471426    26.0034502914998     0.997993059084388    -0.05621883786921    0.997993059084388    -0.05621883786921    0.002233526471426    26.0034502914998     
1.05426699731278     0.002239594396888    26.224001588873      0.99799141024665     -0.056816080548084   0.99799141024665     -0.056816080548084   0.002239594396888    26.224001588873      
1.06546879286897     0.002245752681878    26.4457775958948     0.997989752513075    -0.057419667548063   0.997989752513075    -0.057419667548063   0.002245752681878    26.4457775958948     
1.07678960972054     0.002252002728013    26.668770790146      0.997988085833056    -0.058029666254678   0.997988085833056    -0.058029666254678   0.002252002728013    26.668770790146      
1.08823071249229     0.00225834595513     26.8929733034357     0.997986410155676    -0.058646144769055   0.997986410155676    -0.058646144769055   0.00225834595513     26.8929733034357     
1.09979337924595     0.002264783801403    27.1183769192623     0.997984725429621    -0.059269171915504   0.997984725429621    -0.059269171915504   0.002264783801403    27.1183769192623     
1.1114789016229      0.002271317723462    27.3449730704458     0.997983031603279    -0.059898817249212   0.997983031603279    -0.059898817249212   0.002271317723462    27.3449730704458     
1.12328858498844     0.002277949196499    27.5727528369419     0.997981328624651    -0.060535151063987   0.997981328624651    -0.060535151063987   0.002277949196499    27.5727528369419     
1.13522374857767     0.002284679714387    27.8017069438399     0.997979616441396    -0.061178244400106   0.997979616441396    -0.061178244400106   0.002284679714387    27.8017069438399     
1.14728572564279     0.002291510789782    28.0318257595568     0.997977895000806    -0.06182816905224    0.997977895000806    -0.06182816905224    0.002291510789782    28.0318257595568     
1.1594758636021      0.002298443954233    28.2630992942265     0.997976164249812    -0.062484997577464   0.997976164249812    -0.062484997577464   0.002298443954233    28.2630992942265     
1.17179552419047     0.002305480758284    28.4955171982989     0.99797442413498     -0.063148803303345   0.99797442413498     -0.063148803303345   0.002305480758284    28.4955171982989     
1.18424608361148     0.002312622771578    28.7290687613461     0.997972674602502    -0.063819660336125   0.997972674602502    -0.063819660336125   0.002312622771578    28.7290687613461     
1.19682893269113     0.002319871582956    28.9637429110911     0.997970915598199    -0.064497643568987   0.997970915598199    -0.064497643568987   0.002319871582956    28.9637429110911     
1.20954547703324     0.002327228800554    29.1995282126551     0.997969147067492    -0.065182828690409   0.997969147067492    -0.065182828690409   0.002327228800554    29.1995282126551     
1.22239713717643     0.002334696051897    29.4364128680395     0.99796736895546     -0.065875292192608   0.99796736895546     -0.065875292192608   0.002334696051897    29.4364128680395     
1.23538534875284     0.002342274983995    29.6743847158376     0.99796558120675     -0.066575111380068   0.99796558120675     -0.066575111380068   0.002342274983995    29.6743847158376     
1.24851156264849     0.002349967263429    29.9134312311902     0.997963783765657    -0.067282364378166   0.997963783765657    -0.067282364378166   0.002349967263429    29.9134312311902     
1.26177724516533     0.002357774576446    30.1535395259865     0.997961976576038    -0.067997130141886   0.997961976576038    -0.067997130141886   0.002357774576446    30.1535395259865     
1.27518387818508     0.002365698629035    30.3946963493131     0.997960159581388    -0.068719488464625   0.997960159581388    -0.068719488464625   0.002365698629035    30.3946963493131     
1.28873295933473     0.002373741147021    30.6368880881608     0.997958332724774    -0.069449519987089   0.997958332724774    -0.069449519987089   0.002373741147021    30.6368880881608     
1.30242600215386     0.00238190387614     30.8801007683897     0.997956495948883    -0.070187306206301   0.997956495948883    -0.070187306206301   0.00238190387614     30.8801007683897     
1.31626453626371     0.002390188582121    31.1243200559589     0.997954649195945    -0.070932929484672   0.997954649195945    -0.070932929484672   0.002390188582121    31.1243200559589     
1.33025010753804     0.002398597050761    31.3695312584238     0.997952792407807    -0.0716864730592     0.997952792407807    -0.0716864730592     0.002398597050761    31.3695312584238     
1.34438427827584     0.002407131088003    31.6157193267049     0.997950925525894    -0.072448021050754   0.997950925525894    -0.072448021050754   0.002407131088003    31.6157193267049     
1.35866862737583     0.002415792520005    31.8628688571308     0.997949048491188    -0.073217658473447   0.997949048491188    -0.073217658473447   0.002415792520005    31.8628688571308     
1.37310475051283     0.002424583193214    32.1109640937614     0.997947161244234    -0.073995471244126   0.997947161244234    -0.073995471244126   0.002424583193214    32.1109640937614     
1.38769426031603     0.002433504974433    32.3599889309879     0.997945263725168    -0.074781546191955   0.997945263725168    -0.074781546191955   0.002433504974433    32.3599889309879     
1.40243878654913     0.002442559750889    32.6099269164192     0.997943355873661    -0.075575971068092   0.997943355873661    -0.075575971068092   0.002442559750889    32.6099269164192     
1.41733997629238     0.002451749430296    32.8607612540502     0.99794143762896     -0.076378834555482   0.99794143762896     -0.076378834555482   0.002451749430296    32.8607612540502     
1.43239949412659     0.002461075940922    33.1124748077185     0.997939508929818    -0.077190226278746   0.997939508929818    -0.077190226278746   0.002461075940922    33.1124748077185     
1.44761902231907     0.002470541231646    33.3650501048476     0.997937569714588    -0.078010236814175   0.997937569714588    -0.078010236814175   0.002470541231646    33.3650501048476     
1.46300026101156     0.002480147272019    33.6184693404776     0.99793561992113     -0.078838957699833   0.99793561992113     -0.078838957699833   0.002480147272019    33.6184693404776     
1.47854492841012     0.002489896052325    33.8727143815874     0.997933659486824    -0.079676481445765   0.997933659486824    -0.079676481445765   0.002489896052325    33.8727143815874     
1.49425476097713     0.002499789583635    34.1277667717006     0.997931688348609    -0.080522901544316   0.997931688348609    -0.080522901544316   0.002499789583635    34.1277667717006     
1.51013151362518     0.002509829897861    34.3836077357854     0.997929706442917    -0.081378312480555   0.997929706442917    -0.081378312480555   0.002509829897861    34.3836077357854     
1.52617695991318     0.002520019047816    34.6402181854362     0.99792771370573     -0.082242809742814   0.99792771370573     -0.082242809742814   0.002520019047816    34.6402181854362     
1.54239289224446     0.002530359107258    34.8975787243432     0.997925710072504    -0.083116489833332   0.997925710072504    -0.083116489833332   0.002530359107258    34.8975787243432     
1.55878112206697     0.002540852170952    35.1556696540491     0.997923695478228    -0.083999450279027   0.997923695478228    -0.083999450279027   0.002540852170952    35.1556696540491     
1.57534348007567     0.002551500354711    35.4144709799786     0.997921669857368    -0.084891789642359   0.997921669857368    -0.084891789642359   0.002551500354711    35.4144709799786     
1.59208181641701     0.002562305795456    35.6739624177584     0.997919633143899    -0.085793607532334   0.997919633143899    -0.085793607532334   0.002562305795456    35.6739624177584     
1.60899800089561     0.002573270651255    35.9341233998032     0.997917585271277    -0.0867050046156     0.997917585271277    -0.0867050046156     0.002573270651255    35.9341233998032     
1.62609392318314     0.002584397101383    36.194933082178      0.997915526172453    -0.087626082627685   0.997915526172453    -0.087626082627685   0.002584397101383    36.194933082178      
1.64337149302939     0.002595687346361    36.4563703517281     0.997913455779808    -0.088556944384327   0.997913455779808    -0.088556944384327   0.002595687346361    36.4563703517281     
1.66083264047564     0.00260714360801     36.7184138334721     0.997911374025247    -0.089497693792956   0.997911374025247    -0.089497693792956   0.00260714360801     36.7184138334721     
1.67847931607023     0.002618768129496    36.9810418982516     0.997909280840098    -0.090448435864266   0.997909280840098    -0.090448435864266   0.002618768129496    36.9810418982516     
1.69631349108648     0.002630563175383    37.2442326706351     0.997907176155172    -0.091409276723934   0.997907176155172    -0.091409276723934   0.002630563175383    37.2442326706351     
1.71433715774284     0.002642531031674    37.5079640370693     0.997905059900692    -0.092380323624447   0.997905059900692    -0.092380323624447   0.002642531031674    37.5079640370693     
1.73255232942551     0.002654674005869    37.7722136542679     0.997902932006352    -0.093361684957069   0.997902932006352    -0.093361684957069   0.002654674005869    37.7722136542679     
1.7509610409133      0.002666994427005    38.0369589578353     0.997900792401272    -0.094353470263919   0.997900792401272    -0.094353470263919   0.002666994427005    38.0369589578353     
1.76956534860497     0.002679494645713    38.3021771711183     0.997898641013987    -0.095355790250192   0.997898641013987    -0.095355790250192   0.002679494645713    38.3021771711183     
1.78836733074889     0.002692177034267    38.5678453142711     0.997896477772471    -0.096368756796498   0.997896477772471    -0.096368756796498   0.002692177034267    38.5678453142711     
1.80736908767526     0.002705043986635    38.8339402135357     0.997894302604101    -0.09739248297134    0.997894302604101    -0.09739248297134    0.002705043986635    38.8339402135357     
1.82657274203069     0.002718097918533    39.1004385107204     0.997892115435659    -0.098427083043719   0.997892115435659    -0.098427083043719   0.002718097918533    39.1004385107204     
1.84598043901532     0.002731341267481    39.3673166728729     0.997889916193319    -0.099472672495877   0.997889916193319    -0.099472672495877   0.002731341267481    39.3673166728729     
1.8655943466225      0.002744776492855    39.6345510021351     0.997887704802648    -0.100529368036168   0.997887704802648    -0.100529368036168   0.002744776492855    39.6345510021351     
1.8854166558809      0.002758406075953    39.9021176457735     0.997885481188597    -0.101597287612078   0.997885481188597    -0.101597287612078   0.002758406075953    39.9021176457735     
1.90544958109933     0.002772232520046    40.1699926063709     0.997883245275491    -0.102676550423367   0.997883245275491    -0.102676550423367   0.002772232520046    40.1699926063709     
1.92569536011406     0.002786258350447    40.4381517521739     0.997880996987007    -0.103767276935365   0.997880996987007    -0.103767276935365   0.002786258350447    40.4381517521739     
1.9461562545388      0.002800486114574    40.7065708275813     0.997878736246206    -0.104869588892403   0.997878736246206    -0.104869588892403   0.002800486114574    40.7065708275813     
1.96683455001739     0.002814918382014    40.9752254637645     0.997876462975467    -0.105983609331379   0.997876462975467    -0.105983609331379   0.002814918382014    40.9752254637645     
1.98773255647905     0.002829557744598    41.2440911894091     0.997874177096519    -0.107109462595482   0.997874177096519    -0.107109462595482   0.002829557744598    41.2440911894091     
2.00885260839648     0.002844406816471    41.5131434415659     0.997871878530431    -0.108247274348055   0.997871878530431    -0.108247274348055   0.002844406816471    41.5131434415659     
2.03019706504659     0.002859468234167    41.7823575765972     0.997869567197583    -0.109397171586597   0.997869567197583    -0.109397171586597   0.002859468234167    41.7823575765972     
2.0517683107741      0.002874744656691    42.0517088812108     0.997867243017672    -0.110559282656929   0.997867243017672    -0.110559282656929   0.002874744656691    42.0517088812108     
2.07356875525786     0.002890238765599    42.3211725835685     0.997864905909692    -0.111733737267501   0.997864905909692    -0.111733737267501   0.002890238765599    42.3211725835685     
2.09560083378002     0.00290595326509     42.5907238644508     0.997862555791934    -0.112920666503844   0.997862555791934    -0.112920666503844   0.00290595326509     42.5907238644508     
2.11786700749809     0.002921890882087    42.8603378684784     0.997860192581995    -0.114120202843198   0.997860192581995    -0.114120202843198   0.002921890882087    42.8603378684784     
2.14036976371988     0.002938054366343    43.1299897153632     0.997857816196698    -0.115332480169263   0.997857816196698    -0.115332480169263   0.002938054366343    43.1299897153632     
2.16311161618132     0.002954446490529    43.3996545111879     0.997855426552164    -0.116557633787137   0.997855426552164    -0.116557633787137   0.002954446490529    43.3996545111879     
2.18609510532729     0.002971070050345    43.6693073596952     0.997853023563777    -0.117795800438391   0.997853023563777    -0.117795800438391   0.002971070050345    43.6693073596952     
2.20932279859541     0.002987927864626    43.9389233735766     0.997850607146123    -0.119047118316317   0.997850607146123    -0.119047118316317   0.002987927864626    43.9389233735766     
2.23279729070281     0.003005022775449    44.208477685749      0.997848177213068    -0.12031172708133    0.997848177213068    -0.12031172708133    0.003005022775449    44.208477685749      
2.25652120393601     0.003022357648261    44.4779454606017     0.997845733677667    -0.121589767876535   0.997845733677667    -0.121589767876535   0.003022357648261    44.4779454606017     
2.28049718844387     0.003039935371994    44.7473019052098     0.997843276452199    -0.122881383343461   0.997843276452199    -0.122881383343461   0.003039935371994    44.7473019052098     
2.30472792253356     0.003057758859193    45.0165222804924     0.997840805448147    -0.12418671763796    0.997840805448147    -0.12418671763796    0.003057758859193    45.0165222804924     
2.32921611296984     0.003075831046157    45.28558191231       0.997838320576164    -0.125505916446274   0.997838320576164    -0.125505916446274   0.003075831046157    45.28558191231       
2.35396449527735     0.003094154893068    45.5544562024861     0.997835821746095    -0.126839127001278   0.997835821746095    -0.126839127001278   0.003094154893068    45.5544562024861     
2.37897583404623     0.003112733384147    45.823120639741      0.997833308866957    -0.128186498098885   0.997833308866957    -0.128186498098885   0.003112733384147    45.823120639741      
2.40425292324095     0.003131569527795    46.0915508105269     0.997830781846902    -0.129548180114631   0.997830781846902    -0.129548180114631   0.003131569527795    46.0915508105269     
2.42979858651237     0.003150666356757    46.3597224097519     0.997828240593226    -0.13092432502044    0.997828240593226    -0.13092432502044    0.003150666356757    46.3597224097519     
2.45561567751325     0.003170026928282    46.6276112513819     0.997825685012364    -0.132315086401557   0.997825685012364    -0.132315086401557   0.003170026928282    46.6276112513819     
2.48170708021694     0.003189654324297    46.8951932789087     0.997823115009855    -0.133720619473666   0.997823115009855    -0.133720619473666   0.003189654324297    46.8951932789087     
2.50807570923958     0.003209551651577    47.1624445756756     0.99782053049035     -0.135141081100193   0.99782053049035     -0.135141081100193   0.003209551651577    47.1624445756756     
2.5347245101657      0.003229722041934    47.4293413750448     0.997817931357575    -0.136576629809781   0.997817931357575    -0.136576629809781   0.003229722041934    47.4293413750448     
2.56165645987723     0.003250168652402    47.6958600704041     0.997815317514357    -0.13802742581397    0.997815317514357    -0.13802742581397    0.003250168652402    47.6958600704041     
2.58887456688608     0.003270894665438    47.9619772249944     0.99781268886255     -0.139493631025032   0.99781268886255     -0.139493631025032   0.003270894665438    47.9619772249944     
2.61638187167017     0.003291903289125    48.2276695815541     0.997810045303079    -0.140975409074032   0.997810045303079    -0.140975409074032   0.003291903289125    48.2276695815541     
2.64418144701312     0.003313197757379    48.4929140717715     0.997807386735891    -0.142472925329058   0.997807386735891    -0.142472925329058   0.003313197757379    48.4929140717715     
2.67227639834749     0.003334781330171    48.7576878255305     0.997804713059976    -0.14398634691365    0.997804713059976    -0.14398634691365    0.003334781330171    48.7576878255305     
2.70066986410164     0.003356657293753    49.0219681799475     0.997802024173286    -0.145515842725416   0.997802024173286    -0.145515842725416   0.003356657293753    49.0219681799475     
2.7293650160504      0.003378828960886    49.2857326881897     0.997799319972805    -0.147061583454867   0.997799319972805    -0.147061583454867   0.003378828960886    49.2857326881897     
2.75836505966929     0.003401299671088    49.5489591280629     0.997796600354457    -0.148623741604423   0.997796600354457    -0.148623741604423   0.003401299671088    49.5489591280629     
2.78767323449268     0.003424072790873    49.8116255103693     0.997793865213151    -0.150202491507649   0.997793865213151    -0.150202491507649   0.003424072790873    49.8116255103693     
2.8172928144756      0.003447151714013    50.0737100870192     0.997791114442721    -0.151798009348668   0.997791114442721    -0.151798009348668   0.003447151714013    50.0737100870192     
2.84722710835954     0.003470539861802    50.3351913589009     0.997788347935925    -0.153410473181798   0.997788347935925    -0.153410473181798   0.003470539861802    50.3351913589009     
2.87747946004199     0.00349424068332     50.5960480834924     0.997785565584428    -0.155040062951393   0.997785565584428    -0.155040062951393   0.00349424068332     50.5960480834924     
2.90805324895002     0.00351825765572     50.8562592822165     0.997782767278815    -0.156686960511894   0.997782767278815    -0.156686960511894   0.00351825765572     50.8562592822165     
2.93895189041779     0.00354259428451     51.1158042475313     0.997779952908499    -0.158351349648081   0.997779952908499    -0.158351349648081   0.00354259428451     51.1158042475313     
2.97017883606806     0.003567254103848    51.3746625497536     0.997777122361796    -0.160033416095563   0.997777122361796    -0.160033416095563   0.003567254103848    51.3746625497536     
3.00173757419775     0.003592240676849    51.6328140436078     0.997774275525834    -0.161733347561462   0.997774275525834    -0.161733347561462   0.003592240676849    51.6328140436078     
3.03363163016766     0.003617557595891    51.8902388745        0.997771412286554    -0.163451333745329   0.997771412286554    -0.163451333745329   0.003617557595891    51.8902388745        
3.0658645667962      0.003643208482934    52.1469174845133     0.997768532528729    -0.165187566360284   0.997768532528729    -0.165187566360284   0.003643208482934    52.1469174845133     
3.09843998475747     0.00366919698985     52.4028306181198     0.997765636135888    -0.16694223915436    0.997765636135888    -0.16694223915436    0.00366919698985     52.4028306181198     
3.13136152298343     0.003695526798758    52.6579593276092     0.997762722990347    -0.168715547932107   0.997762722990347    -0.168715547932107   0.003695526798758    52.6579593276092     
3.1646328590704      0.003722201622362    52.9122849782327     0.997759792973136    -0.170507690576385   0.997759792973136    -0.170507690576385   0.003722201622362    52.9122849782327     
3.19825770968992     0.003749225204308    53.1657892530567     0.997756845964038    -0.172318867070423   0.997756845964038    -0.172318867070423   0.003749225204308    53.1657892530567     
3.23223983100387     0.003776601319541    53.4184541575323     0.997753881841518    -0.17414927952009    0.997753881841518    -0.17414927952009    0.003776601319541    53.4184541575323     
3.2665830190841      0.003804333774673    53.670262023773      0.997750900482731    -0.175999132176411   0.997750900482731    -0.175999132176411   0.003804333774673    53.670262023773      
3.3012911103365      0.003832426408356    53.9211955145459     0.997747901763498    -0.177868631458316   0.997747901763498    -0.177868631458316   0.003832426408356    53.9211955145459     
3.3363679819295      0.00386088309167     54.1712376269741     0.997744885558268    -0.179757985975637   0.997744885558268    -0.179757985975637   0.00386088309167     54.1712376269741     
3.37181755222723     0.003889707728512    54.4203716959519     0.997741851740106    -0.181667406552338   0.997741851740106    -0.181667406552338   0.003889707728512    54.4203716959519     
3.4076437812272      0.003918904255997    54.6685813972742     0.997738800180694    -0.183597106250011   0.997738800180694    -0.183597106250011   0.003918904255997    54.6685813972742     
3.4438506710027      0.003948476644866    54.9158507504816     0.997735730750254    -0.185547300391587   0.997735730750254    -0.185547300391587   0.003948476644866    54.9158507504816     
3.48044226614982     0.0039784288999      55.1621641214222     0.99773264331758     -0.187518206585339   0.99773264331758     -0.187518206585339   0.0039784288999      55.1621641214222     
3.5174226542393      0.00400876506035     55.4075062245354     0.997729537749959    -0.189510044749102   0.997729537749959    -0.189510044749102   0.00400876506035     55.4075062245354     
3.55479596627311     0.004039489200361    55.6518621248557     0.997726413913213    -0.191523037134775   0.997726413913213    -0.191523037134775   0.004039489200361    55.6518621248557     
3.59256637714596     0.004070605429418    55.8952172397445     0.997723271671607    -0.193557408353073   0.997723271671607    -0.193557408353073   0.004070605429418    55.8952172397445     
3.63073810611161     0.004102117892794    56.1375573403503     0.997720110887877    -0.195613385398535   0.997720110887877    -0.195613385398535   0.004102117892794    56.1375573403503     
3.66931541725425     0.004134030772002    56.3788685528009     0.997716931423169    -0.197691197674815   0.997716931423169    -0.197691197674815   0.004134030772002    56.3788685528009     
3.7083026199648      0.004166348285263    56.6191373591335     0.997713733137014    -0.199791077020211   0.997713733137014    -0.199791077020211   0.004166348285263    56.6191373591335     
3.74770406942232     0.004199074687978    56.8583505979652     0.997710515887338    -0.201913257733502   0.997710515887338    -0.201913257733502   0.004199074687978    56.8583505979652     
3.78752416708051     0.004232214273202    57.0964954649094     0.997707279530386    -0.204057976600023   0.997707279530386    -0.204057976600023   0.004232214273202    57.0964954649094     
3.82776736115936     0.00426577137214     57.3335595127419     0.997704023920724    -0.20622547291804    0.997704023920724    -0.20622547291804    0.00426577137214     57.3335595127419     
3.86843814714211     0.004299750354634    57.569530651323      0.997700748911205    -0.208415988525391   0.997700748911205    -0.208415988525391   0.004299750354634    57.569530651323      
3.90954106827739     0.004334155629673    57.8043971472799     0.997697454352938    -0.210629767826422   0.997697454352938    -0.210629767826422   0.004334155629673    57.8043971472799     
3.95108071608675     0.004368991645899    58.0381476234543     0.997694140095237    -0.212867057819183   0.997694140095237    -0.212867057819183   0.004368991645899    58.0381476234543     
3.99306173087754     0.004404262892125    58.2707710581236     0.997690805985626    -0.215128108122946   0.997690805985626    -0.215128108122946   0.004404262892125    58.2707710581236     
4.03548880226133     0.004439973897865    58.5022567839962     0.997687451869799    -0.217413171005989   0.997687451869799    -0.217413171005989   0.004439973897865    58.5022567839962     
4.07836666967771     0.004476129233864    58.7325944869934     0.997684077591571    -0.219722501413682   0.997684077591571    -0.219722501413682   0.004476129233864    58.7325944869934     
4.12170012292379     0.00451273351264     58.9617742048182     0.997680682992866    -0.222056356996872   0.997680682992866    -0.222056356996872   0.00451273351264     58.9617742048182     
4.16549400268919     0.004549791389031    59.1897863253203     0.997677267913653    -0.224414998140558   0.997677267913653    -0.224414998140558   0.004549791389031    59.1897863253203     
4.20975320109682     0.004587307560753    59.4166215846633     0.997673832191964    -0.226798687992893   0.997673832191964    -0.226798687992893   0.004587307560753    59.4166215846633     
4.25448266224938     0.004625286768963    59.6422710652998     0.997670375663795    -0.229207692494456   0.997670375663795    -0.229207692494456   0.004625286768963    59.6422710652998     
4.29968738278163     0.004663733798827    59.8667261937615     0.997666898163133    -0.231642280407882   0.997666898163133    -0.231642280407882   0.004663733798827    59.8667261937615     
4.34537241241857     0.004702653480101    60.0899787382688     0.997663399521889    -0.234102723347756   0.997663399521889    -0.234102723347756   0.004702653480101    60.0899787382688     
4.39154285453951     0.004742050687714    60.3120208061701     0.997659879569841    -0.236589295810849   0.997659879569841    -0.236589295810849   0.004742050687714    60.3120208061701     
4.43820386674819     0.004781930342363    60.5328448412159     0.997656338134653    -0.239102275206686   0.997656338134653    -0.239102275206686   0.004781930342363    60.5328448412159     
4.48536066144892     0.004822297411107    60.7524436206709     0.997652775041774    -0.2416419418884     0.997652775041774    -0.2416419418884     0.004822297411107    60.7524436206709     
4.53301850642882     0.004863156907983    60.9708102522773     0.99764919011447     -0.244208579183953   0.99764919011447     -0.244208579183953   0.004863156907983    60.9708102522773     
4.5811827254463      0.00490451389461     61.1879381710701     0.997645583173695    -0.246802473427654   0.997645583173695    -0.246802473427654   0.00490451389461     61.1879381710701     
4.62985869882574     0.004946373480816    61.4038211360544     0.997641954038141    -0.249423913992031   0.997641954038141    -0.249423913992031   0.004946373480816    61.4038211360544     
4.67905186405857     0.004988740825267    61.6184532267509     0.997638302524138    -0.252073193320039   0.997638302524138    -0.252073193320039   0.004988740825267    61.6184532267509     
4.7287677164106      0.005031621136098    61.8318288396144     0.997634628445636    -0.254750606957591   0.997634628445636    -0.254750606957591   0.005031621136098    61.8318288396144     
4.77901180953596     0.005075019671556    62.0439426843337     0.99763093161415     -0.257456453586452   0.99763093161415     -0.257456453586452   0.005075019671556    62.0439426843337     
4.82978975609743     0.005118941740654    62.2547897800192     0.997627211838725    -0.260191035057471   0.997627211838725    -0.260191035057471   0.005118941740654    62.2547897800192     
4.88110722839345     0.00516339270382     62.4643654512836     0.997623468925893    -0.262954656424169   0.997623468925893    -0.262954656424169   0.00516339270382     62.4643654512836     
4.93296995899178     0.005208377973567    62.6726653242242     0.997619702679621    -0.265747625976685   0.997619702679621    -0.265747625976685   0.005208377973567    62.6726653242242     
4.9853837413698      0.005253903015159    62.8796853223094     0.997615912901268    -0.268570255276063   0.997615912901268    -0.268570255276063   0.005253903015159    62.8796853223094     
5.03835443056177     0.005299973347288    63.0854216621794     0.997612099389539    -0.271422859188923   0.997612099389539    -0.271422859188923   0.005299973347288    63.0854216621794     
5.09188794381284     0.005346594542762    63.2898708493665     0.997608261940429    -0.274305755922493   0.997608261940429    -0.274305755922493   0.005346594542762    63.2898708493665     
5.14599026124006     0.005393772229193    63.4930296739377     0.997604400347188    -0.277219267059993   0.997604400347188    -0.277219267059993   0.005393772229193    63.4930296739377     
5.20066742650039     0.005441512089692    63.694895206071      0.997600514400242    -0.280163717596423   0.997600514400242    -0.280163717596423   0.005441512089692    63.694895206071      
5.25592554746587     0.005489819863583    63.8954647915654     0.997596603887201    -0.283139435974713   0.997596603887201    -0.283139435974713   0.005489819863583    63.8954647915654     
5.31177079690588     0.005538701347103    64.0947360472957     0.997592668592715    -0.286146754122235   0.997592668592715    -0.286146754122235   0.005538701347103    64.0947360472957     
5.36820941317669     0.005588162394133    64.2927068566134     0.997588708298531    -0.289186007487755   0.997588708298531    -0.289186007487755   0.005588162394133    64.2927068566134     
5.42524770091834     0.005638208916912    64.4893753647019     0.997584722783327    -0.29225753507871    0.997584722783327    -0.29225753507871    0.005638208916912    64.4893753647019     
5.48289203175893     0.005688846886778    64.6847399738895     0.997580711822739    -0.295361679498928   0.997580711822739    -0.295361679498928   0.005688846886778    64.6847399738895     
5.54114884502636     0.005740082334904    64.8787993389265     0.99757667518927     -0.298498786986723   0.99757667518927     -0.298498786986723   0.005740082334904    64.8787993389265     
5.60002464846766     0.005791921353046    65.0715523622318     0.997572612652234    -0.301669207453399   0.997572612652234    -0.301669207453399   0.005791921353046    65.0715523622318     
5.65952601897597     0.005844370094294    65.2629981891116     0.997568523977714    -0.304873294522172   0.997568523977714    -0.304873294522172   0.005844370094294    65.2629981891116     
5.71965960332522     0.005897434773836    65.4531362029582     0.997564408928457    -0.308111405567453   0.997564408928457    -0.308111405567453   0.005897434773836    65.4531362029582     
5.78043211891263     0.005951121669721    65.641966020431      0.997560267263862    -0.311383901754625   0.997560267263862    -0.311383901754625   0.005951121669721    65.641966020431      
5.84185035450909     0.006005437123641    65.8294874866253     0.99755609873992     -0.314691148080187   0.99755609873992     -0.314691148080187   0.006005437123641    65.8294874866253     
5.90392117101753     0.006060387541702    66.0157006702336     0.997551903109076    -0.318033513412314   0.997551903109076    -0.318033513412314   0.006060387541702    66.0157006702336     
5.96665150223933     0.006115979395223    66.2006058587015     0.997547680120253    -0.321411370531879   0.997547680120253    -0.321411370531879   0.006115979395223    66.2006058587015     
6.03004835564887     0.006172219221527    66.3842035533854     0.997543429518744    -0.324825096173897   0.997543429518744    -0.324825096173897   0.006172219221527    66.3842035533854     
6.09411881317635     0.006229113624743    66.5664944647139     0.997539151046135    -0.328275071069394   0.997539151046135    -0.328275071069394   0.006229113624743    66.5664944647139     
6.15887003199888     0.00628666927662     66.7474795073556     0.997534844440254    -0.331761679987727   0.997534844440254    -0.331761679987727   0.00628666927662     66.7474795073556     
6.22430924533998     0.00634489291734     66.9271597954003     0.997530509435089    -0.335285311779348   0.997530509435089    -0.335285311779348   0.00634489291734     66.9271597954003     
6.29044376327762     0.006403791356347    67.1055366375538     0.997526145760732    -0.338846359419026   0.997526145760732    -0.338846359419026   0.006403791356347    67.1055366375538     
6.35728097356078     0.006463371473177    67.2826115323512     0.997521753143284    -0.342445220049517   0.997521753143284    -0.342445220049517   0.006463371473177    67.2826115323512     
6.42482834243473     0.0065236402183      67.4583861633916     0.997517331304793    -0.346082295025693   0.997517331304793    -0.346082295025693   0.0065236402183      67.4583861633916     
6.4930934154751      0.006584604613962    67.6328623945972     0.997512879963145    -0.349757989959139   0.997512879963145    -0.349757989959139   0.006584604613962    67.6328623945972     
6.56208381843074     0.006646271755044    67.8060422654995     0.997508398832066    -0.353472714763241   0.997508398832066    -0.353472714763241   0.006646271755044    67.8060422654995     
6.63180725807558     0.006708648809923    67.9779279865554     0.997503887620939    -0.357226883698698   0.997503887620939    -0.357226883698698   0.006708648809923    67.9779279865554     
6.70227152306956     0.006771743021341    68.1485219344967     0.997499346034794    -0.361020915419569   0.997499346034794    -0.361020915419569   0.006771743021341    68.1485219344967     
6.77348448482869     0.006835561707283    68.3178266477131     0.997494773774205    -0.364855233019777   0.997494773774205    -0.364855233019777   0.006835561707283    68.3178266477131     
6.84545409840429     0.006900112261862    68.4858448216752     0.997490170535183    -0.368730264080104   0.997490170535183    -0.368730264080104   0.006900112261862    68.4858448216752     
6.91818840337173     0.00696540215621     68.652579304394      0.997485536009119    -0.372646440715682   0.997485536009119    -0.372646440715682   0.00696540215621     68.652579304394      
6.99169552472841     0.007031438939384    68.8180330919249     0.997480869882685    -0.376604199624003   0.997480869882685    -0.376604199624003   0.007031438939384    68.8180330919249     
7.06598367380148     0.007098230239268    68.9822093239138     0.997476171837744    -0.380603982133407   0.997476171837744    -0.380603982133407   0.007098230239268    68.9822093239138     
7.14106114916502     0.007165783763496    69.14511127919       0.997471441551226    -0.384646234252091   0.997471441551226    -0.384646234252091   0.007165783763496    69.14511127919       
7.21693633756713     0.007234107300371    69.3067423714042     0.997466678695104    -0.388731406717642   0.997466678695104    -0.388731406717642   0.007234107300371    69.3067423714042     
7.29361771486678     0.007303208719802    69.4671061447185     0.997461882936218    -0.392859955047091   0.997461882936218    -0.392859955047091   0.007303208719802    69.4671061447185     
7.3711138469806      0.007373095974247    69.6262062695441     0.997457053936244    -0.397032339587478   0.997457053936244    -0.397032339587478   0.007373095974247    69.6262062695441     
7.44943339083978     0.007443777099657    69.7840465383322     0.997452191351528    -0.401249025566959   0.997452191351528    -0.401249025566959   0.007443777099657    69.7840465383322     
7.52858509535713     0.007515260216438    69.9406308614178     0.997447294833059    -0.405510483146481   0.997447294833059    -0.405510483146481   0.007515260216438    69.9406308614178     
7.60857780240437     0.007587553530415    70.0959632629166     0.997442364026276    -0.409817187471911   0.997442364026276    -0.409817187471911   0.007587553530415    70.0959632629166     
7.68942044779988     0.007660665333814    70.2500478766791     0.997437398571062    -0.414169618726858   0.997437398571062    -0.414169618726858   0.007660665333814    70.2500478766791     
7.77112206230687     0.007734604006234    70.4028889422998     0.997432398101522    -0.418568262185889   0.997432398101522    -0.418568262185889   0.007734604006234    70.4028889422998     
7.85369177264219     0.007809378015652    70.5544908011823     0.997427362245985    -0.423013608268434   0.997427362245985    -0.423013608268434   0.007809378015652    70.5544908011823     
7.93713880249588     0.007884995919415    70.704857892666      0.997422290626786    -0.427506152593175   0.997422290626786    -0.427506152593175   0.007884995919415    70.704857892666      
8.0214724735615      0.007961466365259    70.853994750207      0.997417182860238    -0.432046396033078   0.997417182860238    -0.432046396033078   0.007961466365259    70.853994750207      
8.10670220657744     0.00803879809232     71.0019059976217     0.997412038556452    -0.436634844770911   0.997412038556452    -0.436634844770911   0.00803879809232     71.0019059976217     
8.19283752237933     0.008116999932168    71.1485963453881     0.997406857319245    -0.441272010355455   0.997406857319245    -0.441272010355455   0.008116999932168    71.1485963453881     
8.27988804296353     0.008196080809847    71.2940705870081     0.997401638745996    -0.445958409758197   0.997401638745996    -0.445958409758197   0.008196080809847    71.2940705870081     
8.36786349256205     0.008276049744916    71.4383335954304     0.997396382427553    -0.450694565430729   0.997396382427553    -0.450694565430729   0.008276049744916    71.4383335954304     
8.45677369872876     0.008356915852512    71.5813903195342     0.997391087948085    -0.455481005362652   0.997391087948085    -0.455481005362652   0.008356915852512    71.5813903195342     
8.54662859343726     0.008438688344413    71.7232457806737     0.997385754884919    -0.460318263140117   0.997385754884919    -0.460318263140117   0.008438688344413    71.7232457806737     
8.6374382141903      0.008521376530115    71.8639050692841     0.997380382808468    -0.465206878005048   0.997380382808468    -0.465206878005048   0.008521376530115    71.8639050692841     
8.72921270514113     0.008604989817921    72.0033733415491     0.997374971282033    -0.47014739491488    0.997374971282033    -0.47014739491488    0.008604989817921    72.0033733415491     
8.8219623182266      0.008689537716032    72.1416558161298     0.997369519861733    -0.475140364603011   0.997369519861733    -0.475140364603011   0.008689537716032    72.1416558161298     
8.91569741431243     0.008775029833657    72.2787577709541     0.997364028096276    -0.480186343639826   0.997364028096276    -0.480186343639826   0.008775029833657    72.2787577709541     
9.01042846435061     0.008861475882128    72.414684540069      0.997358495526875    -0.485285894494396   0.997358495526875    -0.485285894494396   0.008861475882128    72.414684540069      
9.10616605054904     0.008948885676026    72.5494415105521     0.997352921687103    -0.490439585596849   0.997352921687103    -0.490439585596849   0.008948885676026    72.5494415105521     
9.20292086755367     0.009037269134321    72.6830341194859     0.997347306102676    -0.495647991401311   0.997347306102676    -0.495647991401311   0.009037269134321    72.6830341194859     
9.30070372364321     0.009126636281514    72.8154678509915     0.997341648291381    -0.500911692449597   0.997341648291381    -0.500911692449597   0.009126636281514    72.8154678509915     
9.39952554193645     0.009216997248799    72.9467482333233     0.997335947762861    -0.50623127543552    0.997335947762861    -0.50623127543552    0.009216997248799    72.9467482333233     
9.49939736161249     0.009308362275232    73.0768808360238     0.997330204018458    -0.511607333269884   0.997330204018458    -0.511607333269884   0.009308362275232    73.0768808360238     
9.60033033914387     0.00940074170891     73.205871267138      0.99732441655109     -0.51704046514618    0.99732441655109     -0.51704046514618    0.00940074170891     73.205871267138      
9.7023357495429      0.009494146008162    73.3337251704873     0.997318584845016    -0.52253127660691    0.997318584845016    -0.52253127660691    0.009494146008162    73.3337251704873     
9.80542498762109     0.009588585742749    73.4604482230018     0.997312708375725    -0.52808037961069    0.997312708375725    -0.52808037961069    0.009588585742749    73.4604482230018     
9.90960956926209     0.009684071595082    73.586046132112      0.997306786609731    -0.533688392600003   0.997306786609731    -0.533688392600003   0.009684071595082    73.586046132112      
10.0149011327081     0.009780614361441    73.7105246331973     0.997300819004397    -0.539355940569638   0.997300819004397    -0.539355940569638   0.009780614361441    73.7105246331973     
10.12131143986       0.009878224953215    73.8338894870929     0.997294805007737    -0.545083655135927   0.997294805007737    -0.545083655135927   0.009878224953215    73.8338894870929     
10.228852377591      0.009976914398151    73.9561464776528     0.997288744058267    -0.55087217460662    0.997288744058267    -0.55087217460662    0.009976914398151    73.9561464776528     
10.337535959075      0.010076693841609    74.0773014093688     0.99728263558477     -0.556722144051538   0.99728263558477     -0.556722144051538   0.010076693841609    74.0773014093688     
10.4473743251279     0.010177574547837    74.1973601050468     0.997276479006136    -0.562634215373986   0.997276479006136    -0.562634215373986   0.010177574547837    74.1973601050468     
10.5583797455645     0.010279567901255    74.3163284035351     0.997270273731148    -0.568609047382821   0.997270273731148    -0.568609047382821   0.010279567901255    74.3163284035351     
10.6705646205686     0.01038268540775     74.4342121575104     0.997264019158271    -0.5746473058654     0.997264019158271    -0.5746473058654     0.01038268540775     74.4342121575104     
10.7839414820785     0.010486938695984    74.5510172313145     0.997257714675449    -0.580749663661173   0.997257714675449    -0.580749663661173   0.010486938695984    74.5510172313145     
10.8985229951868     0.010592339518716    74.666749498846      0.997251359659928    -0.58691680073615    0.997251359659928    -0.58691680073615    0.010592339518716    74.666749498846      
11.0143219595552     0.010698899754133    74.7814148415027     0.997244953477964    -0.59314940425801    0.997244953477964    -0.59314940425801    0.010698899754133    74.7814148415027     
11.1313513108443     0.010806631407203    74.8950191461774     0.997238495484676    -0.599448168672186   0.997238495484676    -0.599448168672186   0.010806631407203    74.8950191461774     
11.2496241221588     0.010915546611023    75.0075683033017     0.997231985023792    -0.605813795778533   0.997231985023792    -0.605813795778533   0.010915546611023    75.0075683033017     
11.3691536055076     0.011025657628204    75.1190682049428     0.99722542142739     -0.612246994808962   0.99722542142739     -0.612246994808962   0.011025657628204    75.1190682049428     
11.4899531132798     0.011136976852245    75.229524742947      0.997218804015731    -0.618748482505787   0.997218804015731    -0.618748482505787   0.011136976852245    75.229524742947      
11.6120361397364     0.011249516808942    75.3389438071342     0.997212132096946    -0.625318983200947   0.997212132096946    -0.625318983200947   0.011249516808942    75.3389438071342     
11.7354163225175     0.011363290157793    75.4473312835373     0.997205404966832    -0.631959228895996   0.997205404966832    -0.631959228895996   0.011363290157793    75.4473312835373     
11.8601074441657     0.011478309693428    75.5546930526909     0.997198621908606    -0.638669959342984   0.997198621908606    -0.638669959342984   0.011478309693428    75.5546930526909     
11.9861234336662     0.011594588347048    75.6610349879647     0.997191782192629    -0.645451922126148   0.997191782192629    -0.645451922126148   0.011594588347048    75.6610349879647     
12.1134783680021     0.011712139187877    75.7663629539435     0.997184885076132    -0.652305872744437   0.997184885076132    -0.652305872744437   0.011712139187877    75.7663629539435     
12.2421864737274     0.011830975424635    75.8706828048501     0.99717792980302     -0.659232574694977   0.99717792980302     -0.659232574694977   0.011830975424635    75.8706828048501     
12.3722621285558     0.011951110407014    75.9740003830133     0.997170915603494    -0.666232799557267   0.997170915603494    -0.666232799557267   0.011951110407014    75.9740003830133     
12.5037198629675     0.012072557627183    76.0763215173788     0.997163841693877    -0.673307327078414   0.997163841693877    -0.673307327078414   0.012072557627183    76.0763215173788     
12.6365743618316     0.012195330721289    76.1776520220613     0.99715670727625     -0.68045694525909    0.99715670727625     -0.68045694525909    0.012195330721289    76.1776520220613     
12.7708404660469     0.012319443470992    76.2779976949388     0.997149511538222    -0.687682450440512   0.997149511538222    -0.687682450440512   0.012319443470992    76.2779976949388     
12.9065331741996     0.012444909805003    76.3773643162872     0.997142253652589    -0.694984647392274   0.997142253652589    -0.694984647392274   0.012444909805003    76.3773643162872     
13.0436676442391     0.012571743800638    76.475757647455      0.997134932777056    -0.702364349401083   0.997134932777056    -0.702364349401083   0.012571743800638    76.475757647455      
13.1822591951709     0.012699959685394    76.5731834295758     0.997127548053948    -0.709822378360402   0.997127548053948    -0.709822378360402   0.012699959685394    76.5731834295758     
13.3223233087678     0.012829571838532    76.6696473823209     0.997120098609826    -0.717359564861075   0.997120098609826    -0.717359564861075   0.012829571838532    76.6696473823209     
13.4638756312997     0.012960594792679    76.7651552026871     0.997112583555269    -0.724976748282873   0.997112583555269    -0.724976748282873   0.012960594792679    76.7651552026871     
13.6069319752812     0.01309304323545     76.8597125638238     0.99710500198444     -0.732674776886951   0.99710500198444     -0.732674776886951   0.01309304323545     76.8597125638238     
13.7515083212378     0.013226932011079    76.9533251138924     0.997097352974818    -0.740454507909285   0.997097352974818    -0.740454507909285   0.013226932011079    76.9533251138924     
13.8976208194916     0.013362276122069    77.0459984749644     0.99708963558686     -0.748316807655127   0.99708963558686     -0.748316807655127   0.013362276122069    77.0459984749644     
14.0452857919646     0.01349909073086     77.1377382419513     0.997081848863604    -0.756262551594335   0.997081848863604    -0.756262551594335   0.01349909073086     77.1377382419513     
14.194519734003      0.013637391161509    77.2285499815689     0.997073991830332    -0.764292624457778   0.997073991830332    -0.764292624457778   0.013637391161509    77.2285499815689     
14.3453393162189     0.013777192901393    77.3184392313351     0.99706606349425     -0.772407920334722   0.99706606349425     -0.772407920334722   0.013777192901393    77.3184392313351     
14.4977613863531     0.013918511602922    77.4074114985977     0.99705806284405     -0.780609342771164   0.99705806284405     -0.780609342771164   0.013918511602922    77.4074114985977     
14.6518029711569     0.01406136308527     77.4954722595956     0.99704998884957     -0.788897804869248   0.99704998884957     -0.788897804869248   0.01406136308527     77.4954722595956     
14.8074812782944     0.01420576333613     77.5826269585499     0.997041840461401    -0.797274229387689   0.997041840461401    -0.797274229387689   0.01420576333613     77.5826269585499     
14.9648136982643     0.014351728513477    77.6688810067843     0.997033616610474    -0.805739548843203   0.997033616610474    -0.805739548843203   0.014351728513477    77.6688810067843     
15.123817806343      0.014499274947356    77.7542397818748     0.997025316207683    -0.814294705613028   0.997025316207683    -0.814294705613028   0.014499274947356    77.7542397818748     
15.2845113645475     0.014648419141679    77.8387086268284     0.997016938143453    -0.82294065203846    0.997016938143453    -0.82294065203846    0.014648419141679    77.8387086268284     
15.44691232362       0.014799177776051    77.9222928492894     0.997008481287341    -0.831678350529516   0.997008481287341    -0.831678350529516   0.014799177776051    77.9222928492894     
15.6110388250325     0.014951567707602    78.0049977207713     0.996999944487567    -0.840508773670558   0.996999944487567    -0.840508773670558   0.014951567707602    78.0049977207713     
15.7769092030142     0.015105605972846    78.0868284759179     0.996991326570601    -0.849432904327154   0.996991326570601    -0.849432904327154   0.015105605972846    78.0868284759179     
15.9445419865987     0.015261309789557    78.1677903117867     0.996982626340752    -0.858451735753938   0.996982626340752    -0.858451735753938   0.015261309789557    78.1677903117867     
16.1139559016945     0.015418696558655    78.2478883871602     0.996973842579614    -0.86756627170355    0.996973842579614    -0.86756627170355    0.015418696558655    78.2478883871602     
16.2851698731766     0.015577783866127    78.3271278218799     0.996964974045695    -0.876777526536837   0.996964974045695    -0.876777526536837   0.015577783866127    78.3271278218799     
16.4582030270002     0.015738589484946    78.4055136962044     0.996956019473889    -0.886086525334026   0.996956019473889    -0.886086525334026   0.015738589484946    78.4055136962044     
16.6330746923381     0.015901131377028    78.4830510501911     0.996946977574994    -0.895494304007088   0.996946977574994    -0.895494304007088   0.015901131377028    78.4830510501911     
16.8098044037389     0.0160654276952      78.5597448830993     0.996937847035244    -0.90500190941337    0.996937847035244    -0.90500190941337    0.0160654276952      78.5597448830993     
16.98841190331       0.016231496785182    78.6356001528162     0.996928626515755    -0.914610399470156   0.996928626515755    -0.914610399470156   0.016231496785182    78.6356001528162     
17.1689171429223     0.016399357187598    78.710621775304      0.996919314652051    -0.924320843270641   0.996919314652051    -0.924320843270641   0.016399357187598    78.710621775304      
17.3513402864396     0.016569027640004    78.784814624067      0.996909910053485    -0.934134321200908   0.996909910053485    -0.934134321200908   0.016569027640004    78.784814624067      
17.5357017119704     0.016740527078932    78.8581835296389     0.996900411302765    -0.944051925058216   0.996900411302765    -0.944051925058216   0.016740527078932    78.8581835296389     
17.7220220141449     0.016913874641958    78.9307332790908     0.99689081695533     -0.954074758170426   0.99689081695533     -0.954074758170426   0.016913874641958    78.9307332790908     
17.9103220064153     0.017089089669787    79.0024686155562     0.996881125538853    -0.964203935516695   0.996881125538853    -0.964203935516695   0.017089089669787    79.0024686155562     
18.1006227233806     0.017266191708365    79.0733942377763     0.996871335552613    -0.974440583849372   0.996871335552613    -0.974440583849372   0.017266191708365    79.0733942377763     
18.2929454231369     0.017445200511003    79.1435147996614     0.996861445466926    -0.984785841817075   0.996861445466926    -0.984785841817075   0.017445200511003    79.1435147996614     
18.4873115896516     0.017626136040526    79.212834909871      0.996851453722563    -0.995240860089193   0.996851453722563    -0.995240860089193   0.017626136040526    79.212834909871      
18.6837429351635     0.017809018471447    79.28135913141       0.996841358730115    -1.00580680148146    0.996841358730115    -1.00580680148146    0.017809018471447    79.28135913141       
18.8822614026084     0.017993868192152    79.3490919812412     0.996831158869375    -1.01648484108292    0.996831158869375    -1.01648484108292    0.017993868192152    79.3490919812412     
19.0828891680699     0.018180705807119    79.4160379299137     0.996820852488704    -1.02727616638412    0.996820852488704    -1.02727616638412    0.018180705807119    79.4160379299137     
19.285648643257      0.018369552139145    79.4822014012066     0.996810437904356    -1.03818197740665    0.996810437904356    -1.03818197740665    0.018369552139145    79.4822014012066     
19.4905624780076     0.018560428231608    79.5475867717873     0.996799913399851    -1.04920348683398    0.996799913399851    -1.04920348683398    0.018560428231608    79.5475867717873     
19.6976535628186     0.018753355350741    79.6121983708842     0.996789277225276    -1.06034192014358    0.996789277225276    -1.06034192014358    0.018753355350741    79.6121983708842     
19.9069450314028     0.018948354987933    79.6760404799738     0.99677852759658     -1.07159851574046    0.99677852759658     -1.07159851574046    0.018948354987933    79.6760404799738     
20.1184602632735     0.01914544886205     79.7391173324796     0.996767662694866    -1.08297452509191    0.996767662694866    -1.08297452509191    0.01914544886205     79.7391173324796     
20.3322228863558     0.019344658921781    79.8014331134859     0.996756680665707    -1.09447121286381    0.996756680665707    -1.09447121286381    0.019344658921781    79.8014331134859     
20.5482567796262     0.019546007348002    79.862991959463      0.996745579618355    -1.10608985705811    0.996745579618355    -1.10608985705811    0.019546007348002    79.862991959463      
20.7665860757801     0.019749516556172    79.9237979580043     0.996734357625021    -1.11783174915183    0.996734357625021    -1.11783174915183    0.019749516556172    79.9237979580043     
20.9872351639276     0.019955209198739    79.9838551475762     0.996723012720068    -1.12969819423734    0.996723012720068    -1.12969819423734    0.019955209198739    79.9838551475762     
21.2102286923178     0.020163108167581    80.0431675172775     0.996711542899288    -1.14169051116419    0.996711542899288    -1.14169051116419    0.020163108167581    80.0431675172775     
21.4355915710924     0.020373236596463    80.1017390066113     0.996699946119036    -1.15381003268225    0.996699946119036    -1.15381003268225    0.020373236596463    80.1017390066113     
21.6633489750684     0.020585617863522    80.1595735052665     0.996688220295438    -1.16605810558628    0.996688220295438    -1.16605810558628    0.020585617863522    80.1595735052665     
21.89352634655       0.020800275593775    80.2166748529097     0.996676363303572    -1.17843609086211    0.996676363303572    -1.17843609086211    0.020800275593775    80.2166748529097     
22.126149398171      0.021017233661644    80.273046838986      0.996664372976563    -1.19094536383394    0.996664372976563    -1.19094536383394    0.021017233661644    80.273046838986      
22.3612441157672     0.021236516193516    80.3286932025304     0.996652247104754    -1.20358731431352    0.996652247104754    -1.20358731431352    0.021236516193516    80.3286932025304     
22.5988367612787     0.021458147570325    80.3836176319871     0.996639983434809    -1.21636334675055    0.996639983434809    -1.21636334675055    0.021458147570325    80.3836176319871     
22.8389538756842     0.021682152430148    80.4378237650381     0.996627579668783    -1.2292748803846     0.996627579668783    -1.2292748803846     0.021682152430148    80.4378237650381     
23.0816222819654     0.021908555670839    80.4913151884395     0.996615033463234    -1.24232334939867    0.996615033463234    -1.24232334939867    0.021908555670839    80.4913151884395     
23.3268690881037     0.02213738245268     80.544095437866      0.9966023424282      -1.25551020307407    0.9966023424282      -1.25551020307407    0.02213738245268     80.544095437866      
23.5747216901078     0.022368658201063    80.5961679977629     0.996589504126326    -1.26883690594707    0.996589504126326    -1.26883690594707    0.022368658201063    80.5961679977629     
23.8252077750748     0.022602408609187    80.6475363012061     0.996576516071814    -1.28230493796694    0.996576516071814    -1.28230493796694    0.022602408609187    80.6475363012061     
24.0783553242825     0.022838659640793    80.6982037297672     0.996563375729409    -1.2959157946555     0.996563375729409    -1.2959157946555     0.022838659640793    80.6982037297672     
24.3341926163153     0.023077437532915    80.7481736133877     0.996550080513412    -1.3096709872685     0.996550080513412    -1.3096709872685     0.023077437532915    80.7481736133877     
24.5927482302233     0.023318768798662    80.7974492302577     0.99653662778658     -1.32357204295824    0.99653662778658     -1.32357204295824    0.023318768798662    80.7974492302577     
24.8540510487143     0.023562680230021    80.8460338067012     0.996523014859115    -1.33762050493815    0.996523014859115    -1.33762050493815    0.023562680230021    80.8460338067012     
25.1181302613812     0.023809198900695    80.8939305170676     0.996509238987486    -1.35181793264863    0.996509238987486    -1.35181793264863    0.023809198900695    80.8939305170676     
25.3850153679614     0.024058352168954    80.9411424836282     0.996495297373383    -1.36616590192484    0.996495297373383    -1.36616590192484    0.024058352168954    80.9411424836282     
25.6547361816335     0.024310167680525    80.9876727764781     0.996481187162532    -1.38066600516588    0.996481187162532    -1.38066600516588    0.024310167680525    80.9876727764781     
25.9273228323466     0.024564673371501    81.0335244134433     0.996466905443519    -1.39531985150572    0.996466905443519    -1.39531985150572    0.024564673371501    81.0335244134433     
26.2028057701865     0.024821897471281    81.0787003599918     0.996452449246657    -1.41012906698586    0.996452449246657    -1.41012906698586    0.024821897471281    81.0787003599918     
26.4812157687775     0.025081868505531    81.1232035291501     0.996437815542706    -1.42509529472954    0.996437815542706    -1.42509529472954    0.025081868505531    81.1232035291501     
26.7625839287194     0.02534461529918     81.1670367814232     0.99642300124166     -1.44022019511775    0.99642300124166     -1.44022019511775    0.02534461529918     81.1670367814232     
27.0469416810622     0.025610166979438    81.210202924719      0.996408003191477    -1.45550544596686    0.996408003191477    -1.45550544596686    0.025610166979438    81.210202924719      
27.334320790817      0.025878552978838    81.2527047142758     0.996392818176794    -1.47095274270802    0.996392818176794    -1.47095274270802    0.025878552978838    81.2527047142758     
27.6247533605044     0.026149803038319    81.2945448525943     0.996377442917577    -1.48656379856828    0.996377442917577    -1.48656379856828    0.026149803038319    81.2945448525943     
27.9182718337408     0.026423947210318    81.3357259893723     0.99636187406779     -1.5023403447534     0.99636187406779     -1.5023403447534     0.026423947210318    81.3357259893723     
28.2149089988621     0.026701015861905    81.3762507214417     0.996346108214031    -1.51828413063254    0.996346108214031    -1.51828413063254    0.026701015861905    81.3762507214417     
28.5146979925872     0.026981039677937    81.4161215927103     0.996330141874099    -1.5343969239246     0.996330141874099    -1.5343969239246     0.026981039677937    81.4161215927103     
28.8176723037188     0.027264049664246    81.4553410941044     0.996313971495566    -1.55068051088635    0.996313971495566    -1.55068051088635    0.027264049664246    81.4553410941044     
29.123865776885      0.027550077150852    81.4939116635148     0.996297593454345    -1.56713669650247    0.996297593454345    -1.56713669650247    0.027550077150852    81.4939116635148     
29.4333126163198     0.027839153795202    81.5318356857449     0.996281004053121    -1.58376730467721    0.996281004053121    -1.58376730467721    0.027839153795202    81.5318356857449     
29.7460473896836     0.028131311585442    81.5691154924603     0.996264199519896    -1.60057417842806    0.996264199519896    -1.60057417842806    0.028131311585442    81.5691154924603     
30.0621050319256     0.028426582843716    81.6057533621417     0.996247176006393    -1.61755918008115    0.996247176006393    -1.61755918008115    0.028426582843716    81.6057533621417     
30.3815208491852     0.028725000229493    81.6417515200376     0.996229929586469    -1.63472419146844    0.996229929586469    -1.63472419146844    0.028725000229493    81.6417515200376     
30.7043305227369     0.029026596742921    81.67711213812       0.996212456254492    -1.65207111412693    0.996212456254492    -1.65207111412693    0.029026596742921    81.67711213812       
31.0305701129757     0.029331405728216    81.7118373350412     0.996194751923676    -1.66960186949959    0.996194751923676    -1.66960186949959    0.029331405728216    81.7118373350412     
31.3602760634453     0.029639460877069    81.745929176091      0.996176812424386    -1.68731839913824    0.996176812424386    -1.68731839913824    0.029639460877069    81.745929176091      
31.6934852049095     0.0299507962321      81.7793896731557     0.99615863350244     -1.70522266490835    0.99615863350244     -1.70522266490835    0.0299507962321      81.7793896731557     
32.030234759466      0.030265446190317    81.8122207846779     0.996140210817295    -1.72331664919566    0.996140210817295    -1.72331664919566    0.030265446190317    81.8122207846779     
32.3705623447049     0.030583445506625    81.8444244156169     0.996121539940265    -1.74160235511475    0.996121539940265    -1.74160235511475    0.030583445506625    81.8444244156169     
32.7145059779104     0.030904829297356    81.8760024174092     0.996102616352686    -1.7600818067196     0.996102616352686    -1.7600818067196     0.030904829297356    81.8760024174092     
33.0621040803082     0.031229633043827    81.9069565879304     0.996083435444052    -1.77875704921609    0.996083435444052    -1.77875704921609    0.031229633043827    81.9069565879304     
33.4133954813568     0.031557892595931    81.9372886714565     0.996063992510067    -1.7976301491763     0.996063992510067    -1.7976301491763     0.031557892595931    81.9372886714565     
33.7684194230855     0.03188964417575     81.967000358626      0.996044282750685    -1.8167031947549     0.996044282750685    -1.8167031947549     0.03188964417575     81.967000358626      
34.127215564478      0.032224924381213    81.9960932864014     0.996024301268164    -1.83597829590764    0.996024301268164    -1.83597829590764    0.032224924381213    81.9960932864014     
34.4898239859025     0.032563770189767    82.0245690380312     0.996004043064969    -1.85545758461151    0.996004043064969    -1.85545758461151    0.032563770189767    82.0245690380312     
34.856285193589      0.032906218962083    82.0524291430112     0.995983503041703    -1.87514321508711    0.995983503041703    -1.87514321508711    0.032906218962083    82.0524291430112     
35.2266401241543     0.033252308445798    82.0796750770456     0.995962675995016    -1.89503736402307    0.995962675995016    -1.89503736402307    0.033252308445798    82.0796750770456     
35.6009301491748     0.033602076779278    82.1063082620077     0.995941556615385    -1.91514223080233    0.995941556615385    -1.91514223080233    0.033602076779278    82.1063082620077     
35.9791970798081     0.033955562495414    82.1323300659002     0.995920139484936    -1.93546003773052    0.995920139484936    -1.93546003773052    0.033955562495414    82.1323300659002     
36.3614831714636     0.03431280452545     82.1577418028141     0.99589841907518     -1.95599303026647    0.99589841907518     -1.95599303026647    0.03431280452545     82.1577418028141     
36.7478311285229     0.034673842202836    82.1825447328875     0.995876389744695    -1.97674347725454    0.995876389744695    -1.97674347725454    0.034673842202836    82.1825447328875     
37.1382841091099     0.035038715267113    82.2067400622635     0.995854045736749    -1.99771367115924    0.995854045736749    -1.99771367115924    0.035038715267113    82.2067400622635     
37.5328857299124     0.035407463867828    82.230328943046      0.99583138117695     -2.01890592830177    0.99583138117695     -2.01890592830177    0.035407463867828    82.230328943046      
37.9316800710539     0.035780128568476    82.2533124732563     0.995808390070769    -2.04032258909874    0.995808390070769    -2.04032258909874    0.035780128568476    82.2533124732563     
38.334711681018      0.036156750350473    82.2756916967866     0.995785066300981    -2.06196601830279    0.995785066300981    -2.06196601830279    0.036156750350473    82.2756916967866     
38.7420255816248     0.036537370617162    82.2974676033534     0.995761403625219    -2.08383860524561    0.995761403625219    -2.08383860524561    0.036537370617162    82.2974676033534     
39.1536672730601     0.036922031197839    82.3186411284491     0.995737395673265    -2.10594276408269    0.995737395673265    -2.10594276408269    0.036922031197839    82.3186411284491     
39.5696827389583     0.037310774351817    82.339213153292      0.995713035944432    -2.12828093404049    0.995713035944432    -2.12828093404049    0.037310774351817    82.339213153292      
39.9901184515388     0.037703642772514    82.3591845047752     0.995688317804834    -2.15085557966545    0.995688317804834    -2.15085557966545    0.037703642772514    82.3591845047752     
40.4150213767978     0.03810067959157     82.3785559554134     0.995663234484619    -2.17366919107542    0.995663234484619    -2.17366919107542    0.03810067959157     82.3785559554134     
40.8444389797544     0.038501928382997    82.3973282232884     0.995637779075154    -2.19672428421293    0.995637779075154    -2.19672428421293    0.038501928382997    82.3973282232884     
41.2784192297526     0.038907433167354    82.4155019719923     0.995611944526081    -2.22002340110074    0.995611944526081    -2.22002340110074    0.038907433167354    82.4155019719923     
41.7170106058208     0.039317238415948    82.4330778105695     0.995585723642421    -2.24356911009953    0.995585723642421    -2.24356911009953    0.039317238415948    82.4330778105695     
42.1602621020861     0.039731389055067    82.4500562934561     0.995559109081544    -2.26736400616766    0.995559109081544    -2.26736400616766    0.039731389055067    82.4500562934561     
42.6082232332483     0.040149930470242    82.466437920418      0.995532093350102    -2.29141071112311    0.995532093350102    -2.29141071112311    0.040149930470242    82.466437920418      
43.0609440401105     0.04057290851053     82.4822231364867     0.995504668800866    -2.31571187390759    0.995504668800866    -2.31571187390759    0.04057290851053     82.4822231364867     
43.5184750951693     0.041000369492835    82.4974123318923     0.995476827629581    -2.34027017085278    0.995476827629581    -2.34027017085278    0.041000369492835    82.4974123318923     
43.9808675082639     0.041432360206243    82.5120058419958     0.995448561871641    -2.36508830594868    0.995448561871641    -2.36508830594868    0.041432360206243    82.5120058419958     
44.448172932286      0.041868927916398    82.5260039472177     0.995419863398793    -2.3901690111142     0.995419863398793    -2.3901690111142     0.041868927916398    82.5260039472177     
44.9204435689492     0.04231012036989     82.5394068729651     0.99539072391573     -2.41551504646984    0.99539072391573     -2.41551504646984    0.04231012036989     82.5394068729651     
45.3977321746208     0.042755985798684    82.5522147895565     0.995361134956622    -2.44112920061259    0.995361134956622    -2.44112920061259    0.042755985798684    82.5522147895565     
45.8800920662149     0.04320657292456     82.5644278121443     0.995331087881555    -2.46701429089287    0.995331087881555    -2.46701429089287    0.04320657292456     82.5644278121443     
46.3675771271484     0.043661930963592    82.5760460006338     0.995300573872931    -2.49317316369375    0.995300573872931    -2.49317316369375    0.043661930963592    82.5760460006338     
46.8602418133601     0.044122109630642    82.5870693596016     0.995269583931796    -2.51960869471233    0.995269583931796    -2.51960869471233    0.044122109630642    82.5870693596016     
47.3581411593941     0.044587159143887    82.59749783821       0.995238108874054    -2.54632378924311    0.995238108874054    -2.54632378924311    0.044587159143887    82.59749783821       
47.8613307845471     0.045057130229356    82.6073313301195     0.99520613932662     -2.57332138246363    0.99520613932662     -2.57332138246363    0.045057130229356    82.6073313301195     
48.3698668990821     0.045532074125514    82.6165696733984     0.995173665723536    -2.60060443972238    0.995173665723536    -2.60060443972238    0.045532074125514    82.6165696733984     
48.8838063105073     0.046012042587842    82.6252126504303     0.995140678301927    -2.62817595682854    0.995140678301927    -2.62817595682854    0.046012042587842    82.6252126504303     
49.4032064299218     0.046497087893464    82.6332599878186     0.995107167097977    -2.65603896034415    0.995107167097977    -2.65603896034415    0.046497087893464    82.6332599878186     
49.928125278429      0.046987262845775    82.6407113562883     0.995073121942707    -2.68419650787817    0.995073121942707    -2.68419650787817    0.046987262845775    82.6407113562883     
50.458621493618      0.04748262077911     82.6475663705852     0.995038532457763    -2.7126516883829     0.995038532457763    -2.7126516883829     0.04748262077911     82.6475663705852     
50.994754336114      0.047983215563417    82.6538245893725     0.995003388051092    -2.74140762245231    0.995003388051092    -2.74140762245231    0.047983215563417    82.6538245893725     
51.5365836961979     0.048489101608959    82.6594855151249     0.994967677912478    -2.77046746262249    0.994967677912478    -2.77046746262249    0.048489101608959    82.6594855151249     
52.0841701004969     0.049000333871038    82.6645485940188     0.994931391009076    -2.79983439367443    0.994931391009076    -2.79983439367443    0.049000333871038    82.6645485940188     
52.6375747187454     0.049516967854725    82.6690132158213     0.994894516080789    -2.82951163293852    0.994894516080789    -2.82951163293852    0.049516967854725    82.6690132158213     
53.1968593706186     0.050039059619623    82.6728787137754     0.994857041635567    -2.85950243060132    0.994857041635567    -2.85950243060132    0.050039059619623    82.6728787137754     
53.7620865326376     0.05056666578464     82.6761443644826     0.994818955944642    -2.88981007001448    0.994818955944642    -2.88981007001448    0.05056666578464     82.6761443644826     
54.3333193451492     0.051099843532773    82.6788093877831     0.994780247037601    -2.92043786800535    0.994780247037601    -2.92043786800535    0.051099843532773    82.6788093877831     
54.9106216193788     0.051638650615916    82.6808729466325     0.99474090269743     -2.95138917518999    0.99474090269743     -2.95138917518999    0.051638650615916    82.6808729466325     
55.4940578445587     0.052183145359683    82.6823341469761     0.994700910455461    -2.98266737628805    0.994700910455461    -2.98266737628805    0.052183145359683    82.6823341469761     
56.0836931951321     0.052733386668231    82.6831920376205     0.994660257586088    -3.01427589043941    0.994660257586088    -3.01427589043941    0.052733386668231    82.6831920376205     
56.6795935380335     0.053289434029115    82.6834456101021     0.994618931101592    -3.04621817152316    0.994618931101592    -3.04621817152316    0.053289434029115    82.6834456101021     
57.2818254400466     0.053851347518134    82.6830937985532     0.994576917746639    -3.07849770847813    0.994576917746639    -3.07849770847813    0.053851347518134    82.6830937985532     
57.8904561752405     0.054419187804207    82.6821354795643     0.994534203992869    -3.11111802562572    0.994534203992869    -3.11111802562572    0.054419187804207    82.6821354795643     
58.5055537324844     0.054993016154241    82.6805694720452     0.994490776033188    -3.14408268299428    0.994490776033188    -3.14408268299428    0.054993016154241    82.6805694720452     
59.1271868230429     0.055572894438015    82.6783945370815     0.994446619776125    -3.17739527664553    0.994446619776125    -3.17739527664553    0.055572894438015    82.6783945370815     
59.7554248882511     0.056158885133073    82.6756093777899     0.99440172083994     -3.21105943900279    0.99440172083994     -3.21105943900279    0.056158885133073    82.6756093777899     
60.3903381072725     0.056751051329613    82.6722126391698     0.994356064546658    -3.24507883918092    0.994356064546658    -3.24507883918092    0.056751051329613    82.6722126391698     
61.0319974049376     0.057349456735391    82.6682029079524     0.994309635916055    -3.27945718331826    0.994309635916055    -3.27945718331826    0.057349456735391    82.6682029079524     
61.6804744596676     0.057954165680616    82.6635787124471     0.994262419659378    -3.31419821490977    0.994262419659378    -3.31419821490977    0.057954165680616    82.6635787124471     
62.335841711481      0.058565243122855    82.6583385223854     0.99421440017308     -3.34930571514268    0.99421440017308     -3.34930571514268    0.058565243122855    82.6583385223854     
62.9981723700857     0.059182754651934    82.6524807487615     0.994165561532388    -3.38478350323302    0.994165561532388    -3.38478350323302    0.059182754651934    82.6524807487615     
63.6675404230575     0.05980676649483     82.6460037436711     0.994115887484663    -3.42063543676415    0.994115887484663    -3.42063543676415    0.05980676649483     82.6460037436711     
64.3440206441048     0.060437345520575    82.6389058001472     0.994065361442766    -3.45686541202681    0.994065361442766    -3.45686541202681    0.060437345520575    82.6389058001472     
65.0276886014211     0.061074559245133    82.6311851519928     0.9940139664782      -3.4934773643607     0.9940139664782      -3.4934773643607     0.061074559245133    82.6311851519928     
65.7186206661275     0.061718475836292    82.622839973612      0.993961685314133    -3.53047526849748    0.993961685314133    -3.53047526849748    0.061718475836292    82.622839973612      
66.416894020803      0.062369164118526    82.6138683798382     0.993908500318307    -3.56786313890516    0.993908500318307    -3.56786313890516    0.062369164118526    82.6138683798382     
67.1225866681066     0.063026693577857    82.6042684257595     0.993854393495795    -3.60564503013408    0.993854393495795    -3.60564503013408    0.063026693577857    82.6042684257595     
67.8357774394916     0.063691134366702    82.5940381065424     0.993799346481595    -3.64382503716384    0.993799346481595    -3.64382503716384    0.063691134366702    82.5940381065424     
68.5565460040105     0.064362557308704    82.5831753572524     0.993743340533143    -3.68240729575188    0.993743340533143    -3.68240729575188    0.064362557308704    82.5831753572524     
69.2849728772157     0.065041033903538    82.5716780526727     0.99368635652259     -3.72139598278299    0.99368635652259     -3.72139598278299    0.065041033903538    82.5716780526727     
70.0211394301528     0.06572663633171     82.5595440071212     0.993628374929014    -3.76079531662002    0.993628374929014    -3.76079531662002    0.06572663633171     82.5595440071212     
70.7651278984514     0.066419437459321    82.5467709742638     0.993569375830424    -3.80060955745576    0.993569375830424    -3.80060955745576    0.066419437459321    82.5467709742638     
71.5170213915105     0.067119510842811    82.5333566469275     0.993509338895641    -3.84084300766558    0.993509338895641    -3.84084300766558    0.067119510842811    82.5333566469275     
72.2769039017834     0.067826930733681    82.5192986569096     0.993448243375999    -3.88150001216139    0.993448243375999    -3.88150001216139    0.067826930733681    82.5192986569096     
73.0448603141593     0.06854177208317     82.5045945747866     0.993386068096918    -3.9225849587459     0.993386068096918    -3.9225849587459     0.06854177208317     82.5045945747866     
73.8209764154464     0.06926411054691     82.48924190972       0.993322791449269    -3.96410227846808    0.993322791449269    -3.96410227846808    0.06926411054691     82.48924190972       
74.6053389039549     0.069994022489551    82.4732381092606     0.993258391380626    -4.00605644597933    0.993258391380626    -4.00605644597933    0.069994022489551    82.4732381092606     
75.3980353991815     0.070731584989325    82.4565805591515     0.993192845386304    -4.04845197988974    0.993192845386304    -4.04845197988974    0.070731584989325    82.4565805591515     
76.1991544515973     0.071476875842588    82.439266583129      0.993126130500248    -4.09129344312538    0.993126130500248    -4.09129344312538    0.071476875842588    82.439266583129      
77.0087855525399     0.072229973568315    82.4212934427219     0.993058223285777    -4.13458544328596    0.993058223285777    -4.13458544328596    0.072229973568315    82.4212934427219     
77.82701914421       0.072990957412532    82.4026583370498     0.992989099826077    -4.17833263300236    0.992989099826077    -4.17833263300236    0.072990957412532    82.4026583370498     
78.6539466297746     0.073759907352714    82.3833584026195     0.992918735714598    -4.22253971029488    0.992918735714598    -4.22253971029488    0.073759907352714    82.3833584026195     
79.4896603835774     0.074536904102112    82.3633907131207     0.992847106045206    -4.26721141893126    0.992847106045206    -4.26721141893126    0.074536904102112    82.3633907131207     
80.3342537614579     0.075322029114037    82.3427522792198     0.992774185402207    -4.31235254878499    0.992774185402207    -4.31235254878499    0.075322029114037    82.3427522792198     
81.1878211111797     0.076115364586062    82.3214400483536     0.9926999478501      -4.35796793619299    0.9926999478501      -4.35796793619299    0.076115364586062    82.3214400483536     
82.0504577829702     0.076916993464175    82.2994509045216     0.992624366923265    -4.40406246431375    0.992624366923265    -4.40406246431375    0.076916993464175    82.2994509045216     
82.9222601401718     0.077726999446849    82.2767816680771     0.992547415615288    -4.45064106348436    0.992547415615288    -4.45064106348436    0.077726999446849    82.2767816680771     
83.8033255700065     0.078545466989048    82.2534290955187     0.992469066368295    -4.49770871157781    0.992469066368295    -4.49770871157781    0.078545466989048    82.2534290955187     
84.6937524944548     0.079372481306137    82.2293898792803     0.992389291061885    -4.54527043435877    0.992389291061885    -4.54527043435877    0.079372481306137    82.2293898792803     
85.5936403812503     0.080208128377726    82.2046606475212     0.992308061001984    -4.59333130583948    0.992308061001984    -4.59333130583948    0.080208128377726    82.2046606475212     
86.5030897549907     0.081052494951419    82.1792379639158     0.992225346909503    -4.64189644863421    0.992225346909503    -4.64189644863421    0.081052494951419    82.1792379639158     
87.4222022083679     0.081905668546461    82.1531183274437     0.99214111890865     -4.69097103431251    0.99214111890865     -4.69097103431251    0.081905668546461    82.1531183274437     
88.3510804135157     0.082767737457302    82.1262981721789     0.99205534651523     -4.74056028375188    0.99205534651523     -4.74056028375188    0.082767737457302    82.1262981721789     
89.2898281334803     0.083638790757046    82.0987738670804     0.991967998624565    -4.79066946748838    0.991967998624565    -4.79066946748838    0.083638790757046    82.0987738670804     
90.2385502338103     0.084518918300798    82.0705417157821     0.991879043499246    -4.84130390606602    0.991879043499246    -4.84130390606602    0.084518918300798    82.0705417157821     
91.1973526942717     0.085408210728893    82.0415979563844     0.991788448756713    -4.89246897038426    0.991788448756713    -4.89246897038426    0.085408210728893    82.0415979563844     
92.1663426206863     0.086306759470012    82.0119387612454     0.99169618135658     -4.94417008204399    0.99169618135658     -4.94417008204399    0.086306759470012    82.0119387612454     
93.1456282568969     0.087214656744163    81.9815602367743     0.991602207587666    -4.99641271369075    0.991602207587666    -4.99641271369075    0.087214656744163    81.9815602367743     
94.1353189968582     0.088131995565535    81.9504584232249     0.991506493054899    -5.04920238935614    0.991506493054899    -5.04920238935614    0.088131995565535    81.9504584232249     
95.1355253968573     0.089058869745225    81.918629294491      0.991409002665959    -5.10254468479685    0.991409002665959    -5.10254468479685    0.089058869745225    81.918629294491      
96.146359187864      0.089995373893803    81.8860687579033     0.99130970061761     -5.15644522783043    0.99130970061761     -5.15644522783043    0.089995373893803    81.8860687579033     
97.1679332880115     0.090941603423736    81.8527726540284     0.991208550381906    -5.21090969866854    0.991208550381906    -5.21090969866854    0.090941603423736    81.8527726540284     
98.2003618152109     0.091897654551658    81.8187367564688     0.991105514692076    -5.26594383024702    0.991105514692076    -5.26594383024702    0.091897654551658    81.8187367564688     
99.243760099898      0.092863624300476    81.7839567716663     0.991000555528185    -5.32155340855271    0.991000555528185    -5.32155340855271    0.092863624300476    81.7839567716663     
100.298244697918     0.093839610501291    81.7484283387075     0.990893634102531    -5.37774427294615    0.990893634102531    -5.37774427294615    0.093839610501291    81.7484283387075     
101.363933403545     0.094825711795161    81.7121470291317     0.990784710844847    -5.43452231648108    0.990784710844847    -5.43452231648108    0.094825711795161    81.7121470291317     
102.44094526264      0.095822027634662    81.6751083467423     0.990673745387198    -5.49189348621941    0.990673745387198    -5.49189348621941    0.095822027634662    81.6751083467423     
103.529400585951     0.096828658285264    81.6373077274211     0.99056069654859     -5.54986378354192    0.99056069654859     -5.54986378354192    0.096828658285264    81.6373077274211     
104.629420962549     0.097845704826502    81.5987405389465     0.990445522319408    -5.60843926445433    0.990445522319408    -5.60843926445433    0.097845704826502    81.5987405389465     
105.741129273416     0.098873269152934    81.5594020808151     0.990328179845534    -5.66762603988851    0.990328179845534    -5.66762603988851    0.098873269152934    81.5594020808151     
106.864649705168     0.099911453974884    81.5192875840677     0.990208625412172    -5.72743027599826    0.990208625412172    -5.72743027599826    0.099911453974884    81.5192875840677     
108.000107763926     0.100960362818956    81.47839221112       0.990086814427489    -5.78785819444989    0.990086814427489    -5.78785819444989    0.100960362818956    81.47839221112       
109.147630289342     0.102020100028308    81.4367110555974     0.989962701405901    -5.84891607270643    0.989962701405901    -5.84891607270643    0.102020100028308    81.4367110555974     
110.307345468761     0.103090770762686    81.3942391421751     0.989836239951136    -5.91061024430663    0.989836239951136    -5.91061024430663    0.103090770762686    81.3942391421751     
111.479382851547     0.104172480998203    81.3509714264242     0.989707382738992    -5.97294709913644    0.989707382738992    -5.97294709913644    0.104172480998203    81.3509714264242     
112.663873363549     0.105265337526835    81.3069027946628     0.989576081499822    -6.03593308369416    0.989576081499822    -6.03593308369416    0.105265337526835    81.3069027946628     
113.860949321731     0.106369447955667    81.2620280638131     0.989442287000774    -6.09957470134866    0.989442287000774    -6.09957470134866    0.106369447955667    81.2620280638131     
115.070744448949     0.107484920705832    81.2163419812658     0.989305949027681    -6.1638785125894     0.989305949027681    -6.1638785125894     0.107484920705832    81.2163419812658     
116.293393888894     0.108611865011167    81.169839224751      0.989167016366706    -6.22885113526953    0.989167016366706    -6.22885113526953    0.108611865011167    81.169839224751      
117.529034221181     0.109750390916549    81.1225144022156     0.989025436785716    -6.29449924483952    0.989025436785716    -6.29449924483952    0.109750390916549    81.1225144022156     
118.777803476615     0.110900609275921    81.0743620517096     0.988881157015294    -6.36082957457286    0.988881157015294    -6.36082957457286    0.110900609275921    81.0743620517096     
120.039841152603     0.112062631749982    81.0253766412792     0.988734122729573    -6.4278489157828     0.988734122729573    -6.4278489157828     0.112062631749982    81.0253766412792     
121.315288228739     0.113236570803533    80.9755525688697     0.988584278526631    -6.49556411802884    0.988584278526631    -6.49556411802884    0.113236570803533    80.9755525688697     
122.604287182556     0.114422539702465    80.9248841622359     0.98843156790874     -6.56398208931375    0.98843156790874     -6.56398208931375    0.114422539702465    80.9248841622359     
123.906982005436     0.115620652510403    80.8733656788633     0.988275933262208    -6.6331097962705     0.988275933262208    -6.6331097962705     0.115620652510403    80.8733656788633     
125.223518218698     0.116831024084915    80.8209913058977     0.988117315836938    -6.70295426433724    0.988117315836938    -6.70295426433724    0.116831024084915    80.8209913058977     
126.554042889858     0.118053770073394    80.7677551600865     0.987955655725782    -6.7735225779224     0.987955655725782    -6.7735225779224     0.118053770073394    80.7677551600865     
127.898704649047     0.11928900690848     80.7136512877297     0.987790891843443    -6.84482188055677    0.987790891843443    -6.84482188055677    0.11928900690848     80.7136512877297     
129.257653705627     0.120536851803074    80.6586736646429     0.987622961905194    -6.91685937503349    0.987622961905194    -6.91685937503349    0.120536851803074    80.6586736646429     
130.631041864959     0.121797422744936    80.6028161961319     0.987451802405245    -6.9896423235359     0.987451802405245    -6.9896423235359     0.121797422744936    80.6028161961319     
132.019022545369     0.123070838490803    80.5460727169796     0.987277348594836    -7.06317804775121    0.987277348594836    -7.06317804775121    0.123070838490803    80.5460727169796     
133.421750795282     0.124357218560053    80.4884369914458     0.987099534459968    -7.13747392897042    0.987099534459968    -7.13747392897042    0.124357218560053    80.4884369914458     
134.839383310545     0.125656683227889    80.4299027132811     0.986918292698894    -7.21253740817395    0.986918292698894    -7.21253740817395    0.125656683227889    80.4299027132811     
136.272078451926     0.126969353518021    80.370463505754      0.986733554699268    -7.28837598610204    0.986733554699268    -7.28837598610204    0.126969353518021    80.370463505754      
137.71999626281      0.128295351194839    80.3101129216928     0.986545250515037    -7.36499722331001    0.986545250515037    -7.36499722331001    0.128295351194839    80.3101129216928     
139.183298487074     0.129634798755044    80.2488444435442     0.986353308842956    -7.44240874020575    0.986353308842956    -7.44240874020575    0.129634798755044    80.2488444435442     
140.662148587156     0.130987819418743    80.186651483445      0.986157656998856    -7.52061821707219    0.986157656998856    -7.52061821707219    0.130987819418743    80.186651483445      
142.156711762314     0.132354537119976    80.1235273833136     0.985958220893629    -7.59963339407124    0.985958220893629    -7.59963339407124    0.132354537119976    80.1235273833136     
143.667154967083     0.133735076496651    80.0594654149563     0.985754925008873    -7.67946207122952    0.985754925008873    -7.67946207122952    0.133735076496651    80.0594654149563     
145.193646929919     0.135129562879885    79.9944587801928     0.98554769237223     -7.76011210840494    0.98554769237223     -7.76011210840494    0.135129562879885    79.9944587801928     
146.736358172055     0.136538122282725    79.9285006109999     0.985336444532466    -7.84159142523477    0.985336444532466    -7.84159142523477    0.136538122282725    79.9285006109999     
148.295461026544     0.13796088138823     79.8615839696745     0.985121101534287    -7.9239080010622     0.985121101534287    -7.9239080010622     0.13796088138823     79.8615839696745     
149.871129657513     0.139397967536886    79.7937018490166     0.984901581892773    -8.00706987484274    0.984901581892773    -8.00706987484274    0.139397967536886    79.7937018490166     
151.463540079616     0.140849508713346    79.7248471725342     0.984677802567601    -8.09108514502786    0.984677802567601    -8.09108514502786    0.140849508713346    79.7248471725342     
153.072870177697     0.142315633532477    79.6550127946676     0.98444967893698     -8.17596196942747    0.98444967893698     -8.17596196942747    0.142315633532477    79.6550127946676     
154.699299726665     0.143796471224679    79.5841915010384     0.984217124771286    -8.26170856504769    0.984217124771286    -8.26170856504769    0.143796471224679    79.5841915010384     
156.343010411569     0.145292151620458    79.5123760087206     0.983980052206425    -8.34833320790495    0.983980052206425    -8.34833320790495    0.145292151620458    79.5123760087206     
158.0041858479       0.14680280513425     79.4395589665357     0.983738371716939    -8.43584423281546    0.983738371716939    -8.43584423281546    0.14680280513425     79.4395589665357     
159.6830116021       0.148328562747448    79.3657329553731     0.983491992088883    -8.52425003315863    0.983491992088883    -8.52425003315863    0.148328562747448    79.3657329553731     
161.379675212289     0.149869555990617    79.2908904885359     0.983240820392351    -8.61355906061305    0.983240820392351    -8.61355906061305    0.149869555990617    79.2908904885359     
163.09436620922      0.151425916924892    79.2150240121142     0.982984761953846    -8.70377982486599    0.982984761953846    -8.70377982486599    0.151425916924892    79.2150240121142     
164.827276137445     0.152997778122509    79.1381259053846     0.982723720328404    -8.79492089329381    0.982723720328404    -8.79492089329381    0.152997778122509    79.1381259053846     
166.578598576715     0.154585272646464    79.0601884812395     0.982457597271406    -8.88699089061282    0.982457597271406    -8.88699089061282    0.154585272646464    79.0601884812395     
168.348529163607     0.156188534029254    78.9812039866456     0.982186292710212    -8.9799984984997     0.982186292710212    -8.9799984984997     0.156188534029254    78.9812039866456     
170.137265613371     0.157807696250725    78.9011646031322     0.981909704715642    -9.07395245518132    0.981909704715642    -9.07395245518132    0.157807696250725    78.9011646031322     
171.945007742025     0.15944289371492     78.8200624473117     0.981627729473123    -9.16886155499082    0.981627729473123    -9.16886155499082    0.15944289371492     78.8200624473117     
173.771957488668     0.161094261225987    78.7378895714325     0.981340261253721    -9.26473464789155    0.981340261253721    -9.26473464789155    0.161094261225987    78.7378895714325     
175.618318938044     0.162761933963054    78.6546379639654     0.981047192384973    -9.3615806389656     0.981047192384973    -9.3615806389656     0.162761933963054    78.6546379639654     
177.484298343338     0.164446047454103    78.5702995502236     0.980748413221558    -9.45940848786778    0.980748413221558    -9.45940848786778    0.164446047454103    78.5702995502236     
179.370104149215     0.166146737548755    78.4848661930206     0.98044381211576     -9.55822720824213    0.98044381211576     -9.55822720824213    0.166146737548755    78.4848661930206     
181.275947015106     0.167864140389981    78.3983296933626     0.980133275387827    -9.65804586710096    0.980133275387827    -9.65804586710096    0.167864140389981    78.3983296933626     
183.202039838741     0.169598392384715    78.31068179118       0.979816687296178    -9.75887358416564    0.979816687296178    -9.75887358416564    0.169598392384715    78.31068179118       
185.148597779929     0.171349630173304    78.2219141660981     0.979493930007508    -9.8607195311666     0.979493930007508    -9.8607195311666     0.171349630173304    78.2219141660981     
187.115838284596     0.173117990597794    78.1320184382473     0.979164883566745    -9.96359293110257    0.979164883566745    -9.96359293110257    0.173117990597794    78.1320184382473     
189.103981109073     0.17490361066903     78.0409861691156     0.97882942586699     -10.0675030574575    0.97882942586699     -10.0675030574575    0.17490361066903     78.0409861691156     
191.113248344646     0.176706627532514    77.9488088624428     0.978487432619294    -10.172459233374     0.978487432619294    -10.172459233374     0.176706627532514    77.9488088624428     
193.143864442365     0.178527178433016    77.8554779651593     0.978138777322519    -10.2784708307815    0.978138777322519    -10.2784708307815    0.178527178433016    77.8554779651593     
195.196056238117     0.180365400677896    77.7609848683704     0.977783331233017    -10.3855472694791    0.977783331233017    -10.3855472694791    0.180365400677896    77.7609848683704     
197.270052977964     0.182221431599102    77.6653209083857     0.977420963334397    -10.4936980161703    0.977420963334397    -10.4936980161703    0.182221431599102    77.6653209083857     
199.366086343754     0.18409540851384     77.5684773677977     0.97705154030729     -10.6029325834496    0.97705154030729     -10.6029325834496    0.18409540851384     77.5684773677977     
201.484390479001     0.185987468683848    77.4704454766086     0.976674926499128    -10.7132605287389    0.976674926499128    -10.7132605287389    0.185987468683848    77.4704454766086     
203.625202015038     0.187897749273278    77.3712164134073     0.976290983894       -10.8246914531732    0.976290983894       -10.8246914531732    0.187897749273278    77.3712164134073     
205.788760097455     0.189826387305127    77.2707813065994     0.975899572082567    -10.9372350004323    0.975899572082567    -10.9372350004323    0.189826387305127    77.2707813065994     
207.97530641281      0.19177351961621     77.1691312356889     0.975500548232106    -11.0509008555198    0.975500548232106    -11.0509008555198    0.19177351961621     77.1691312356889     
210.18508521563      0.193739282810628    77.0662572326153     0.975093767056715    -11.1656987434863    0.975093767056715    -11.1656987434863    0.193739282810628    77.0662572326153     
212.418343355691     0.1957238132117      76.9621502831467     0.974679080787621    -11.2816384280948    0.974679080787621    -11.2816384280948    0.1957238132117      76.9621502831467     
214.675330305602     0.197727246812352    76.8568013283289     0.974256339143788    -11.3987297104298    0.974256339143788    -11.3987297104298    0.197727246812352    76.8568013283289     
216.956298188663     0.199749719223885    76.7502012659957     0.973825389302625    -11.5169824274445    0.973825389302625    -11.5169824274445    0.199749719223885    76.7502012659957     
219.261501807038     0.201791365623133    76.6423409523382     0.97338607587104     -11.6364064504476    0.97338607587104     -11.6364064504476    0.201791365623133    76.6423409523382     
221.591198670212     0.203852320697976    76.5332112035347     0.972938240856812    -11.7570116835283    0.972938240856812    -11.7570116835283    0.203852320697976    76.5332112035347     
223.945649023759     0.205932718591143    76.4228027974466     0.972481723640208    -11.8788080619158    0.972481723640208    -11.8788080619158    0.205932718591143    76.4228027974466     
226.325115878415     0.208032692842318    76.311106475376      0.972016360946066    -12.0018055502738    0.972016360946066    -12.0018055502738    0.208032692842318    76.311106475376      
228.729865039457     0.21015237632849     76.1981129438928     0.971541986816195    -12.1260141409279    0.971541986816195    -12.1260141409279    0.21015237632849     76.1981129438928     
231.160165136396     0.212291901202517    76.0838128767269     0.971058432582295    -12.2514438520231    0.971058432582295    -12.2514438520231    0.212291901202517    76.0838128767269     
233.616287652983     0.214451398829891    75.9681969167315     0.970565526839331    -12.3781047256124    0.970565526839331    -12.3781047256124    0.214451398829891    75.9681969167315     
236.098506957539     0.216630999723678    75.8512556779158     0.970063095419482    -12.5060068256737    0.970063095419482    -12.5060068256737    0.216630999723678    75.8512556779158     
238.607100333603     0.218830833477563    75.7329797475518     0.969550961366616    -12.6351602360511    0.969550961366616    -12.6351602360511    0.218830833477563    75.7329797475518     
241.142348010905     0.221051028697014    75.6133596883546     0.969028944911413    -12.7655750583239    0.969028944911413    -12.7655750583239    0.221051028697014    75.6133596883546     
243.704533196674     0.223291712928531    75.4923860407366     0.968496863447212    -12.8972614095978    0.968496863447212    -12.8972614095978    0.223291712928531    75.4923860407366     
246.293942107268     0.225553012586937    75.3700493251417     0.967954531506509    -13.0302294202179    0.967954531506509    -13.0302294202179    0.225553012586937    75.3700493251417     
248.910864000154     0.227835052880678    75.2463400444562     0.96740176073827     -13.1644892314018    0.96740176073827     -13.1644892314018    0.227835052880678    75.2463400444562     
251.555591206216     0.230137957735151    75.1212486864998     0.966838359886119    -13.3000509927934    0.966838359886119    -13.3000509927934    0.230137957735151    75.1212486864998     
254.22841916241      0.232461849713974    74.9947657266        0.966264134767331    -13.4369248599309    0.966264134767331    -13.4369248599309    0.232461849713974    74.9947657266        
256.929646444769     0.234806849938231    74.8668816302481     0.965678888252851    -13.5751209916333    0.965678888252851    -13.5751209916333    0.234806849938231    74.8668816302481     
259.659574801756     0.237173078003614    74.7375868558415     0.965082420248266    -13.7146495472991    0.965082420248266    -13.7146495472991    0.237173078003614    74.7375868558415     
262.418509187972     0.239560651895497    74.6068718575109     0.964474527675863    -13.8555206841188    0.964474527675863    -13.8555206841188    0.239560651895497    74.6068718575109     
265.206757798218     0.241969687901884    74.4747270880368     0.963855004457865    -13.9977445541977    0.963855004457865    -13.9977445541977    0.241969687901884    74.4747270880368     
268.024632101927     0.244400300524212    74.341143001854      0.963223641500785    -14.1413313015892    0.963223641500785    -14.1413313015892    0.244400300524212    74.341143001854      
270.87244687796      0.24685260238602     74.2061100581486     0.962580226681098    -14.2862910592348    0.962580226681098    -14.2862910592348    0.24685260238602     74.2061100581486     
273.75052024976      0.249326704139442    74.0696187240454     0.961924544832244    -14.4326339458128    0.961924544832244    -14.4326339458128    0.249326704139442    74.0696187240454     
276.659173720898     0.251822714369516    73.9316594778904     0.961256377733025    -14.5803700624902    0.961256377733025    -14.5803700624902    0.251822714369516    73.9316594778904     
279.598732210983     0.25434073949631     73.7922228126273     0.960575504097505    -14.7295094895802    0.960575504097505    -14.7295094895802    0.25434073949631     73.7922228126273     
282.569524091961     0.256880883674831    73.6512992392717     0.959881699566423    -14.8800622831007    0.959881699566423    -14.8800622831007    0.256880883674831    73.6512992392717     
285.571881224791     0.259443248692736    73.508879290481      0.959174736700272    -15.0320384712355    0.959174736700272    -15.0320384712355    0.259443248692736    73.508879290481      
288.606138996525     0.262027933865818    73.3649535242258     0.958454384974107    -15.1854480506943    0.958454384974107    -15.1854480506943    0.262027933865818    73.3649535242258     
291.672636357765     0.264635035931266    73.2195125275595     0.957720410774063    -15.3403009829711    0.957720410774063    -15.3403009829711    0.264635035931266    73.2195125275595     
294.771715860533     0.26726464893874     73.0725469204891     0.956972577395899    -15.4966071905024    0.956972577395899    -15.4966071905024    0.26726464893874     73.0725469204891     
297.903723696532     0.269916864139162    72.9240473599511     0.956210645045316    -15.6543765527185    0.956210645045316    -15.6543765527185    0.269916864139162    72.9240473599511     
301.069009735822     0.272591769871364    72.7740045438869     0.955434370840478    -15.8136189019927    0.955434370840478    -15.8136189019927    0.272591769871364    72.7740045438869     
304.2679275659       0.275289451446474    72.6224092154264     0.954643508816574    -15.9743440194835    0.954643508816574    -15.9743440194835    0.275289451446474    72.6224092154264     
307.500834531202     0.278009991030141    72.4692521671746     0.953837809932681    -16.136561630871     0.953837809932681    -16.136561630871     0.278009991030141    72.4692521671746     
310.768091773019     0.280753467522565    72.3145242456057     0.953017022080842    -16.3002814019844    0.953017022080842    -16.3002814019844    0.280753467522565    72.3145242456057     
314.070064269837     0.283519956436367    72.1582163555625     0.952180890097682    -16.4655129343242    0.952180890097682    -16.4655129343242    0.283519956436367    72.1582163555625     
317.407120878115     0.286309529772313    72.0003194648666     0.951329155778425    -16.6322657604711    0.951329155778425    -16.6322657604711    0.286309529772313    72.0003194648666     
320.779634373483     0.289122255892913    71.8408246090335     0.950461557893541    -16.8005493393892    0.950461557893541    -16.8005493393892    0.289122255892913    71.8408246090335     
324.187981492383     0.291958199393973    71.6797228960979     0.949577832208175    -16.9703730516181    0.949577832208175    -16.9703730516181    0.291958199393973    71.6797228960979     
327.632542974161     0.294817420974025    71.5170055115488     0.948677711504202    -17.1417461943526    0.948677711504202    -17.1417461943526    0.294817420974025    71.5170055115488     
331.113703603592     0.297699977301805    71.3526637233721     0.947760925605396    -17.3146779764147    0.947760925605396    -17.3146779764147    0.297699977301805    71.3526637233721     
334.631852253864     0.300605920881714    71.1866888872047     0.946827201405414    -17.4891775131127    0.946827201405414    -17.4891775131127    0.300605920881714    71.1866888872047     
338.187381930022     0.303535299917357    71.0190724515972     0.94587626289898     -17.6652538209888    0.94587626289898     -17.6652538209888    0.303535299917357    71.0190724515972     
341.780689812865     0.306488158173233    70.8498059633849     0.94490783121628     -17.8429158124589    0.94490783121628     -17.8429158124589    0.306488158173233    70.8498059633849     
345.412177303318     0.309464534834565    70.6788810731712     0.943921624660628    -18.0221722903373    0.943921624660628    -18.0221722903373    0.309464534834565    70.6788810731712     
349.082250067272     0.312464464365402    70.5062895409156     0.942917358749575    -18.2030319422553    0.942917358749575    -18.2030319422553    0.312464464365402    70.5062895409156     
352.791318080894     0.315487976365009    70.3320232416345     0.941894746259506    -18.3855033349659    0.941894746259506    -18.3855033349659    0.315487976365009    70.3320232416345     
356.539795676433     0.318535095422663    70.1560741712048     0.940853497273918    -18.5695949085437    0.940853497273918    -18.5695949085437    0.318535095422663    70.1560741712048     
360.328101588498     0.321605840970874    69.9784344522796     0.939793319235381    -18.7553149704716    0.939793319235381    -18.7553149704716    0.321605840970874    69.9784344522796     
364.156659000838     0.324700227137195    69.7990963403041     0.938713917001367    -18.9426716896248    0.938713917001367    -18.9426716896248    0.324700227137195    69.7990963403041     
368.02589559361      0.32781826259462     69.6180522296413     0.937614992903962    -19.1316730901441    0.937614992903962    -19.1316730901441    0.32781826259462     69.6180522296413     
371.936243591161     0.33095995041076     69.4352946597964     0.936496246813736    -19.3223270452082    0.936496246813736    -19.3223270452082    0.33095995041076     69.4352946597964     
375.888139810304     0.334125287895824    69.2508163217456     0.935357376207607    -19.5146412706998    0.935357376207607    -19.5146412706998    0.334125287895824    69.2508163217456     
379.882025709119     0.337314266449548    69.0646100643642     0.934198076241107    -19.7086233187715    0.934198076241107    -19.7086233187715    0.337314266449548    69.0646100643642     
383.918347436266     0.340526871407208    68.8766689009511     0.933018039824895    -19.9042805713118    0.933018039824895    -19.9042805713118    0.340526871407208    68.8766689009511     
387.99755588082      0.343763081884791    68.686986015851      0.93181695770575     -20.1016202333127    0.93181695770575     -20.1016202333127    0.343763081884791    68.686986015851      
392.120106722646     0.347022870623509    68.4955547711678     0.930594518552128    -20.300649326144     0.930594518552128    -20.300649326144     0.347022870623509    68.4955547711678     
396.286460483294     0.350306203833731    68.3023687135705     0.929350409044337    -20.5013746807325    0.929350409044337    -20.5013746807325    0.350306203833731    68.3023687135705     
400.497082577448     0.353613041038569    68.1074215811837     0.928084313969471    -20.7038029306541    0.928084313969471    -20.7038029306541    0.353613041038569    68.1074215811837     
404.752443364915     0.35694333491716     67.9107073105664     0.926795916321128    -20.9079405051379    0.926795916321128    -20.9079405051379    0.35694333491716     67.9107073105664     
409.053018203169     0.360297031147882    67.7122200437697     0.925484897404078    -21.1137936219861    0.925484897404078    -21.1137936219861    0.360297031147882    67.7122200437697     
413.39928750045      0.363674068251659    67.5119541354708     0.9241509369439      -21.3213682804167    0.9241509369439      -21.3213682804167    0.363674068251659    67.5119541354708     
417.791736769431     0.367074377435506    67.309904160183      0.922793713201706    -21.5306702538286    0.922793713201706    -21.5306702538286    0.367074377435506    67.309904160183      
422.230856681453     0.370497882436508    67.1060649195336     0.921412903093997    -21.7417050824946    0.921412903093997    -21.7417050824946    0.370497882436508    67.1060649195336     
426.717143121339     0.373944499366454    66.9004314496057     0.92000818231777     -21.9544780661903    0.92000818231777     -21.9544780661903    0.373944499366454    66.9004314496057     
431.251097242784     0.377414136557225    66.6929990283436     0.918579225480816    -22.1689942567545    0.918579225480816    -22.1689942567545    0.377414136557225    66.6929990283436     
435.83322552434      0.38090669440731     66.4837631830081     0.917125706237492    -22.3852584505992    0.917125706237492    -22.3852584505992    0.38090669440731     66.4837631830081     
440.464039825998     0.384422065229491    66.2727196976849     0.915647297429783    -22.6032751811615    0.915647297429783    -22.6032751811615    0.384422065229491    66.2727196976849     
445.144057446357     0.387960133100012    66.0598646208369     0.914143671233849    -22.8230487113114    0.914143671233849    -22.8230487113114    0.387960133100012    66.0598646208369     
449.87380118042      0.391520773709459    65.8451942728932     0.912614499312034    -23.0445830257181    0.912614499312034    -23.0445830257181    0.391520773709459    65.8451942728932     
454.653799377989     0.39510385421554     65.6287052538707     0.911059452970414    -23.2678818231817    0.911059452970414    -23.2678818231817    0.39510385421554     65.6287052538707     
459.484586002688     0.398709233098081    65.4103944510195     0.9094782033219      -23.4929485089373    0.9094782033219      -23.4929485089373    0.398709233098081    65.4103944510195     
464.366700691609     0.402336760016386    65.1902590464898     0.907870421454829    -23.7197861869357    0.907870421454829    -23.7197861869357    0.402336760016386    65.1902590464898     
469.300688815596     0.40598627566933     64.9682965250062     0.90623577860719     -23.9483976521116    0.90623577860719     -23.9483976521116    0.40598627566933     64.9682965250062     
474.287101540166     0.409657611658385    64.7445046815473     0.904573946346429    -24.1787853826453    0.904573946346429    -24.1787853826453    0.409657611658385    64.7445046815473     
479.326495887078     0.41335059035382     64.518881629023      0.902884596754716    -24.4109515322217    0.902884596754716    -24.4109515322217    0.41335059035382     64.518881629023      
484.419434796558     0.417065024764481    64.2914258059339     0.90116740261991     -24.644897922304     0.90116740261991     -24.644897922304     0.417065024764481    64.2914258059339     
489.566487190184     0.420800718411264    64.0621359840159     0.899422037631842    -24.8806260344184    0.899422037631842    -24.8806260344184    0.420800718411264    64.0621359840159     
494.768228034436     0.424557465204701    63.8310112758517     0.897648176584239    -25.1181370024696    0.897648176584239    -25.1181370024696    0.424557465204701    63.8310112758517     
500.025238404931     0.428335049326904    63.5980511424435     0.895845495581965    -25.3574316050882    0.895845495581965    -25.3574316050882    0.428335049326904    63.5980511424435     
505.338105551325     0.432133245118163    63.363255400738      0.894013672253642    -25.5985102580244    0.894013672253642    -25.5985102580244    0.432133245118163    63.363255400738      
510.70742296292      0.435951816968497    63.126624231095      0.892152385969558    -25.8413730065931    0.892152385969558    -25.8413730065931    0.435951816968497    63.126624231095      
516.133790434959     0.439790519214525    62.8881581846836     0.890261318064749    -26.0860195181857    0.890261318064749    -26.0860195181857    0.439790519214525    62.8881581846836     
521.617814135628     0.443649096041862    62.6478581908053     0.888340152067154    -26.332449074853     0.888340152067154    -26.332449074853     0.443649096041862    62.6478581908053     
527.160106673771     0.447527281393461    62.4057255641244     0.886388573930809    -26.5806605659742    0.886388573930809    -26.5806605659742    0.447527281393461    62.4057255641244     
532.761287167322     0.451424798884158    62.1617620117995     0.884406272273778    -26.8306524810203    0.884406272273778    -26.8306524810203    0.451424798884158    62.1617620117995     
538.421981312463     0.455341361721764    61.9159696405043     0.882392938620892    -27.0824229024242    0.882392938620892    -27.0824229024242    0.455341361721764    61.9159696405043     
544.142821453526     0.459276672634982    61.6683509633263     0.880348267650937    -27.3359694985664    0.880348267650937    -27.3359694985664    0.459276672634982    61.6683509633263     
549.924446653622     0.463230423808554    61.4189089065291     0.878271957448268    -27.5912895168925    0.878271957448268    -27.5912895168925    0.463230423808554    61.4189089065291     
555.76750276604      0.467202296825869    61.1676468161714     0.876163709758603    -27.8483797771686    0.876163709758603    -27.8483797771686    0.467202296825869    61.1676468161714     
561.672642506382     0.471191962619399    60.9145684645659     0.874023230248762    -28.1072366648901    0.874023230248762    -28.1072366648901    0.471191962619399    60.9145684645659     
567.640525525486     0.475199081429279    60.6596780565685     0.87185022877019     -28.3678561248556    0.87185022877019     -28.3678561248556    0.475199081429279    60.6596780565685     
573.67181848311      0.479223302770336    60.4029802356838     0.86964441962601     -28.6302336549175    0.86964441962601     -28.6302336549175    0.479223302770336    60.4029802356838     
579.767195122404     0.483264265407867    60.1444800899758     0.867405521841321    -28.8943642999201    0.867405521841321    -28.8943642999201    0.483264265407867    60.1444800899758     
585.927336345173     0.487321597342516    59.8841831577683     0.865133259436558    -29.1602426458436    0.865133259436558    -29.1602426458436    0.487321597342516    59.8841831577683     
592.152930287936     0.491394915804495    59.6220954331259     0.862827361703516    -29.4278628141587    0.862827361703516    -29.4278628141587    0.491394915804495    59.6220954331259     
598.444672398801     0.495483827257494    59.3582233710986     0.860487563483852    -29.6972184564109    0.860487563483852    -29.6972184564109    0.495483827257494    59.3582233710986     
604.803265515149     0.499587927412526    59.0925738927194     0.858113605449668    -29.9683027490445    0.858113605449668    -29.9683027490445    0.499587927412526    59.0925738927194     
611.229419942148     0.503706801252035    58.8251543897409     0.855705234385912    -30.2411083884802    0.855705234385912    -30.2411083884802    0.503706801252035    58.8251543897409     
617.723853532099     0.507840023064475    58.5559727290992     0.853262203474156    -30.515627586457     0.853262203474156    -30.515627586457     0.507840023064475    58.5559727290992     
624.287291764624     0.511987156489693    58.2850372570865     0.850784272577531    -30.7918520656563    0.850784272577531    -30.7918520656563    0.511987156489693    58.2850372570865     
630.920467827712     0.516147754575302    58.0123568032276     0.848271208526292    -31.0697730556151    0.848271208526292    -31.0697730556151    0.516147754575302    58.0123568032276     
637.624122699618     0.520321359844324    57.7379406838396     0.845722785403722    -31.3493812889453    0.845722785403722    -31.3493812889453    0.520321359844324    57.7379406838396     
644.399005231638     0.524507504374278    57.4617987052674     0.843138784831931    -31.6306669978695    0.843138784831931    -31.6306669978695    0.524507504374278    57.4617987052674     
651.245872231763     0.528705709887984    57.1839411667776     0.84051899625712     -31.9136199110867    0.84051899625712     -31.9136199110867    0.528705709887984    57.1839411667776     
658.165488549215     0.532915487856233    56.9043788631002     0.837863217233912    -32.1982292509816    0.837863217233912    -32.1982292509816    0.532915487856233    56.9043788631002     
665.158627159893     0.537136339612482    56.6231230866075     0.835171253708263    -32.4844837311862    0.835171253708263    -32.4844837311862    0.537136339612482    56.6231230866075     
672.226069252719     0.541367756479791    56.3401856291127     0.832442920298525    -32.7723715545087    0.832442920298525    -32.7723715545087    0.541367756479791    56.3401856291127     
679.368604316899     0.545609219910101    56.055578783281      0.829678040574153    -33.0618804112413    0.829678040574153    -33.0618804112413    0.545609219910101    56.055578783281      
686.58703023012      0.549860201635942    55.7693153436402     0.826876447331616    -33.3529974778547    0.826876447331616    -33.3529974778547    0.549860201635942    55.7693153436402     
693.882153347677     0.554120163834737    55.481408607178      0.824037982866987    -33.6457094160939    0.824037982866987    -33.6457094160939    0.554120163834737    55.481408607178      
701.25478859255      0.558388559305756    55.1918723735138     0.821162499244734    -33.9400023724866    0.821162499244734    -33.9400023724866    0.558388559305756    55.1918723735138     
708.705759546435     0.562664831659716    54.9007209446398     0.818249858562178    -34.2358619782692    0.818249858562178    -34.2358619782692    0.562664831659716    54.9007209446398     
716.23589854175      0.566948415521137    54.6079691242158     0.815299933209139    -34.533273349745     0.815299933209139    -34.533273349745     0.566948415521137    54.6079691242158     
723.846046754606     0.571238736743395    54.31363221641       0.812312606122176    -34.8322210890809    0.812312606122176    -34.8322210890809    0.571238736743395    54.31363221641       
731.537054298779     0.575535212636508    54.0177260242762     0.809287771033001    -35.1326892855538    0.809287771033001    -35.1326892855538    0.575535212636508    54.0177260242762     
739.309780320673     0.579837252207553    53.7202668476588     0.806225332710436    -35.4346615172521    0.806225332710436    -35.4346615172521    0.579837252207553    53.7202668476588     
747.16509309529      0.584144256413647    53.4212714806208     0.803125207195438    -35.7381208532386    0.803125207195438    -35.7381208532386    0.584144256413647    53.4212714806208     
755.103870123228     0.58845561842746     53.1207572083788     0.79998732202864     -36.0430498561883    0.79998732202864     -36.0430498561883    0.58845561842746     53.1207572083788     
763.126998228701     0.592770723915006    52.8187418037496     0.796811616469878    -36.3494305854967    0.796811616469878    -36.3494305854967    0.592770723915006    52.8187418037496     
771.235373658607     0.597088951325663    52.5152435230931     0.793598041709175    -36.6572446008735    0.793598041709175    -36.6572446008735    0.597088951325663    52.5152435230931     
779.429902182644     0.601409672194186    52.2102811017512     0.790346561068638    -36.9664729664197    0.790346561068638    -36.9664729664197    0.601409672194186    52.2102811017512     
787.711499194492     0.605732251454488    51.9038737489765     0.787057150194811    -37.2770962551954    0.787057150194811    -37.2770962551954    0.605732251454488    51.9038737489765     
796.081089814072     0.61005604776496     51.5960411423473     0.783729797240838    -37.5890945542782    0.783729797240838    -37.5890945542782    0.61005604776496     51.5960411423473     
804.539608990885     0.61438041384504     51.2868034216666     0.78036450303809     -37.9024474703165    0.78036450303809     -37.9024474703165    0.61438041384504     51.2868034216666     
813.088001608457     0.61870469682274     50.9761811823427     0.776961281256655    -38.2171341355778    0.776961281256655    -38.2171341355778    0.61870469682274     50.9761811823427     
821.727222589887     0.623028238592772    50.6641954682496     0.773520158554201    -38.5331332144908    0.773520158554201    -38.5331332144908    0.623028238592772    50.6641954682496     
830.458237004524     0.627350376184937    50.3508677640678     0.770041174712818    -38.8504229106841    0.770041174712818    -38.8504229106841    0.627350376184937    50.3508677640678     
839.282020175765     0.631670442142336    50.0362199871071     0.7665243827633      -39.1689809745131    0.7665243827633      -39.1689809745131    0.631670442142336    50.0362199871071     
848.199557790016     0.635987764909026    49.7202744786112     0.762969849096504    -39.4887847110795    0.762969849096504    -39.4887847110795    0.635987764909026    49.7202744786112     
857.211846006794     0.640301669226643    49.4030539945475     0.759377653561271    -39.8098109887337    0.759377653561271    -39.8098109887337    0.640301669226643    49.4030539945475     
866.319891570008     0.644611476539501    49.0845816958875     0.75574788954858     -40.1320362480585    0.75574788954858     -40.1320362480585    0.644611476539501    49.0845816958875     
875.524711920421     0.64891650540769     48.7648811383796     0.752080664061585    -40.4554365113253    0.752080664061585    -40.4554365113253    0.64891650540769     48.7648811383796     
884.827335309305     0.653216071927622    48.4439762618206     0.748376097771018    -40.7799873924188    0.748376097771018    -40.7799873924188    0.653216071927622    48.4439762618206     
894.228800913304     0.657509490159444    48.1218913788367     0.744634325055828    -41.1056641072181    0.744634325055828    -41.1056641072181    0.657509490159444    48.1218913788367     
903.730158950524     0.661796072560795    47.7986511631728     0.740855494028621    -41.4324414844292    0.740855494028621    -41.4324414844292    0.661796072560795    47.7986511631728     
913.332470797842     0.666075130426208    47.4742806375113     0.737039766545624    -41.7602939768518    0.737039766545624    -41.7602939768518    0.666075130426208    47.4742806375113     
923.036809109475     0.670345974331617    47.1488051608181     0.733187318201011    -42.0891956730759    0.733187318201011    -42.0891956730759    0.670345974331617    47.1488051608181     
932.844257936805     0.674607914583294    46.8222504152329     0.729298338305243    -42.4191203095927    0.729298338305243    -42.4191203095927    0.674607914583294    46.8222504152329     
942.755912849474     0.678860261670519    46.494642392514      0.725373029847347    -42.7500412833035    0.725373029847347    -42.7500412833035    0.678860261670519    46.494642392514      
952.772881057767     0.683102326721292    46.1660073800549     0.721411609440931    -43.0819316644125    0.721411609440931    -43.0819316644125    0.683102326721292    46.1660073800549     
962.896281536299     0.68733342196047     45.8363719464757     0.717414307253741    -43.4147642096919    0.717414307253741    -43.4147642096919    0.68733342196047     45.8363719464757     
973.127245149012     0.691552861169516    45.5057629268151     0.713381366920819    -43.7485113760962    0.713381366920819    -43.7485113760962    0.691552861169516    45.5057629268151     
983.466914775501     0.695759960147176    45.1742074073329     0.70931304544107     -44.0831453347095    0.70931304544107     -44.0831453347095    0.695759960147176    45.1742074073329     
993.91644543868      0.699954037170346    44.8417327099409     0.705209613057293    -44.418637985007     0.705209613057293    -44.418637985007     0.699954037170346    44.8417327099409     
1004.47700443382     0.704134413454393    44.5083663762782     0.701071353119645    -44.7549609694113    0.701071353119645    -44.7549609694113    0.704134413454393    44.5083663762782     
1015.14977145891     0.708300413612142    44.1741361514521     0.696898561932645    -45.0920856881189    0.696898561932645    -45.0920856881189    0.708300413612142    44.1741361514521     
1025.9359387465      0.712451366110809    43.8390699674618     0.692691548585763    -45.4299833141766    0.692691548585763    -45.4299833141766    0.712451366110809    43.8390699674618     
1036.83671119683     0.716586603726119    43.5031959263217     0.688450634767701    -45.7686248087858    0.688450634767701    -45.7686248087858    0.716586603726119    43.5031959263217     
1047.85330651243     0.720705463992822    43.1665422829121     0.684176154564634    -46.1079809368071    0.684176154564634    -46.1079809368071    0.720705463992822    43.1665422829121     
1058.98695533417     0.724807289650862    42.8291374275723     0.679868454242472    -46.4480222824404    0.679868454242472    -46.4480222824404    0.724807289650862    42.8291374275723     
1070.23890137874     0.72889142908649     42.4910098684595     0.675527892013498    -46.7887192650587    0.675527892013498    -46.7887192650587    0.72889142908649     42.4910098684595     
1081.61040157754     0.732957236767508    42.1521882136972     0.67115483778756     -47.1300421551631    0.67115483778756     -47.1300421551631    0.732957236767508    42.1521882136972     
1093.10272621713     0.737004073671954    41.8127011533339     0.666749672908201    -47.471961090435     0.666749672908201    -47.471961090435     0.737004073671954    41.8127011533339     
1104.71715908112     0.741031307709475    41.4725774411399     0.662312789874063    -47.8144460918529    0.662312789874063    -47.8144460918529    0.741031307709475    41.4725774411399     
1116.45499759355     0.745038314134698    41.131845876259      0.657844592045879    -48.1574670798496    0.657844592045879    -48.1574670798496    0.745038314134698    41.131845876259      
1128.31755296389     0.749024475951898    40.7905352847455     0.653345493339548    -48.5009938904774    0.653345493339548    -48.5009938904774    0.749024475951898    40.7905352847455     
1140.30615033342     0.752989184310246    40.4486745010096     0.648815917905689    -48.8449962915472    0.648815917905689    -48.8449962915472    0.752989184310246    40.4486745010096     
1152.42212892335     0.756931838889036    40.1062923491926     0.644256299796186    -49.189443998717     0.644256299796186    -49.189443998717     0.756931838889036    40.1062923491926     
1164.66684218435     0.76085184827218     39.7634176245029     0.639667082618182    -49.53430669149      0.639667082618182    -49.53430669149      0.76085184827218     39.7634176245029     
1177.0416579478      0.76474863031145     39.4200790745289     0.635048719176127    -49.8795540290998    0.635048719176127    -49.8795540290998    0.76474863031145     39.4200790745289     
1189.54795857854     0.768621612477722    39.0763053805676     0.630401671102397    -50.2251556662351    0.630401671102397    -50.2251556662351    0.768621612477722    39.0763053805676     
1202.18714112931     0.772470232199851    38.7321251389768     0.625726408477064    -50.5710812685868    0.625726408477064    -50.5710812685868    0.772470232199851    38.7321251389768     
1214.96061749681     0.776293937190445    38.3875668425914     0.621023409437492    -50.9173005281698    0.621023409437492    -50.9173005281698    0.776293937190445    38.3875668425914     
1227.86981457945     0.780092185758152    38.042658862221      0.61629315977834     -51.2637831783911    0.61629315977834     -51.2637831783911    0.780092185758152    38.042658862221      
1240.91617443668     0.783864447105942    37.6974294282531     0.611536152542655    -51.6104990088288    0.611536152542655    -51.6104990088288    0.783864447105942    37.6974294282531     
1254.10115445014     0.787610201614942    37.3519066123887     0.606752887604712    -51.9574178796857    0.606752887604712    -51.9574178796857    0.787610201614942    37.3519066123887     
1267.42622748642     0.791328941113375    37.0061183095367     0.601943871245349    -52.3045097358782    0.601943871245349    -52.3045097358782    0.791328941113375    37.0061183095367     
1280.89288206164     0.795020169130287    36.660092219884      0.597109615720421    -52.6517446207303    0.597109615720421    -52.6517446207303    0.795020169130287    36.660092219884      
1294.50262250767     0.798683401133651    36.3138558311724     0.592250638823191    -52.9990926892289    0.592250638823191    -52.9990926892289    0.798683401133651    36.3138558311724     
1308.25696914022     0.802318164752573    35.967436401201      0.587367463441292    -53.3465242208059    0.587367463441292    -53.3465242208059    0.802318164752573    35.967436401201      
1322.15745842863     0.805923999983341    35.6208609405749     0.582460617109088    -53.6940096316112    0.582460617109088    -53.6940096316112    0.805923999983341    35.6208609405749     
1336.20564316757     0.809500459379033    35.2741561957275     0.577530631556136    -54.0415194862314    0.577530631556136    -54.0415194862314    0.809500459379033    35.2741561957275     
1350.40309265044     0.813047108222501    34.9273486322336     0.5725780422525      -54.3890245088196    0.5725780422525      -54.3890245088196    0.813047108222501    34.9273486322336     
1364.75139284468     0.816563524682622    34.5804644184331     0.567603387951681    -54.7364955935976    0.567603387951681    -54.7364955935976    0.816563524682622    34.5804644184331     
1379.25214656897     0.820049299953585    34.233529409389      0.56260721023194     -55.0839038146812    0.56260721023194     -55.0839038146812    0.820049299953585    34.233529409389      
1393.90697367224     0.823504038377236    33.8865691311946     0.557590053036735    -55.4312204351984    0.557590053036735    -55.4312204351984    0.823504038377236    33.8865691311946     
1408.71751121466     0.826927357548354    33.5396087656505     0.552552462214997    -55.7784169156472    0.552552462214997    -55.7784169156472    0.826927357548354    33.5396087656505     
1423.68541365046     0.830318888402861    33.1926731353297     0.547494985062091    -56.1254649214554    0.547494985062091    -56.1254649214554    0.830318888402861    33.1926731353297     
1438.81235301279     0.83367827528904     32.8457866890415     0.542418169862055    -56.4723363296971    0.542418169862055    -56.4723363296971    0.83367827528904     32.8457866890415     
1454.10001910047     0.837005176021716    32.4989734877204     0.537322565431961    -56.8190032349132    0.537322565431961    -56.8190032349132    0.837005176021716    32.4989734877204     
1469.55011966678     0.840299261919609    32.1522571907427     0.532208720669062    -57.1654379539979    0.532208720669062    -57.1654379539979    0.840299261919609    32.1522571907427     
1485.16438061021     0.84356021782588     31.805661042695      0.527077184101405    -57.5116130300906    0.527077184101405    -57.5116130300906    0.84356021782588     31.805661042695      
1500.94454616727     0.846787742112137    31.4592078605982     0.521928503442621    -57.857501235432     0.521928503442621    -57.857501235432     0.846787742112137    31.4592078605982     
1516.89237910732     0.849981546665985    31.1129200216083     0.516763225151594    -58.20307557312      0.516763225151594    -58.20307557312      0.849981546665985    31.1129200216083     
1533.0096609295      0.853141356862441    30.7668194511947     0.511581893997572    -58.5483092777175    0.511581893997572    -58.5483092777175    0.853141356862441    30.7668194511947     
1549.29819206172     0.856266911519393    30.4209276118168     0.506385052631425    -58.8931758146451    0.506385052631425    -58.8931758146451    0.856266911519393    30.4209276118168     
1565.75979206181     0.859357962837448    30.0752654920965     0.501173241163643    -59.2376488783034    0.501173241163643    -59.2376488783034    0.859357962837448    30.0752654920965     
1582.39629982076     0.862414276324441    29.7298535965039     0.495946996749617    -59.5817023888513    0.495946996749617    -59.5817023888513    0.862414276324441    29.7298535965039     
1599.20957376811     0.865435630704937    29.3847119355584     0.490706853182855    -59.9253104875735    0.490706853182855    -59.9253104875735    0.865435630704937    29.3847119355584     
1616.20149207962     0.868421817815139    29.0398600165497     0.48545334049657     -60.2684475307623    0.48545334049657     -60.2684475307623    0.868421817815139    29.0398600165497     
1633.37395288703     0.871372642483533    28.6953168347879     0.480186984574219    -60.6110880820324    0.480186984574219    -60.6110880820324    0.871372642483533    28.6953168347879     
1650.72887449009     0.874287922397689    28.3511008653836     0.474908306769495    -60.9532069029788    0.474908306769495    -60.9532069029788    0.874287922397689    28.3511008653836     
1668.26819557088     0.877167487957668    28.0072300555618     0.469617823536156    -61.2947789420917    0.469617823536156    -61.2947789420917    0.877167487957668    28.0072300555618     
1685.99387541035     0.88001118211646     27.6637218175111     0.464316046068232    -61.6357793218221    0.464316046068232    -61.6357793218221    0.88001118211646     27.6637218175111     
1703.90789410721     0.882818860207918    27.3205930217698     0.459003479950902    -61.976183323692     0.459003479950902    -61.976183323692     0.882818860207918    27.3205930217698     
1722.01225279911     0.885590389762665    26.9778599911486     0.453680624822529    -62.3159663713312    0.453680624822529    -62.3159663713312    0.885590389762665    26.9778599911486     
1740.30897388616     0.88832565031248     26.6355384951891     0.44834797404814     -62.655104011311     0.44834797404814     -62.655104011311     0.88832565031248     26.6355384951891     
1758.80010125691     0.891024533183625    26.2936437451578     0.443006014404666    -62.9935718916359    0.443006014404666    -62.9935718916359    0.891024533183625    26.2936437451578     
1777.4877005166      0.893686941279684    25.9521903895711     0.437655225778319    -63.3313457377388    0.437655225778319    -63.3313457377388    0.893686941279684    25.9521903895711     
1796.37385921794     0.896312788854384    25.6111925102483     0.432296080874261    -63.6684013258138    0.432296080874261    -63.6684013258138    0.896312788854384    25.6111925102483     
1815.46068709432     0.898902001274959    25.2706636188902     0.426929044938886    -64.0047144532999    0.426929044938886    -64.0047144532999    0.898902001274959    25.2706636188902     
1834.75031629544     0.901454514776559    24.930616654179      0.421554575494925    -64.3402609063116    0.421554575494925    -64.3402609063116    0.901454514776559    24.930616654179      
1854.24490162553     0.903970276208292    24.5910639793887     0.4161731220895      -64.6750164237986    0.4161731220895      -64.6750164237986    0.903970276208292    24.5910639793887     
1873.94662078403     0.906449242771376    24.2520173805071     0.410785126055364    -65.0089566581795    0.410785126055364    -65.0089566581795    0.906449242771376    24.2520173805071     
1893.85767460887     0.908891381750007    23.9134880648578     0.405391020285404    -65.3420571321816    0.405391020285404    -65.3420571321816    0.908891381750007    23.9134880648578     
1913.98028732232     0.911296670235416    23.5754866602167     0.399991229020554    -65.6742931915801    0.399991229020554    -65.6742931915801    0.911296670235416    23.5754866602167     
1934.31670677946     0.913665094843729    23.2380232144131     0.394586167651182    -66.0056399535063    0.394586167651182    -66.0056399535063    0.913665094843729    23.2380232144131     
1954.86920471927     0.915996651428089    22.9011071954108     0.389176242532028    -66.3360722499416    0.389176242532028    -66.3360722499416    0.915996651428089    22.9011071954108     
1975.6400770184      0.918291344785646    22.5647474918549     0.383761850810722    -66.66556456599      0.383761850810722    -66.66556456599      0.918291344785646    22.5647474918549     
1996.63164394765     0.920549188359875    22.2289524140798     0.378343380269936    -66.9940909724596    0.378343380269936    -66.9940909724596    0.920549188359875    22.2289524140798     
2017.84625043115     0.922770203938787    21.8937296955655     0.372921209183119    -67.3216250522358    0.372921209183119    -67.3216250522358    0.922770203938787    21.8937296955655     
2039.28626630832     0.924954421349529    21.5590864948331     0.367495706183854    -67.6481398198671    0.367495706183854    -67.6481398198671    0.924954421349529    21.5590864948331     
2060.9540865986      0.927101878149886    21.2250293977674     0.36206723014876     -67.9736076337129    0.36206723014876     -67.9736076337129    0.927101878149886    21.2250293977674     
2082.85213176897     0.929212619317147    20.8915644203603     0.356636130093933    -68.2980000999225    0.356636130093933    -68.2980000999225    0.929212619317147    20.8915644203603     
2104.98284800436     0.931286696934878    20.5586970118559     0.351202745084829    -68.621287967431     0.351202745084829    -68.621287967431     0.931286696934878    20.5586970118559     
2127.34870748089     0.933324169878014    20.2264320582954     0.345767404159553    -68.9434410130408    0.345767404159553    -68.9434410130408    0.933324169878014    20.2264320582954     
2149.95220864206     0.935325103496769    19.8947738864419     0.340330426265431    -69.2644279155564    0.340330426265431    -69.2644279155564    0.935325103496769    19.8947738864419     
2172.7958764778      0.93728956929981     19.5637262680783     0.334892120208834    -69.5842161177936    0.334892120208834    -69.5842161177936    0.93728956929981     19.5637262680783     
2195.88226280659     0.939217644637106    19.2332924246657     0.329452784618107    -69.9027716751304    0.329452784618107    -69.9027716751304    0.939217644637106    19.2332924246657     
2219.21394656045     0.941109412382909    18.9034750323483     0.324012707919534    -70.2200590890966    0.324012707919534    -70.2200590890966    0.941109412382909    18.9034750323483     
2242.7935340731      0.942964960619261    18.5742762272956     0.318572168326267    -70.5360411242852    0.318572168326267    -70.5360411242852    0.942964960619261    18.5742762272956     
2266.62365937103     0.9447843823204      18.2456976113675     0.313131433840077    -70.8506786066368    0.313131433840077    -70.8506786066368    0.9447843823204      18.2456976113675     
2290.70698446783     0.946567775038491    17.9177402580928     0.307690762265908    -71.1639302008746    0.307690762265908    -71.1639302008746    0.946567775038491    17.9177402580928     
2315.04619966148     0.948315240591011    17.5904047189457     0.302250401239091    -71.4757521645476    0.302250401239091    -71.4757521645476    0.948315240591011    17.5904047189457     
2339.64402383492     0.950026884750154    17.2636910299123     0.296810588265256    -71.7860980757727    0.296810588265256    -71.7860980757727    0.950026884750154    17.2636910299123     
2364.50320475975     0.951702816934583    16.9375987183316     0.2913715507728      -72.0949185313352    0.2913715507728      -72.0949185313352    0.951702816934583    16.9375987183316     
2389.6265194032      0.95334314990387     16.6121268100029     0.285933506178011    -72.4021608113026    0.285933506178011    -72.4021608113026    0.95334314990387     16.6121268100029     
2415.01677423831     0.954947999455906    16.2872738365435     0.280496661962781    -72.7077685057221    0.280496661962781    -72.7077685057221    0.954947999455906    16.2872738365435     
2440.67680555747     0.956517484127582    15.9630378429908     0.275061215765048    -73.0116810982715    0.275061215765048    -73.0116810982715    0.956517484127582    15.9630378429908     
2466.60947978923     0.958051724899023    15.6394163956329     0.269627355482045    -73.3138335009237    0.269627355482045    -73.3138335009237    0.958051724899023    15.6394163956329     
2492.8176938185      0.959550844901631    15.3164065900572     0.264195259386528    -73.6141555327184    0.264195259386528    -73.6141555327184    0.959550844901631    15.3164065900572     
2519.30437531019     0.961014969130178    14.9940050594103     0.258765096256285    -73.9125713345828    0.258765096256285    -73.9125713345828    0.961014969130178    14.9940050594103     
2546.07248303621     0.962444224159198    14.6722079828527     0.253337025517195    -74.2089987107902    0.253337025517195    -74.2089987107902    0.962444224159198    14.6722079828527     
2573.12500720601     0.963838737863875    14.3510110942022     0.247911197400367    -74.50334838601      0.247911197400367    -74.50334838601      0.963838737863875    14.3510110942022     
2600.46496980061     0.965198639145649    14.030409690754      0.242487753113864    -74.795523164956     0.242487753113864    -74.795523164956     0.965198639145649    14.030409690754      
2628.09542491019     0.966524057662731    13.7103986422677     0.237066825029782    -75.0854169792935    0.237066825029782    -75.0854169792935    0.966524057662731    13.7103986422677     
2656.01945907521     0.967815123565684    13.3909724001122     0.231648536887633    -75.3729138036335    0.231648536887633    -75.3729138036335    0.967815123565684    13.3909724001122     
2684.24019163127     0.969071967238269    13.0721250065596     0.226233004015129    -75.6578864190046    0.226233004015129    -75.6578864190046    0.969071967238269    13.0721250065596     
2712.7607750575      0.970294719043673    12.753850104217      0.220820333567857    -75.9401949980179    0.220820333567857    -75.9401949980179    0.970294719043673    12.753850104217      
2741.58439532875     0.971483509076294    12.4361409455899     0.215410624789583    -76.2196854808221    0.215410624789583    -76.2196854808221    0.971483509076294    12.4361409455899     
2770.71427227151     0.972638466919189    12.1189904027679     0.210003969295427    -76.4961877046646    0.210003969295427    -76.4961877046646    0.972638466919189    12.1189904027679     
2800.15365992353     0.973759721407306    11.8023909772245     0.20460045138059     -76.7695132421225    0.20460045138059     -76.7695132421225    0.973759721407306    11.8023909772245     
2829.90584689737     0.974847400396622    11.4863348097227     0.199200148358033    -77.0394528934454    0.199200148358033    -77.0394528934454    0.974847400396622    11.4863348097227     
2859.97415674775     0.975901630539276    11.1708136903207     0.193803130929247    -77.3057737664479    0.193803130929247    -77.3057737664479    0.975901630539276    11.1708136903207     
2890.36194834281     0.976922537064773    10.8558190684685     0.188409463593324    -77.5682158623443    0.188409463593324    -77.5682158623443    0.976922537064773    10.8558190684685     
2921.07261623934     0.977910243567364    10.5413420631909     0.183019205100764    -77.8264880669243    0.183019205100764    -77.8264880669243    0.977910243567364    10.5413420631909     
2952.10959106196     0.978864871799652    10.2273734733481     0.177632408960064    -78.0802634223662    0.177632408960064    -78.0802634223662    0.978864871799652    10.2273734733481     
2983.47633988636     0.979786541472492    9.91390378796938     0.172249124007258    -78.3291735241853    0.172249124007258    -78.3291735241853    0.979786541472492    9.91390378796938     
3015.17636662659     0.980675370061242    9.60092319665289     0.166869395051113    -78.5728018481954    0.166869395051113    -78.5728018481954    0.980675370061242    9.60092319665289     
3047.21321242648     0.981531472618407    9.28842160002903     0.161493263610275    -78.8106757610191    0.161493263610275    -78.8106757610191    0.981531472618407    9.28842160002903     
3079.59045605522     0.982354961592724    8.9763886202766      0.156120768762957    -79.0422569006463    0.156120768762957    -79.0422569006463    0.982354961592724    8.9763886202766      
3112.31171430714     0.98314594665472     8.66481361169279     0.150751948135847    -79.2669295252709    0.150751948135847    -79.2669295252709    0.98314594665472     8.66481361169279     
3145.3806424057      0.983904534528756    8.35368567130941     0.145386839066619    -79.4839863114392    0.145386839066619    -79.4839863114392    0.983904534528756    8.35368567130941     
3178.80093441186     0.984630828831614    8.04299364955074     0.140025479985016    -79.6926109254523    0.140025479985016    -79.6926109254523    0.984630828831614    8.04299364955074     
3212.57632363668     0.985324929917615    7.73272616093067     0.134667912071678    -79.8918564793504    0.134667912071678    -79.8918564793504    0.985324929917615    7.73272616093067     
3246.71058305842     0.985986934730289    7.42287159478431     0.129314181273406    -80.0806186919727    0.129314181273406    -80.0806186919727    0.985986934730289    7.42287159478431     
3281.20752574397     0.986616936660616    7.1134181260316      0.123964340780474    -80.2576021732708    0.123964340780474    -80.2576021732708    0.986616936660616    7.1134181260316      
3316.07100527479     0.987215025411846    6.80435372596829     0.118618454109453    -80.4212776866925    0.118618454109453    -80.4212776866925    0.987215025411846    6.80435372596829     
3351.30491617744     0.987781286870882    6.49566617308313     0.113276598988638    -80.5698274452548    0.113276598988638    -80.5698274452548    0.987781286870882    6.49566617308313     
3386.91319435856     0.988315802986251    6.1873430638974      0.107938872320515    -80.7010743469851    0.107938872320515    -80.7010743469851    0.988315802986251    6.1873430638974      
3422.89981754462     0.988818651652646    5.87937182382489     0.102605396608739    -80.8123893753329    0.102605396608739    -80.8123893753329    0.988818651652646    5.87937182382489     
3459.26880572618     0.989289906602039    5.57173971805049     0.09727632840538     -80.9005688943057    0.09727632840538     -80.9005688943057    0.989289906602039    5.57173971805049     
3496.02422160702     0.989729637301366    5.2644338624242      0.091951869589033    -80.9616697924133    0.091951869589033    -80.9616697924133    0.989729637301366    5.2644338624242      
3533.17017105793     0.990137908856773    4.95744123437105     0.086632282678589    -80.9907846028928    0.086632282678589    -80.9907846028928    0.990137908856773    4.95744123437105     
3570.71080357543     0.990514781924412    4.65074868381178     0.081317912010411    -80.9817295369809    0.081317912010411    -80.9817295369809    0.990514781924412    4.65074868381178     
3608.65031274522     0.990860312627784    4.3443429440981      0.076009213616364    -80.9266035145085    0.076009213616364    -80.9266035145085    0.990860312627784    4.3443429440981      
3646.99293671069     0.991174552481625    4.03821064295574     0.070706798321252    -80.8151516194991    0.070706798321252    -80.8151516194991    0.991174552481625    4.03821064295574     
3685.74295864636     0.991457548322321    3.73233831343831     0.065411495465683    -80.6338242269695    0.065411495465683    -80.6338242269695    0.991457548322321    3.73233831343831     
3724.90470723631     0.991709342244835    3.42671240488974     0.060124449793684    -80.3643484052135    0.060124449793684    -80.3643484052135    0.991709342244835    3.42671240488974     
3764.48255715775     0.991929971546162    3.12131929391341     0.054847273537904    -79.981490970055     0.054847273537904    -79.981490970055     0.991929971546162    3.12131929391341     
3804.48092956971     0.992119468675282    2.81614529534958     0.049582294103149    -79.4494290515506    0.049582294103149    -79.4494290515506    0.992119468675282    2.81614529534958     
3844.90429260688     0.992277861189617    2.51117667325921     0.044332975192816    -78.7156121005668    0.044332975192816    -78.7156121005668    0.992277861189617    2.51117667325921     
3885.75716187881     0.992405171717978    2.20639965191339     0.039104670360839    -77.6998617902438    0.039104670360839    -77.6998617902438    0.992405171717978    2.20639965191339     
3927.04410097425     0.99250141793001     1.9018004267895      0.033906056947742    -76.2738558310573    0.033906056947742    -76.2738558310573    0.99250141793001     1.9018004267895      
3968.76972197102     0.992566612512112    1.59736517557169     0.02875207810047     -74.2197192337177    0.02875207810047     -74.2197192337177    0.992566612512112    1.59736517557169     
4010.93868595117     0.992600763149857    1.29308006915843     0.02367057126096     -71.1391399537135    0.02367057126096     -71.1391399537135    0.992600763149857    1.29308006915843     
4053.55570352166     0.992603872516879    0.988931282673686    0.018719061486085    -66.2334871120722    0.018719061486085    -66.2334871120722    0.992603872516879    0.988931282673686    
4096.62553534059     0.992575938270255    0.684905006484586    0.014033838198523    -57.7194956179787    0.014033838198523    -57.7194956179787    0.992575938270255    0.684905006484586    
4140.15299264898     0.992516953052371    0.380987457221925    0.009994029216897    -41.3274972579095    0.009994029216897    -41.3274972579095    0.992516953052371    0.380987457221925    
4184.14293780826     0.992426904499278    0.077164888808109    0.007691024576399    -10.0079373968452    0.007691024576399    -10.0079373968452    0.992426904499278    0.077164888808109    
4228.6002848434      0.992305775255537    -0.22657639651324    0.008644006825769    26.9982895671801     0.008644006825769    26.9982895671801     0.992305775255537    -0.22657639651324    
4273.52999999186     0.992153542995571    -0.530250037140388   0.012105454853546    49.3312278567608     0.012105454853546    49.3312278567608     0.992153542995571    -0.530250037140388   
4318.93710225836     0.991970180451525    -0.833869601074607   0.01657062770919     60.598848817536      0.01657062770919     60.598848817536      0.991970180451525    -0.833869601074607   
4364.82666397554     0.991755655447634    -1.13744857487658    0.021420035991225    66.7955792360913     0.021420035991225    66.7955792360913     0.991755655447634    -1.13744857487658    
4411.20381137057     0.991509930941132    -1.44100035261886    0.026442589955475    70.5530537100599     0.026442589955475    70.5530537100599     0.991509930941132    -1.44100035261886    
4458.0737251378      0.991232965069684    -1.74453822483563    0.031555332320803    72.9988841857217     0.031555332320803    72.9988841857217     0.991232965069684    -1.74453822483563    
4505.44164101749     0.990924711205386    -2.04807536747026    0.036720323863388    74.6695928450994     0.036720323863388    74.6695928450994     0.990924711205386    -2.04807536747026    
4553.31285038067     0.990585118015304    -2.3516248308202     0.041918044395098    75.8474853354798     0.041918044395098    75.8474853354798     0.990585118015304    -2.3516248308202     
4601.69270082024     0.99021412952861     -2.65519952848052    0.047137515241313    76.6937692469922     0.047137515241313    76.6937692469922     0.99021412952861     -2.65519952848052    
4650.58659674833     0.989811685210298    -2.95881222628834    0.052372125396644    77.3067054095035     0.052372125396644    77.3067054095035     0.989811685210298    -2.95881222628834    
4700.00000000001     0.989377720041501    -3.26247553126678    0.057617675426057    77.7494122879498     0.057617675426057    77.7494122879498     0.989377720041501    -3.26247553126678    
