# MHz S MA R 50      
!Freq                MagS11               AngS11               MagS21               AngS21               MagS12               AngS12               MagS22               AngS22               
1                    0.012109372813423    49.5598729419756     0.992188022930738    -0.532217633989329   0.992188022930738    -0.532217633989329   0.012109372813423    49.5598729419756     
1.00918343684185     0.012181267406136    49.775829986426      0.992177176500567    -0.537099498054286   0.992177176500567    -0.537099498054286   0.012181267406136    49.775829986426      
1.01845120919593     0.01225397277468     49.991303478847      0.9921662696811      -0.542026111623133   0.9921662696811      -0.542026111623133   0.01225397277468     49.991303478847      
1.02780409155208     0.012327496691969    50.2062807398584     0.992155301996992    -0.546997884401449   0.992155301996992    -0.546997884401449   0.012327496691969    50.2062807398584     
1.03724286551265     0.012401846987323    50.4207492259462     0.99214427296703     -0.552015229837103   0.99214427296703     -0.552015229837103   0.012401846987323    50.4207492259462     
1.04676831985774     0.012477031546958    50.6346965322435     0.992133182104053    -0.557078565154286   0.992133182104053    -0.557078565154286   0.012477031546958    50.6346965322435     
1.0563812506112      0.0125530583145      50.8481103952105     0.992122028914899    -0.562188311387838   0.992122028914899    -0.562188311387838   0.0125530583145      50.8481103952105     
1.0660824611071      0.012629935291496    51.0609786952178     0.992110812900236    -0.567344893417834   0.992110812900236    -0.567344893417834   0.012629935291496    51.0609786952178     
1.07587276205688     0.012707670537944    51.2732894590282     0.992099533554502    -0.572548740004534   0.992099533554502    -0.572548740004534   0.012707670537944    51.2732894590282     
1.0857529716171      0.012786272172831    51.4850308621779     0.992088190365837    -0.577800283823631   0.992088190365837    -0.577800283823631   0.012786272172831    51.4850308621779     
1.09572391545779     0.012865748374681    51.6961912312573     0.9920767828159      -0.583099961501787   0.9920767828159      -0.583099961501787   0.012865748374681    51.6961912312573     
1.1057864268315      0.012946107382112    51.9067590460894     0.992065310379837    -0.588448213652541   0.992065310379837    -0.588448213652541   0.012946107382112    51.9067590460894     
1.11594134664288     0.013027357494409    52.1167229418032     0.992053772526113    -0.593845484912462   0.992053772526113    -0.593845484912462   0.013027357494409    52.1167229418032     
1.12618952351899     0.013109507072098    52.3260717108109     0.992042168716471    -0.599292223977728   0.992042168716471    -0.599292223977728   0.013109507072098    52.3260717108109     
1.13653181388018     0.013192564537544    52.5347943046725     0.992030498405774    -0.604788883640915   0.992030498405774    -0.604788883640915   0.013192564537544    52.5347943046725     
1.1469690820117      0.013276538375544    52.7428798358689     0.992018761041892    -0.610335920828222   0.992018761041892    -0.610335920828222   0.013276538375544    52.7428798358689     
1.1575022001359      0.013361437133944    52.9503175794614     0.992006956065618    -0.615933796636958   0.992006956065618    -0.615933796636958   0.013361437133944    52.9503175794614     
1.16813204848515     0.013447269424257    53.1570969746549     0.991995082910525    -0.621582976373378   0.991995082910525    -0.621582976373378   0.013447269424257    53.1570969746549     
1.17885951537536     0.0135340439223      53.3632076262572     0.991983141002858    -0.627283929590911   0.991983141002858    -0.627283929590911   0.0135340439223      53.3632076262572     
1.18968549728022     0.013621769368834    53.5686393060333     0.991971129761407    -0.633037130128613   0.991971129761407    -0.633037130128613   0.013621769368834    53.5686393060333     
1.20061089890616     0.013710454570216    53.7733819539621     0.991959048597412    -0.638843056150129   0.991959048597412    -0.638843056150129   0.013710454570216    53.7733819539621     
1.2116366332679      0.01380010839907     53.9774256793877     0.991946896914383    -0.644702190182805   0.991946896914383    -0.644702190182805   0.01380010839907     53.9774256793877     
1.22276362176478     0.013890739794952    54.1807607620724     0.991934674108033    -0.650615019157321   0.991934674108033    -0.650615019157321   0.013890739794952    54.1807607620724     
1.23399279425777     0.013982357765045    54.38337765315       0.991922379566101    -0.656582034447598   0.991922379566101    -0.656582034447598   0.013982357765045    54.38337765315       
1.24532508914713     0.014074971384847    54.5852669759771     0.99191001266825     -0.662603731911048   0.99191001266825     -0.662603731911048   0.014074971384847    54.5852669759771     
1.25676145345089     0.014168589798884    54.7864195268884     0.991897572785926    -0.668680611929231   0.991897572785926    -0.668680611929231   0.014168589798884    54.7864195268884     
1.26830284288392     0.014263222221419    54.9868262758549     0.991885059282217    -0.674813179448828   0.991885059282217    -0.674813179448828   0.014263222221419    54.9868262758549     
1.27995022193789     0.014358877937187    55.1864783670445     0.991872471511707    -0.681001944023028   0.991872471511707    -0.681001944023028   0.014358877937187    55.1864783670445     
1.29170456396176     0.014455566302127    55.3853671192872     0.991859808820362    -0.687247419853219   0.991859808820362    -0.687247419853219   0.014455566302127    55.3853671192872     
1.30356685124323     0.014553296744132    55.5834840264473     0.991847070545352    -0.693550125831105   0.991847070545352    -0.693550125831105   0.014553296744132    55.5834840264473     
1.31553807509075     0.014652078763806    55.7808207577022     0.991834256014926    -0.699910585581173   0.991834256014926    -0.699910585581173   0.014652078763806    55.7808207577022     
1.3276192359164      0.014751921935235    55.9773691577299     0.991821364548253    -0.706329327503522   0.991821364548253    -0.706329327503522   0.014751921935235    55.9773691577299     
1.33981134331946     0.014852835906764    56.1731212468074     0.991808395455291    -0.712806884817144   0.991808395455291    -0.712806884817144   0.014852835906764    56.1731212468074     
1.35211541617083     0.014954830401786    56.368069220819      0.9917953480366      -0.719343795603486   0.9917953480366      -0.719343795603486   0.014954830401786    56.368069220819      
1.36453248269812     0.015057915219541    56.5622054511779     0.9917822215832      -0.725940602850464   0.9917822215832      -0.725940602850464   0.015057915219541    56.5622054511779     
1.37706358057163     0.015162100235927    56.7555224846637     0.991769015376425    -0.732597854496859   0.991769015376425    -0.732597854496859   0.015162100235927    56.7555224846637     
1.38970975699102     0.015267395404318    56.9480130431739     0.991755728687749    -0.739316103477083   0.991755728687749    -0.739316103477083   0.015267395404318    56.9480130431739     
1.40247206877285     0.015373810756395    57.1396700233951     0.991742360778589    -0.746095907766366   0.991742360778589    -0.746095907766366   0.015373810756395    57.1396700233951     
1.41535158243888     0.015481356402985    57.3304864963931     0.991728910900218    -0.752937830426362   0.991728910900218    -0.752937830426362   0.015481356402985    57.3304864963931     
1.42834937430522     0.015590042534909    57.5204557071239     0.991715378293485    -0.759842439651072   0.991715378293485    -0.759842439651072   0.015590042534909    57.5204557071239     
1.44146653057225     0.015699879423846    57.7095710738668     0.991701762188749    -0.766810308813276   0.991701762188749    -0.766810308813276   0.015699879423846    57.7095710738668     
1.4547041474154      0.015810877423197    57.8978261875864     0.991688061805601    -0.773842016511321   0.991688061805601    -0.773842016511321   0.015810877423197    57.8978261875864     
1.46806333107676     0.015923046968971    58.0852148112162     0.991674276352773    -0.78093814661635    0.991674276352773    -0.78093814661635    0.015923046968971    58.0852148112162     
1.48154519795754     0.016036398580668    58.2717308788729     0.991660405027886    -0.788099288319853   0.991660405027886    -0.788099288319853   0.016036398580668    58.2717308788729     
1.49515087471133     0.016150942862182    58.4573684950037     0.991646447017294    -0.79532603618182    0.991646447017294    -0.79532603618182    0.016150942862182    58.4573684950037     
1.50888149833828     0.016266690502709    58.6421219334625     0.991632401495878    -0.802618990179138   0.991632401495878    -0.802618990179138   0.016266690502709    58.6421219334625     
1.5227382162801      0.016383652277668    58.8259856365211     0.991618267626886    -0.809978755754518   0.991618267626886    -0.809978755754518   0.016383652277668    58.8259856365211     
1.53672218651598     0.016501839049623    59.0089542138196     0.991604044561689    -0.81740594386583    0.991604044561689    -0.81740594386583    0.016501839049623    59.0089542138196     
1.55083457765932     0.016621261769228    59.1910224412509     0.991589731439611    -0.824901171035837   0.991589731439611    -0.824901171035837   0.016621261769228    59.1910224412509     
1.56507656905541     0.016741931476171    59.3721852597886     0.991575327387692    -0.832465059402388   0.991575327387692    -0.832465059402388   0.016741931476171    59.3721852597886     
1.57944935087998     0.016863859300132    59.5524377742572     0.99156083152054     -0.84009823676912    0.99156083152054     -0.84009823676912    0.016863859300132    59.5524377742572     
1.59395412423869     0.016987056461749    59.7317752520447     0.991546242940034    -0.847801336656475   0.991546242940034    -0.847801336656475   0.016987056461749    59.7317752520447     
1.60859210126744     0.017111534273596    59.9101931217623     0.991531560735193    -0.855574998353266   0.991531560735193    -0.855574998353266   0.017111534273596    59.9101931217623     
1.62336450523373     0.017237304141167    60.0876869718532     0.991516783981885    -0.863419866968649   0.991516783981885    -0.863419866968649   0.017237304141167    60.0876869718532     
1.63827257063884     0.017364377563872    60.2642525491515     0.991501911742662    -0.87133659348457    0.991501911742662    -0.87133659348457    0.017364377563872    60.2642525491515     
1.65331754332104     0.017492766136042    60.4398857573921     0.991486943066478    -0.879325834808666   0.991486943066478    -0.879325834808666   0.017492766136042    60.4398857573921     
1.66850068055965     0.017622481547941    60.6145826556766     0.991471876988509    -0.887388253827613   0.991471876988509    -0.887388253827613   0.017622481547941    60.6145826556766     
1.68382325118015     0.01775353558679     60.7883394568938     0.991456712529868    -0.895524519460959   0.991456712529868    -0.895524519460959   0.01775353558679     60.7883394568938     
1.6992865356602      0.017885940137803    60.9611525261001     0.991441448697396    -0.903735306715408   0.991441448697396    -0.903735306715408   0.017885940137803    60.9611525261001     
1.71489182623664     0.018019707185223    61.1330183788591     0.991426084483404    -0.91202129673965    0.991426084483404    -0.91202129673965    0.018019707185223    61.1330183788591     
1.73064042701349     0.018154848813377    61.3039336795421     0.99141061886545     -0.92038317687952    0.99141061886545     -0.92038317687952    0.018154848813377    61.3039336795421     
1.74653365407092     0.018291377207735    61.4738952395961     0.991395050806032    -0.928821640733789   0.991395050806032    -0.928821640733789   0.018291377207735    61.4738952395961     
1.76257283557524     0.01842930465598     61.6429000157726     0.991379379252374    -0.93733738821036    0.991379379252374    -0.93733738821036    0.01842930465598     61.6429000157726     
1.7787593118899      0.018568643549086    61.8109451083293     0.991363603136172    -0.945931125582991   0.991363603136172    -0.945931125582991   0.018568643549086    61.8109451083293     
1.7950944356875      0.018709406382407    61.9780277591975     0.991347721373257    -0.954603565548418   0.991347721373257    -0.954603565548418   0.018709406382407    61.9780277591975     
1.81157957206279     0.018851605756773    62.1441453501237     0.991331732863425    -0.963355427284168   0.991331732863425    -0.963355427284168   0.018851605756773    62.1441453501237     
1.82821609864681     0.018995254379596    62.3092954007813     0.99131563649007     -0.972187436506641   0.99131563649007     -0.972187436506641   0.018995254379596    62.3092954007813     
1.84500540572198     0.019140365065985    62.4734755668609     0.991299431119935    -0.981100325529846   0.991299431119935    -0.981100325529846   0.019140365065985    62.4734755668609     
1.8619488963383      0.019286950739872    62.6366836381348     0.991283115602852    -0.990094833324648   0.991283115602852    -0.990094833324648   0.019286950739872    62.6366836381348     
1.87904798643057     0.019435024435144    62.7989175364998     0.991266688771414    -0.999171705578417   0.991266688771414    -0.999171705578417   0.019435024435144    62.7989175364998     
1.89630410493676     0.019584599296786    62.9601753140022     0.991250149440666    -1.00833169475527    0.991250149440666    -1.00833169475527    0.019584599296786    62.9601753140022     
1.91371869391739     0.01973568858203     63.120455150843      0.991233496407863    -1.01757556015688    0.991233496407863    -1.01757556015688    0.01973568858203     63.120455150843      
1.93129320867605     0.019888305661521    63.2797553533658     0.991216728452089    -1.02690406798369    0.991216728452089    -1.02690406798369    0.019888305661521    63.2797553533658     
1.94902911788102     0.02004246402048     63.4380743520317     0.991199844333992    -1.03631799139674    0.991199844333992    -1.03631799139674    0.02004246402048     63.4380743520317     
1.966927903688       0.020198177259889    63.5954106993795     0.991182842795442    -1.04581811058       0.991182842795442    -1.04581811058       0.020198177259889    63.5954106993795     
1.98499106186399     0.020355459097674    63.7517630679734     0.991165722559228    -1.05540521280325    0.991165722559228    -1.05540521280325    0.020355459097674    63.7517630679734     
2.00322010191225     0.020514323369902    63.9071302483417     0.991148482328688    -1.06508009248545    0.991148482328688    -1.06508009248545    0.020514323369902    63.9071302483417     
2.02161654719849     0.020674784031991    64.0615111469048     0.991131120787404    -1.07484355125872    0.991131120787404    -1.07484355125872    0.020674784031991    64.0615111469048     
2.04018193507812     0.02083685515992     64.2149047838976     0.991113636598866    -1.0846963980329     0.991113636598866    -1.0846963980329     0.02083685515992     64.2149047838976     
2.05891781702479     0.021000550951454    64.3673102912831     0.991096028406076    -1.09463944906047    0.991096028406076    -1.09463944906047    0.021000550951454    64.3673102912831     
2.07782575876        0.021165885727379    64.5187269106635     0.991078294831253    -1.10467352800229    0.991078294831253    -1.10467352800229    0.021165885727379    64.5187269106635     
2.09690734038394     0.021332873932741    64.6691539911862     0.991060434475428    -1.11479946599368    0.991060434475428    -1.11479946599368    0.021332873932741    64.6691539911862     
2.11616415650756     0.021501530138101    64.8185909874483     0.991042445918084    -1.12501810171117    0.991042445918084    -1.12501810171117    0.021501530138101    64.8185909874483     
2.13559781638583     0.021671869040787    64.9670374573991     0.991024327716781    -1.13533028143983    0.991024327716781    -1.13533028143983    0.021671869040787    64.9670374573991     
2.1552099440522      0.021843905466175    65.1144930602437     0.991006078406806    -1.14573685914112    0.991006078406806    -1.14573685914112    0.021843905466175    65.1144930602437     
2.17500217845433     0.022017654368957    65.2609575543468     0.990987696500732    -1.15623869652133    0.990987696500732    -1.15623869652133    0.022017654368957    65.2609575543468     
2.19497617359105     0.022193130834431    65.40643079514       0.990969180488045    -1.16683666310061    0.990969180488045    -1.16683666310061    0.022193130834431    65.40643079514       
2.21513359865059     0.022370350079802    65.5509127330314     0.990950528834768    -1.17753163628259    0.990950528834768    -1.17753163628259    0.022370350079802    65.5509127330314     
2.23547613815005     0.022549327455482    65.6944034113209     0.990931739983006    -1.18832450142458    0.990931739983006    -1.18832450142458    0.022549327455482    65.6944034113209     
2.25600549207622     0.022730078446406    65.8369029641193     0.99091281235056     -1.19921615190836    0.99091281235056     -1.19921615190836    0.022730078446406    65.8369029641193     
2.27672337602756     0.022912618673359    65.9784116142757     0.990893744330487    -1.21020748921156    0.990893744330487    -1.21020748921156    0.022912618673359    65.9784116142757     
2.29763152135767     0.023096963894306    66.1189296713113     0.990874534290668    -1.22129942297964    0.990874534290668    -1.22129942297964    0.023096963894306    66.1189296713113     
2.3187316753199      0.023283130005734    66.2584575293615     0.990855180573378    -1.23249287109852    0.990855180573378    -1.23249287109852    0.023283130005734    66.2584575293615     
2.3400256012134      0.023471133044007    66.3969956651269     0.990835681494845    -1.24378875976776    0.990835681494845    -1.24378875976776    0.023471133044007    66.3969956651269     
2.36151507853045     0.023660989186723    66.5345446358357     0.99081603534475     -1.25518802357434    0.99081603534475     -1.25518802357434    0.023660989186723    66.5345446358357     
2.38320190310521     0.023852714754087    66.6711050772155     0.990796240385837    -1.26669160556719    0.990796240385837    -1.26669160556719    0.023852714754087    66.6711050772155     
2.40508788726375     0.024046326210288    66.8066777014766     0.990776294853354    -1.27830045733216    0.990776294853354    -1.27830045733216    0.024046326210288    66.8066777014766     
2.42717485997553     0.024241840164891    66.9412632953082     0.990756196954642    -1.29001553906769    0.990756196954642    -1.29001553906769    0.024241840164891    66.9412632953082     
2.44946466700624     0.024439273374233    67.0748627178882     0.99073594486862     -1.3018378196612     0.99073594486862     -1.3018378196612     0.024439273374233    67.0748627178882     
2.47195917107204     0.02463864274283     67.2074768989044     0.990715536745264    -1.31376827676594    0.990715536745264    -1.31376827676594    0.02463864274283     67.2074768989044     
2.49466025199521     0.024839965324794    67.3391068365929     0.990694970705146    -1.32580789687866    0.990694970705146    -1.32580789687866    0.024839965324794    67.3391068365929     
2.51756980686128     0.025043258325264    67.4697535957886     0.99067424483889     -1.33795767541777    0.99067424483889     -1.33795767541777    0.025043258325264    67.4697535957886     
2.54068975017753     0.025248539101835    67.599418305993      0.990653357206625    -1.35021861680221    0.990653357206625    -1.35021861680221    0.025248539101835    67.599418305993      
2.56402201403302     0.025455825166008    67.7281021594572     0.990632305837514    -1.36259173453102    0.990632305837514    -1.36259173453102    0.025455825166008    67.7281021594572     
2.58756854826        0.025665134184645    67.8558064092815     0.990611088729124    -1.37507805126339    0.990611088729124    -1.37507805126339    0.025665134184645    67.8558064092815     
2.6113313205969      0.025876483981432    67.9825323675321     0.990589703846961    -1.38767859889971    0.990589703846961    -1.38767859889971    0.025876483981432    67.9825323675321     
2.63531231685275     0.026089892538352    68.1082814033744     0.990568149123837    -1.4003944186628     0.990568149123837    -1.4003944186628     0.026089892538352    68.1082814033744     
2.65951354107311     0.026305377997173    68.2330549412254     0.990546422459324    -1.41322656118026    0.990546422459324    -1.41322656118026    0.026305377997173    68.2330549412254     
2.6839370157076      0.026522958660939    68.3568544589236     0.990524521719164    -1.42617608656721    0.990524521719164    -1.42617608656721    0.026522958660939    68.3568544589236     
2.70858478177885     0.026742652995472    68.4796814859167     0.990502444734701    -1.43924406450985    0.990502444734701    -1.43924406450985    0.026742652995472    68.4796814859167     
2.73345889905311     0.026964479630887    68.6015376014703     0.990480189302207    -1.45243157434955    0.990480189302207    -1.45243157434955    0.026964479630887    68.6015376014703     
2.75856144621236     0.027188457363115    68.7224244328934     0.990457753182349    -1.46573970516782    0.990457753182349    -1.46573970516782    0.027188457363115    68.7224244328934     
2.78389452102801     0.027414605155433    68.8423436537852     0.990435134099492    -1.47916955587175    0.990435134099492    -1.47916955587175    0.027414605155433    68.8423436537852     
2.80946024053624     0.02764294214001     68.9612969823005     0.990412329741111    -1.49272223528036    0.990412329741111    -1.49272223528036    0.02764294214001     68.9612969823005     
2.83526074121489     0.027873487619457    69.0792861794365     0.99038933775711     -1.50639886221145    0.99038933775711     -1.50639886221145    0.027873487619457    69.0792861794365     
2.86129817916201     0.028106261068389    69.1963130473382     0.990366155759166    -1.52020056556927    0.990366155759166    -1.52020056556927    0.028106261068389    69.1963130473382     
2.88757473027604     0.028341282134996    69.3123794276249     0.990342781320071    -1.5341284844328     0.990342781320071    -1.5341284844328     0.028341282134996    69.3123794276249     
2.91409259043765     0.028578570642631    69.4274871997388     0.990319211973012    -1.54818376814483    0.990319211973012    -1.54818376814483    0.028578570642631    69.4274871997388     
2.94085397569324     0.028818146591393    69.5416382793112     0.99029544521092     -1.56236757640174    0.99029544521092     -1.56236757640174    0.028818146591393    69.5416382793112     
2.96786112244012     0.029060030159735    69.6548346165526     0.990271478485716    -1.57668107934384    0.990271478485716    -1.57668107934384    0.029060030159735    69.6548346165526     
2.99511628761342     0.029304241706077    69.7670781946628     0.990247309207621    -1.59112545764669    0.990247309207621    -1.59112545764669    0.029304241706077    69.7670781946628     
3.02262174887471     0.029550801770422    69.8783710282609     0.990222934744401    -1.60570190261286    0.990222934744401    -1.60570190261286    0.029550801770422    69.8783710282609     
3.05037980480231     0.029799731075995    69.9887151618384     0.990198352420624    -1.62041161626463    0.990198352420624    -1.62041161626463    0.029799731075995    69.9887151618384     
3.07839277508336     0.030051050530879    70.0981126682327     0.990173559516887    -1.63525581143729    0.990173559516887    -1.63525581143729    0.030051050530879    70.0981126682327     
3.10666300070774     0.030304781229674    70.2065656471216     0.990148553269055    -1.65023571187322    0.990148553269055    -1.65023571187322    0.030304781229674    70.2065656471216     
3.13519284416365     0.030560944455153    70.31407622354       0.990123330867486    -1.66535255231677    0.990123330867486    -1.66535255231677    0.030560944455153    70.31407622354       
3.16398468963505     0.03081956167994     70.4206465464168     0.990097889456167    -1.68060757860963    0.990097889456167    -1.68060757860963    0.03081956167994     70.4206465464168     
3.19304094320088     0.03108065456819     70.5262787871337     0.990072226131971    -1.6960020477873     0.990072226131971    -1.6960020477873     0.03108065456819     70.5262787871337     
3.22236403303621     0.031344244977283    70.6309751381066     0.990046337943768    -1.71153722817602    0.990046337943768    -1.71153722817602    0.031344244977283    70.6309751381066     
3.25195640961504     0.031610354959526    70.7347378113855     0.990020221891618    -1.72721439949058    0.990020221891618    -1.72721439949058    0.031610354959526    70.7347378113855     
3.28182054591519     0.03187900676387     70.837569037278      0.989993874925874    -1.7430348529328     0.989993874925874    -1.7430348529328     0.03187900676387     70.837569037278      
3.31195893762488     0.032150222837628    70.9394710629937     0.989967293946317    -1.75899989129084    0.989967293946317    -1.75899989129084    0.032150222837628    70.9394710629937     
3.34237410335136     0.032424025828216    71.0404461513081     0.989940475801267    -1.77511082903922    0.989940475801267    -1.77511082903922    0.032424025828216    71.0404461513081     
3.37306858483132     0.032700438584893    71.1404965792498     0.989913417286695    -1.79136899243966    0.989913417286695    -1.79136899243966    0.032700438584893    71.1404965792498     
3.40404494714334     0.032979484160514    71.2396246368069     0.989886115145239    -1.80777571964253    0.989886115145239    -1.80777571964253    0.032979484160514    71.2396246368069     
3.43530577892225     0.0332611858133      71.3378326256555     0.989858566065306    -1.82433236078926    0.989858566065306    -1.82433236078926    0.0332611858133      71.3378326256555     
3.46685369257542     0.033545567008608    71.4351228579072     0.989830766680128    -1.84104027811542    0.989830766680128    -1.84104027811542    0.033545567008608    71.4351228579072     
3.49869132450112     0.033832651420719    71.5314976548798     0.989802713566734    -1.8579008460545     0.989802713566734    -1.8579008460545     0.033832651420719    71.5314976548798     
3.5308213353088      0.034122462934633    71.6269593458863     0.989774403244986    -1.87491545134256    0.989774403244986    -1.87491545134256    0.034122462934633    71.6269593458863     
3.56324641004146     0.034415025647875    71.721510267045      0.989745832176594    -1.89208549312372    0.989745832176594    -1.89208549312372    0.034415025647875    71.721510267045      
3.59596925840002     0.034710363872309    71.8151527601097     0.989716996764034    -1.90941238305622    0.989716996764034    -1.90941238305622    0.034710363872309    71.8151527601097     
3.62899261496977     0.035008502135968    71.9078891713203     0.989687893349547    -1.9268975454194     0.989687893349547    -1.9268975454194     0.035008502135968    71.9078891713203     
3.66231923944888     0.035309465184886    71.9997218502732     0.989658518214041    -1.94454241722147    0.989658518214041    -1.94454241722147    0.035309465184886    71.9997218502732     
3.69595191687905     0.035613277984948    72.0906531488105     0.989628867576035    -1.96234844830802    0.989628867576035    -1.96234844830802    0.035613277984948    72.0906531488105     
3.72989345787822     0.035919965723743    72.1806854199302     0.989598937590537    -1.98031710147129    0.989598937590537    -1.98031710147129    0.035919965723743    72.1806854199302     
3.76414669887547     0.036229553812435    72.2698210167143     0.989568724347935    -1.9984498525603     0.989568724347935    -1.9984498525603     0.036229553812435    72.2698210167143     
3.79871450234805     0.036542067887636    72.3580622912777     0.989538223872814    -2.01674819059161    0.989538223872814    -2.01674819059161    0.036542067887636    72.3580622912777     
3.83359975706058     0.036857533813295    72.445411593734      0.989507432122878    -2.03521361786121    0.989507432122878    -2.03521361786121    0.036857533813295    72.445411593734      
3.86880537830647     0.037175977682592    72.5318712711822     0.989476344987661    -2.05384765005667    0.989476344987661    -2.05384765005667    0.037175977682592    72.5318712711822     
3.90433430815155     0.03749742581985     72.6174436667103     0.98944495828742     -2.07265181637068    0.98944495828742     -2.07265181637068    0.03749742581985     72.6174436667103     
3.94018951567993     0.037821904782446    72.7021311184179     0.989413267771849    -2.09162765961488    0.989413267771849    -2.09162765961488    0.037821904782446    72.7021311184179     
3.97637399724209     0.038149441362739    72.7859359584577     0.989381269118842    -2.11077673633477    0.989381269118842    -2.11077673633477    0.038149441362739    72.7859359584577     
4.01289077670534     0.038480062590008    72.8688605120932     0.989348957933252    -2.13010061692532    0.989348957933252    -2.13010061692532    0.038480062590008    72.8688605120932     
4.04974290570645     0.038813795732395    72.9509070967761     0.989316329745553    -2.14960088574736    0.989316329745553    -2.14960088574736    0.038813795732395    72.9509070967761     
4.08693346390673     0.039150668298862    73.0320780212392     0.989283380010571    -2.16927914124478    0.989283380010571    -2.16927914124478    0.039150668298862    73.0320780212392     
4.12446555924935     0.039490708041155    73.1123755846084     0.989250104106132    -2.18913699606264    0.989250104106132    -2.18913699606264    0.039490708041155    73.1123755846084     
4.1623423282191      0.039833942955781    73.1918020755306     0.989216497331698    -2.20917607716583    0.989216497331698    -2.20917607716583    0.039833942955781    73.1918020755306     
4.20056693610446     0.040180401285986    73.2703597713186     0.98918255490697     -2.22939802595872    0.98918255490697     -2.22939802595872    0.040180401285986    73.2703597713186     
4.23914257726213     0.040530111523756    73.3480509371134     0.989148271970518    -2.24980449840553    0.989148271970518    -2.24980449840553    0.040530111523756    73.3480509371134     
4.27807247538401     0.040883102411809    73.4248778250609     0.989113643578299    -2.2703971651515     0.989113643578299    -2.2703971651515     0.040883102411809    73.4248778250609     
4.31735988376656     0.041239402945617    73.5008426735078     0.989078664702231    -2.29117771164486    0.989078664702231    -2.29117771164486    0.041239402945617    73.5008426735078     
4.35700808558266     0.041599042375416    73.5759477062099     0.989043330228713    -2.31214783825966    0.989043330228713    -2.31214783825966    0.041599042375416    73.5759477062099     
4.39702039415603     0.041962050208245    73.6501951315587     0.989007634957108    -2.33330926041918    0.989007634957108    -2.33330926041918    0.041962050208245    73.6501951315587     
4.43740015323809     0.042328456209972    73.7235871418228     0.98897157359817     -2.35466370872028    0.98897157359817     -2.35466370872028    0.042328456209972    73.7235871418228     
4.47815073728736     0.042698290407351    73.7961259124033     0.988935140772551    -2.37621292905866    0.988935140772551    -2.37621292905866    0.042698290407351    73.7961259124033     
4.51927555175152     0.043071583090069    73.8678136011055     0.988898331009162    -2.39795868275461    0.988898331009162    -2.39795868275461    0.043071583090069    73.8678136011055     
4.56077803335194     0.043448364812814    73.9386523474251     0.988861138743575    -2.41990274667975    0.988861138743575    -2.41990274667975    0.043448364812814    73.9386523474251     
4.60266165037092     0.043828666397339    74.0086442718486     0.988823558316336    -2.44204691338445    0.988823558316336    -2.44204691338445    0.043828666397339    74.0086442718486     
4.64492990294151     0.044212518934549    74.0777914751674     0.988785583971384    -2.46439299122613    0.988785583971384    -2.46439299122613    0.044212518934549    74.0777914751674     
4.68758632333998     0.044599953786582    74.1460960378074     0.988747209854241    -2.48694280449824    0.988747209854241    -2.48694280449824    0.044599953786582    74.1460960378074     
4.73063447628109     0.044991002588901    74.2135600191713     0.988708430010342    -2.50969819355992    0.988708430010342    -2.50969819355992    0.044991002588901    74.2135600191713     
4.77407795921589     0.045385697252403    74.2801854569942     0.988669238383256    -2.53266101496674    0.988669238383256    -2.53266101496674    0.045385697252403    74.2801854569942     
4.81792040263242     0.045784069965521    74.3459743667133     0.988629628812893    -2.55583314160184    0.988629628812893    -2.55583314160184    0.045784069965521    74.3459743667133     
4.86216547035905     0.046186153196341    74.4109287408509     0.98858959503368     -2.57921646280804    0.98858959503368     -2.57921646280804    0.046186153196341    74.4109287408509     
4.90681685987071     0.046591979694724    74.4750505484093     0.988549130672694    -2.60281288452062    0.988549130672694    -2.60281288452062    0.046591979694724    74.4750505484093     
4.95187830259785     0.047001582494436    74.5383417342783     0.988508229247786    -2.62662432940088    0.988508229247786    -2.62662432940088    0.047001582494436    74.5383417342783     
4.99735356423828     0.047414994915282    74.6008042186567     0.988466884165664    -2.65065273697044    0.988466884165664    -2.65065273697044    0.047414994915282    74.6008042186567     
5.04324644507185     0.047832250565244    74.6624398964842     0.988425088719922    -2.67490006374623    0.988425088719922    -2.67490006374623    0.047832250565244    74.6624398964842     
5.08956078027805     0.048253383342631    74.7232506368866     0.988382836089062    -2.69936828337625    0.988382836089062    -2.69936828337625    0.048253383342631    74.7232506368866     
5.13630044025649     0.048678427438232    74.7832382826313     0.988340119334476    -2.72405938677604    0.988340119334476    -2.72405938677604    0.048678427438232    74.7832382826313     
5.18346933095034     0.049107417337466    74.8424046495958     0.988296931398382    -2.74897538226587    0.988296931398382    -2.74897538226587    0.049107417337466    74.8424046495958     
5.23107139417279     0.049540387822552    74.9007515262468     0.988253265101722    -2.77411829570858    0.988253265101722    -2.77411829570858    0.049540387822552    74.9007515262468     
5.27911060793638     0.049977373974669    74.9582806731301     0.988209113142063    -2.79949017064824    0.988209113142063    -2.79949017064824    0.049977373974669    74.9582806731301     
5.3275909867855      0.050418411176132    75.0149938223725     0.988164468091398    -2.82509306844928    0.988164468091398    -2.82509306844928    0.050418411176132    75.0149938223725     
5.37651658213184     0.050863535112561    75.0708926771931     0.988119322393977    -2.85092906843672    0.988119322393977    -2.85092906843672    0.050863535112561    75.0708926771931     
5.42589148259301     0.051312781775061    75.1259789114259     0.988073668364043    -2.87700026803643    0.988073668364043    -2.87700026803643    0.051312781775061    75.1259789114259     
5.47571981433413     0.051766187462406    75.1802541690522     0.988027498183559    -2.90330878291668    0.988027498183559    -2.90330878291668    0.051766187462406    75.1802541690522     
5.52600574141273     0.052223788783217    75.2337200637438     0.987980803899911    -2.92985674712999    0.987980803899911    -2.92985674712999    0.052223788783217    75.2337200637438     
5.57675346612669     0.052685622658151    75.2863781784149     0.987933577423506    -2.95664631325559    0.987933577423506    -2.95664631325559    0.052685622658151    75.2863781784149     
5.62796722936542     0.053151726322092    75.3382300647849     0.987885810525444    -2.98367965254293    0.987885810525444    -2.98367965254293    0.053151726322092    75.3382300647849     
5.6796513109643      0.05362213732633     75.38927724295       0.987837494835018    -3.01095895505504    0.987837494835018    -3.01095895505504    0.05362213732633     75.38927724295       
5.73181003006226     0.054096893540767    75.4395212009639     0.987788621837272    -3.03848642981338    0.987788621837272    -3.03848642981338    0.054096893540767    75.4395212009639     
5.78444774546282     0.054576033156093    75.4889633944286     0.98773918287047     -3.06626430494257    0.98773918287047     -3.06626430494257    0.054576033156093    75.4889633944286     
5.83756885599825     0.055059594685987    75.537605246093      0.987689169123528    -3.09429482781605    0.987689169123528    -3.09429482781605    0.055059594685987    75.537605246093      
5.89117780089725     0.055547616969304    75.5854481454608     0.987638571633428    -3.12258026520228    0.987638571633428    -3.12258026520228    0.055547616969304    75.5854481454608     
5.9452790601559      0.056040139172264    75.6324934484072     0.987587381282532    -3.1511229034113     0.987587381282532    -3.1511229034113     0.056040139172264    75.6324934484072     
5.99987715491201     0.056537200790642    75.6787424768032     0.987535588795936    -3.17992504844207    0.987535588795936    -3.17992504844207    0.056537200790642    75.6787424768032     
6.054976647823       0.057038841651958    75.724196518149      0.98748318473869     -3.20898902613015    0.98748318473869     -3.20898902613015    0.057038841651958    75.724196518149      
6.11058214344715     0.057545101917649    75.7688568252151     0.987430159513015    -3.2383171822958     0.987430159513015    -3.2383171822958     0.057545101917649    75.7688568252151     
6.16669828862843     0.058056022085267    75.8127246156909     0.987376503355512    -3.26791188289302    0.987376503355512    -3.26791188289302    0.058056022085267    75.8127246156909     
6.22332977288478     0.05857164299064     75.8558010718418     0.987322206334218    -3.29777551415828    0.987322206334218    -3.29777551415828    0.05857164299064     75.8558010718418     
6.28048132880007     0.059092005810056    75.898087340173      0.987267258345745    -3.32791048276051    0.987267258345745    -3.32791048276051    0.059092005810056    75.898087340173      
6.33815773241952     0.059617152062422    75.9395845311018     0.987211649112233    -3.35831921595076    0.987211649112233    -3.35831921595076    0.059617152062422    75.9395845311018     
6.39636380364887     0.060147123611434    75.9802937186361     0.987155368178386    -3.38900416171294    0.987155368178386    -3.38900416171294    0.060147123611434    75.9802937186361     
6.45510440665717     0.060681962667727    76.0202159400603     0.987098404908374    -3.41996778891449    0.987098404908374    -3.41996778891449    0.060681962667727    76.0202159400603     
6.51438445028325     0.061221711791024    76.0593521956291     0.98704074848267     -3.45121258745738    0.98704074848267     -3.45121258745738    0.061221711791024    76.0593521956291     
6.57420888844595     0.061766413892278    76.0977034482663     0.986982387894929    -3.48274106842985    0.986982387894929    -3.48274106842985    0.061766413892278    76.0977034482663     
6.63458272055812     0.062316112235804    76.1352706232721     0.986923311948717    -3.51455576425805    0.986923311948717    -3.51455576425805    0.062316112235804    76.1352706232721     
6.69551099194438     0.062870850441401    76.172054608036      0.986863509254241    -3.54665922885811    0.986863509254241    -3.54665922885811    0.062870850441401    76.172054608036      
6.75699879426281     0.063430672486462    76.2080562517564     0.986802968224998    -3.57905403778845    0.986802968224998    -3.57905403778845    0.063430672486462    76.2080562517564     
6.81905126593037     0.06399562270808     76.2432763651659     0.986741677074392    -3.61174278840239    0.986741677074392    -3.61174278840239    0.06399562270808     76.2432763651659     
6.88167359255238     0.064565745805133    76.277715720264      0.986679623812269    -3.64472810000086    0.986679623812269    -3.64472810000086    0.064565745805133    76.277715720264      
6.9448710073558      0.065141086840361    76.3113750500551     0.986616796241429    -3.67801261398519    0.986616796241429    -3.67801261398519    0.065141086840361    76.3113750500551     
7.00864879162664     0.065721691242432    76.3442550482915     0.986553181954068    -3.71159899401051    0.986553181954068    -3.71159899401051    0.065721691242432    76.3442550482915     
7.07301227515125     0.066307604807985    76.3763563692247     0.986488768328113    -3.74548992613839    0.986488768328113    -3.74548992613839    0.066307604807985    76.3763563692247     
7.13796683666172     0.066898873703664    76.4076796273593     0.986423542523594    -3.77968811899052    0.986423542523594    -3.77968811899052    0.066898873703664    76.4076796273593     
7.20351790428542     0.067495544468137    76.4382253972157     0.98635749147886     -3.81419630390177    0.98635749147886     -3.81419630390177    0.067495544468137    76.4382253972157     
7.26967095599855     0.068097664014086    76.4679942130955     0.986290601906819    -3.84901723507349    0.986290601906819    -3.84901723507349    0.068097664014086    76.4679942130955     
7.33643152008399     0.068705279630192    76.496986568854      0.986222860291036    -3.88415368972672    0.986222860291036    -3.88415368972672    0.068705279630192    76.496986568854      
7.40380517559323     0.069318438983092    76.5252029176776     0.986154252881824    -3.91960846825537    0.986154252881824    -3.91960846825537    0.069318438983092    76.5252029176776     
7.47179755281265     0.069937190119317    76.5526436718661     0.986084765692294    -3.95538439437949    0.986084765692294    -3.95538439437949    0.069937190119317    76.5526436718661     
7.54041433373399     0.070561581467206    76.5793092026203     0.986014384494242    -3.9914843152978     0.986014384494242    -3.9914843152978     0.070561581467206    76.5793092026203     
7.6096612525292      0.071191661838795    76.6051998398353     0.985943094814048    -4.02791110184067    0.985943094814048    -4.02791110184067    0.071191661838795    76.6051998398353     
7.67954409602967     0.071827480431695    76.6303158718972     0.98587088192855     -4.0646676486227     0.98587088192855     -4.0646676486227     0.071827480431695    76.6303158718972     
7.75006870420976     0.07246908683092     76.6546575454865     0.985797730860716    -4.10175687419467    0.985797730860716    -4.10175687419467    0.07246908683092     76.6546575454865     
7.82124097067486     0.073116531010705    76.6782250653853     0.985723626375376    -4.13918172119549    0.985723626375376    -4.13918172119549    0.073116531010705    76.6782250653853     
7.89306684315393     0.073769863336297    76.7010185942889     0.985648552974846    -4.17694515650402    0.985648552974846    -4.17694515650402    0.073769863336297    76.7010185942889     
7.96555232399653     0.0744291345657      76.7230382526227     0.985572494894444    -4.21505017138982    0.985572494894444    -4.21505017138982    0.0744291345657      76.7230382526227     
8.0387034706744      0.075094395851403    76.7442841183644     0.985495436097982    -4.25349978166386    0.985495436097982    -4.25349978166386    0.075094395851403    76.7442841183644     
8.11252639628769     0.075765698742072    76.7647562268689     0.985417360273184    -4.29229702782886    0.985417360273184    -4.29229702782886    0.075765698742072    76.7647562268689     
8.18702727007583     0.0764430951842      76.784454570699      0.985338250827008    -4.33144497522854    0.985338250827008    -4.33144497522854    0.0764430951842      76.784454570699      
8.26221231793307     0.077126637523731    76.803379099461      0.985258090880915    -4.37094671419675    0.985258090880915    -4.37094671419675    0.077126637523731    76.803379099461      
8.33808782292875     0.077816378507635    76.821529719643      0.98517686326604     -4.41080536020548    0.98517686326604     -4.41080536020548    0.077816378507635    76.821529719643      
8.41466012583241     0.078512371285459    76.8389062944589     0.985094550518363    -4.4510240540126     0.985094550518363    -4.4510240540126     0.078512371285459    76.8389062944589     
8.49193562564362     0.079214669410819    76.8555086436967     0.985011134873678    -4.49160596180837    0.985011134873678    -4.49160596180837    0.079214669410819    76.8555086436967     
8.56992078012677     0.079923326842861    76.87133654357       0.984926598262597    -4.53255427536122    0.984926598262597    -4.53255427536122    0.079923326842861    76.87133654357       
8.64862210635071     0.080638397947676    76.8863897265756     0.984840922305443    -4.57387221216272    0.984840922305443    -4.57387221216272    0.080638397947676    76.8863897265756     
8.7280461812334      0.08135993749966     76.9006678813528     0.984754088307032    -4.61556301557134    0.984754088307032    -4.61556301557134    0.08135993749966     76.9006678813528     
8.8081996420915      0.082088000682843    76.9141706525496     0.984666077251439    -4.65762995495558    0.984666077251439    -4.65762995495558    0.082088000682843    76.9141706525496     
8.88908918719505     0.082822643092137    76.9268976406911     0.984576869796602    -4.70007632583498    0.984576869796602    -4.70007632583498    0.082822643092137    76.9268976406911     
8.97072157632721     0.083563920734573    76.938848402053      0.984486446268951    -4.74290545002128    0.984486446268951    -4.74290545002128    0.083563920734573    76.938848402053      
9.05310363134923     0.084311890030447    76.9500224485384     0.984394786657856    -4.78612067575724    0.984394786657856    -4.78612067575724    0.084311890030447    76.9500224485384     
9.13624223677044     0.085066607814424    76.9604192475605     0.984301870610057    -4.82972537785449    0.984301870610057    -4.82972537785449    0.085066607814424    76.9604192475605     
9.22014434032365     0.085828131336589    76.9700382219271     0.984207677423954    -4.87372295782985    0.984207677423954    -4.87372295782985    0.085828131336589    76.9700382219271     
9.30481695354575     0.086596518263424    76.9788787497313     0.984112186043914    -4.91811684404039    0.984112186043914    -4.91811684404039    0.086596518263424    76.9788787497313     
9.3902671523636      0.087371826678732    76.986940164245      0.984015375054365    -4.96291049181644    0.984015375054365    -4.96291049181644    0.087371826678732    76.986940164245      
9.47650207768543     0.088154115084486    76.994221753817      0.983917222673893    -5.00810738359308    0.983917222673893    -5.00810738359308    0.088154115084486    76.994221753817      
9.5635289359975      0.088943442401621    77.0007227617757     0.983817706749225    -5.05371102904028    0.983817706749225    -5.05371102904028    0.088943442401621    77.0007227617757     
9.65135499996643     0.089739867970747    77.0064423863349     0.983716804749133    -5.09972496519046    0.983716804749133    -5.09972496519046    0.089739867970747    77.0064423863349     
9.73998760904689     0.090543451552787    77.011379780505      0.983614493758229    -5.14615275656452    0.983614493758229    -5.14615275656452    0.090543451552787    77.011379780505      
9.82943417009496     0.091354253329544    77.0155340520079     0.983510750470696    -5.19299799529555    0.983510750470696    -5.19299799529555    0.091354253329544    77.0155340520079     
9.91970215798714     0.092172333904196    77.0189042631958     0.983405551183934    -5.2402643012509     0.983405551183934    -5.2402643012509     0.092172333904196    77.0189042631958     
10.010799116245      0.092997754301692    77.0214894309745     0.983298871792073    -5.28795532215131    0.983298871792073    -5.28795532215131    0.092997754301692    77.0214894309745     
10.1027326576654     0.093830575969079    77.0232885267319     0.983190687779442    -5.33607473368808    0.983190687779442    -5.33607473368808    0.093830575969079    77.0232885267319     
10.1955104649572     0.094670860775734    77.0243004762697     0.983080974213936    -5.38462623963749    0.983080974213936    -5.38462623963749    0.094670860775734    77.0243004762697     
10.2891402913825     0.095518671013513    77.0245241597397     0.982969705740238    -5.43361357197313    0.982969705740238    -5.43361357197313    0.095518671013513    77.0245241597397     
10.3836299614054     0.0963740693968      77.0239584115852     0.982856856573073    -5.483040490975      0.982856856573073    -5.483040490975      0.0963740693968      77.0239584115852     
10.4789873713451     0.09723711906246     77.0226020204863     0.982742400490212    -5.53291078533592    0.982742400490212    -5.53291078533592    0.09723711906246     77.0226020204863     
10.5752204900364     0.098107883569699    77.0204537293104     0.982626310825492    -5.58322827226517    0.982626310825492    -5.58322827226517    0.098107883569699    77.0204537293104     
10.6723373594952     0.09898642689982     77.0175122350662     0.982508560461711    -5.63399679758914    0.982508560461711    -5.63399679758914    0.09898642689982     77.0175122350662     
10.7703460955911     0.09987281345586     77.0137761888645     0.982389121823405    -5.68522023584822    0.982389121823405    -5.68522023584822    0.09987281345586     77.0137761888645     
10.8692548887248     0.10076710806214     77.0092441958812     0.982267966869559    -5.73690249039109    0.982267966869559    -5.73690249039109    0.10076710806214     77.0092441958812     
10.9690720045133     0.101669375963683    77.0039148153271     0.982145067086214    -5.78904749346521    0.982145067086214    -5.78904749346521    0.101669375963683    77.0039148153271     
11.0698057844805     0.102579682825526    76.9977865604217     0.982020393478966    -5.84165920630376    0.982020393478966    -5.84165920630376    0.102579682825526    76.9977865604217     
11.1714646467538     0.103498094731904    76.9908578983732     0.981893916565361    -5.89474161920864    0.981893916565361    -5.89474161920864    0.103498094731904    76.9908578983732     
11.2740570867682     0.104424678185321    76.9831272503616     0.981765606367232    -5.94829875163003    0.981765606367232    -5.94829875163003    0.104424678185321    76.9831272503616     
11.377591677976      0.105359500105477    76.9745929915292     0.981635432402879    -6.00233465224164    0.981635432402879    -6.00233465224164    0.105359500105477    76.9745929915292     
11.482077072563      0.106302627828084    76.965253450975      0.981503363679211    -6.05685339901196    0.981503363679211    -6.05685339901196    0.106302627828084    76.965253450975      
11.5875220021721     0.107254129103523    76.9551069117555     0.98136936868373     -6.11185909927057    0.98136936868373     -6.11185909927057    0.107254129103523    76.9551069117555     
11.6939352786326     0.108214072095382    76.9441516108897     0.981233415376476    -6.16735588977143    0.981233415376476    -6.16735588977143    0.108214072095382    76.9441516108897     
11.8013257946966     0.109182525378835    76.932385739372      0.981095471181815    -6.22334793674953    0.981095471181815    -6.22334793674953    0.109182525378835    76.932385739372      
11.9097025247823     0.11015955793888     76.9198074421883     0.980955502980148    -6.27983943597446    0.980955502980148    -6.27983943597446    0.11015955793888     76.9198074421883     
12.0190745257238     0.111145239168418    76.9064148183404     0.980813477099553    -6.3368346127978     0.980813477099553    -6.3368346127978     0.111145239168418    76.9064148183404     
12.1294509375283     0.112139638866186    76.8922059208746     0.980669359307287    -6.39433772219635    0.980669359307287    -6.39433772219635    0.112139638866186    76.8922059208746     
12.2408409841394     0.113142827234509    76.8771787569178     0.98052311480116     -6.45235304880877    0.98052311480116     -6.45235304880877    0.113142827234509    76.8771787569178     
12.3532539742083     0.114154874876909    76.8613312877193     0.980374708200928    -6.51088490696826    0.980374708200928    -6.51088490696826    0.114154874876909    76.8613312877193     
12.4666993018718     0.115175852795517    76.8446614286993     0.980224103539423    -6.56993764072786    0.980224103539423    -6.56993764072786    0.115175852795517    76.8446614286993     
12.5811864475369     0.116205832388328    76.8271670495039     0.980071264253715    -6.62951562388129    0.980071264253715    -6.62951562388129    0.116205832388328    76.8271670495039     
12.6967249786734     0.117244885446267    76.8088459740672     0.979916153176118    -6.68962325997677    0.979916153176118    -6.68962325997677    0.117244885446267    76.8088459740672     
12.8133245506133     0.118293084150059    76.7896959806806     0.979758732525062    -6.75026498232419    0.979758732525062    -6.75026498232419    0.118293084150059    76.7896959806806     
12.930994907358      0.119350501066936    76.769714802068      0.979598963895989    -6.8114452539978     0.979598963895989    -6.8114452539978     0.119350501066936    76.769714802068      
13.049745882392      0.120417209147099    76.7489001254702     0.979436808251976    -6.87316856782907    0.979436808251976    -6.87316856782907    0.120417209147099    76.7489001254702     
13.1695873995051     0.12149328172003     76.7272495927354     0.979272225914417    -6.93543944639548    0.979272225914417    -6.93543944639548    0.12149328172003     76.7272495927354     
13.2905294736217     0.122578792490553    76.7047608004177     0.979105176553514    -6.99826244200034    0.979105176553514    -6.99826244200034    0.122578792490553    76.7047608004177     
13.4125822116374     0.123673815534705    76.6814312998847     0.978935619178695    -7.06164213664561    0.978935619178695    -7.06164213664561    0.123673815534705    76.6814312998847     
13.5357558132641     0.124778425295379    76.6572585974311     0.978763512128951    -7.12558314199771    0.978763512128951    -7.12558314199771    0.124778425295379    76.6572585974311     
13.6600605718819     0.12589269657774     76.6322401544021     0.978588813063066    -7.19009009934464    0.978588813063066    -7.19009009934464    0.12589269657774     76.6322401544021     
13.7855068753996     0.127016704544414    76.6063733873257     0.978411478949743    -7.25516767954547    0.978411478949743    -7.25516767954547    0.127016704544414    76.6063733873257     
13.9121052071227     0.128150524710424    76.579655668052      0.97823146605764     -7.320820582971      0.97823146605764     -7.320820582971      0.128150524710424    76.579655668052      
14.0398661466295     0.129294232937911    76.5520843239034     0.978048729945337    -7.38705353943662    0.978048729945337    -7.38705353943662    0.129294232937911    76.5520843239034     
14.1688003706551     0.130447905430572    76.5236566378328     0.977863225451189    -7.45387130812528    0.977863225451189    -7.45387130812528    0.130447905430572    76.5236566378328     
14.2989186539838     0.131611618727858    76.4943698485916     0.977674906683083    -7.52127867750221    0.977674906683083    -7.52127867750221    0.131611618727858    76.4943698485916     
14.4302318703494     0.132785449698903    76.464221150908      0.977483727008101    -7.58928046521915    0.977483727008101    -7.58928046521915    0.132785449698903    76.464221150908      
14.562750993344      0.13396947553619     76.4332076956739     0.977289639042161    -7.65788151801045    0.977289639042161    -7.65788151801045    0.13396947553619     76.4332076956739     
14.6964870973349     0.13516377374892     76.4013265901436     0.977092594639481    -7.7270867115774     0.977092594639481    -7.7270867115774     0.13516377374892     76.4013265901436     
14.8314513583903     0.136368422156125    76.3685748981418     0.976892544882021    -7.7969009504638     0.976892544882021    -7.7969009504638     0.136368422156125    76.3685748981418     
14.9676550552131     0.137583498879462    76.3349496402827     0.976689440068821    -7.86732916792001    0.976689440068821    -7.86732916792001    0.137583498879462    76.3349496402827     
15.1051095700832     0.138809082335718    76.300447794201      0.976483229705261    -7.93837632575618    0.976483229705261    -7.93837632575618    0.138809082335718    76.300447794201      
15.2438263898093     0.140045251229017    76.2650662947924     0.976273862492246    -8.01004741418523    0.976273862492246    -8.01004741418523    0.140045251229017    76.2650662947924     
15.3838171066882     0.141292084542698    76.2288020344678     0.976061286315323    -8.08234745165297    0.976061286315323    -8.08234745165297    0.141292084542698    76.2288020344678     
15.525093419474      0.14254966153089     76.1916518634175     0.975845448233722    -8.1552814846578     0.975845448233722    -8.1552814846578     0.14254966153089     76.1916518634175     
15.6676671343556     0.143818061709732    76.1536125898893     0.975626294469313    -8.22885458755695    0.975626294469313    -8.22885458755695    0.143818061709732    76.1536125898893     
15.811550165943      0.145097364848279    76.114680980478      0.975403770395518    -8.30307186236116    0.975403770395518    -8.30307186236116    0.145097364848279    76.114680980478      
15.9567545382637     0.146387650959055    76.0748537604282     0.975177820526154    -8.37793843851648    0.975177820526154    -8.37793843851648    0.146387650959055    76.0748537604282     
16.1032923857667     0.147689000288249    76.0341276139501     0.974948388504204    -8.45345947267215    0.974948388504204    -8.45345947267215    0.147689000288249    76.0341276139501     
16.2511759543373     0.149001493305552    75.9924991845491     0.974715417090544    -8.52964014843624    0.974715417090544    -8.52964014843624    0.149001493305552    75.9924991845491     
16.4004176023197     0.150325210693629    75.9499650753691     0.974478848152628    -8.60648567611645    0.974478848152628    -8.60648567611645    0.150325210693629    75.9499650753691     
16.5510298015505     0.151660233337204    75.90652184955       0.974238622653062    -8.68400129244658    0.974238622653062    -8.68400129244658    0.151660233337204    75.90652184955       
16.7030251384006     0.153006642311762    75.8621660305997     0.973994680638241    -8.76219226029928    0.973994680638241    -8.76219226029928    0.153006642311762    75.8621660305997     
16.856416314827      0.154364518871864    75.8168941027814     0.973746961226835    -8.84106386838307    0.973746961226835    -8.84106386838307    0.154364518871864    75.8168941027814     
17.0112161494341     0.155733944439042    75.7707025115153     0.973495402598304    -8.9206214309247     0.973495402598304    -8.9206214309247     0.155733944439042    75.7707025115153     
17.1674375785455     0.157115000589294    75.7235876637971     0.973239941981384    -9.0008702873345     0.973239941981384    -9.0008702873345     0.157115000589294    75.7235876637971     
17.3250936572844     0.158507769040146    75.6755459286321     0.972980515642467    -9.08181580185722    0.972980515642467    -9.08181580185722    0.158507769040146    75.6755459286321     
17.4841975606652     0.159912331637299    75.6265736374852     0.972717058874086    -9.16346336320519    0.972717058874086    -9.16346336320519    0.159912331637299    75.6265736374852     
17.644762584694      0.161328770340812    75.5766670847488     0.972449505983257    -9.24581838417433    0.972449505983257    -9.24581838417433    0.161328770340812    75.5766670847488     
17.80680214748       0.162757167210863    75.5258225282266     0.972177790279916    -9.32888630124451    0.972177790279916    -9.32888630124451    0.162757167210863    75.5258225282266     
17.9703297903566     0.164197604393027    75.4740361896367     0.971901844065267    -9.41267257415957    0.971901844065267    -9.41267257415957    0.164197604393027    75.4740361896367     
18.1353591790136     0.165650164103097    75.4213042551314     0.971621598620162    -9.49718268549131    0.971621598620162    -9.49718268549131    0.165650164103097    75.4213042551314     
18.3019041046383     0.167114928611426    75.3676228758361     0.97133698419353     -9.58242214018322    0.97133698419353     -9.58242214018322    0.167114928611426    75.3676228758361     
18.4699784850688     0.168591980226787    75.3129881684071     0.971047929990751    -9.66839646507669    0.971047929990751    -9.66839646507669    0.168591980226787    75.3129881684071     
18.6395963659568     0.170081401279718    75.2573962156085     0.970754364162088    -9.75511120841606    0.970754364162088    -9.75511120841606    0.170081401279718    75.2573962156085     
18.8107719219411     0.171583274105379    75.2008430669095     0.970456213791132    -9.84257193933437    0.970456213791132    -9.84257193933437    0.171583274105379    75.2008430669095     
18.9835194578327     0.173097681025885    75.1433247391009     0.970153404883338    -9.9307842473194     0.970153404883338    -9.9307842473194     0.173097681025885    75.1433247391009     
19.1578534098097     0.174624704332105    75.0848372169342     0.969845862354488    -10.019753741657     0.969845862354488    -10.019753741657     0.174624704332105    75.0848372169342     
19.3337883466241     0.176164426264938    75.0253764537792     0.96953351001934     -10.1094860508548    0.96953351001934     -10.1094860508548    0.176164426264938    75.0253764537792     
19.511338970819      0.177716928996032    74.9649383723061     0.96921627058023     -10.1999868220427    0.96921627058023     -10.1999868220427    0.177716928996032    74.9649383723061     
19.6905201199574     0.179282294607948    74.9035188651872     0.968894065615813    -10.2912617203521    0.968894065615813    -10.2912617203521    0.179282294607948    74.9035188651872     
19.8713467678622     0.180860605073763    74.8411137958234     0.968566815569849    -10.3833164282712    0.968566815569849    -10.3833164282712    0.180860605073763    74.8411137958234     
20.0538340258673     0.18245194223609     74.777718999092      0.968234439740084    -10.4761566449775    0.968234439740084    -10.4761566449775    0.18245194223609     74.777718999092      
20.2379971440808     0.184056387785511    74.7133302821196     0.967896856267227    -10.5697880856468    0.967896856267227    -10.5697880856468    0.184056387785511    74.7133302821196     
20.423851512659      0.185674023238415    74.6479434250775     0.967553982124052    -10.6642164807368    0.967553982124052    -10.6642164807368    0.185674023238415    74.6479434250775     
20.6114126630928     0.187304929914242    74.5815541820029     0.967205733104598    -10.7594475752472    0.967205733104598    -10.7594475752472    0.187304929914242    74.5815541820029     
20.8006962695056     0.188949188912076    74.5141582816453     0.966852023813486    -10.8554871279527    0.966852023813486    -10.8554871279527    0.188949188912076    74.5141582816453     
20.9917181499631     0.190606881086643    74.4457514283376     0.966492767655426    -10.9523409106117    0.966492767655426    -10.9523409106117    0.190606881086643    74.4457514283376     
21.1844942677952     0.192278087023671    74.3763293028934     0.966127876824854    -11.0500147071479    0.966127876824854    -11.0500147071479    0.192278087023671    74.3763293028934     
21.37904073293       0.193962887014571    74.3058875635323     0.965757262295673    -11.1485143128046    0.965757262295673    -11.1485143128046    0.193962887014571    74.3058875635323     
21.5753738032402     0.195661361030507    74.2344218468304     0.96538083381131     -11.2478455332723    0.96538083381131     -11.2478455332723    0.195661361030507    74.2344218468304     
21.7735098859015     0.197373588695758    74.1619277686998     0.964998499874828    -11.3480141837876    0.964998499874828    -11.3480141837876    0.197373588695758    74.1619277686998     
21.9734655387641     0.19909964926043     74.0884009253963     0.964610167739295    -11.4490260882036    0.964610167739295    -11.4490260882036    0.19909964926043     74.0884009253963     
22.1752574717359     0.200839621572477    74.0138368945551     0.964215743398412    -11.5508870780319    0.964215743398412    -11.5508870780319    0.200839621572477    74.0138368945551     
22.3789025481793     0.202593584049012    73.9382312362565     0.963815131577297    -11.6536029914541    0.963815131577297    -11.6536029914541    0.202593584049012    73.9382312362565     
22.5844177863204     0.204361614646941    73.8615794941209     0.963408235723587    -11.7571796723037    0.963408235723587    -11.7571796723037    0.204361614646941    73.8615794941209     
22.791820360671      0.206143790832853    73.7838771964345     0.962994957998759    -11.861622969017     0.962994957998759    -11.861622969017     0.206143790832853    73.7838771964345     
23.001127603464      0.20794018955221     73.7051198573064     0.96257519926973     -11.9669387335527    0.96257519926973     -11.9669387335527    0.20794018955221     73.7051198573064     
23.2123570061017     0.209750887197799    73.6253029778556     0.962148859100801    -12.0731328202805    0.962148859100801    -12.0731328202805    0.209750887197799    73.6253029778556     
23.4255262206177     0.211575959577432    73.5444220474314     0.961715835745833    -12.1802110848355    0.961715835745833    -12.1802110848355    0.211575959577432    73.5444220474314     
23.6406530611518     0.213415481880914    73.4624725448661     0.961276026140833    -12.288179382942     0.961276026140833    -12.288179382942     0.213415481880914    73.4624725448661     
23.857755505439      0.215269528646261    73.3794499397601     0.960829325896858    -12.3970435692024    0.960829325896858    -12.3970435692024    0.215269528646261    73.3794499397601     
24.0768516963114     0.217138173725111    73.2953496938011     0.960375629293223    -12.5068094958521    0.960375629293223    -12.5068094958521    0.217138173725111    73.2953496938011     
24.2979599432151     0.219021490247424    73.2101672621178     0.959914829271218    -12.617483011481     0.959914829271218    -12.617483011481     0.219021490247424    73.2101672621178     
24.5210987237394     0.220919550585354    73.123898094667      0.959446817428113    -12.7290699597189    0.959446817428113    -12.7290699597189    0.220919550585354    73.123898094667      
24.7462866851616     0.222832426316352    73.0365376376574     0.958971484011631    -12.8415761778853    0.958971484011631    -12.8415761778853    0.222832426316352    73.0365376376574     
24.9735426460051     0.22476018818549     72.9480813350077     0.958488717914899    -12.9550074956045    0.958488717914899    -12.9550074956045    0.22476018818549     72.9480813350077     
25.2028855976119     0.226702906066963    72.8585246298422     0.957998406671795    -13.0693697333821    0.957998406671795    -13.0693697333821    0.226702906066963    72.8585246298422     
25.4343347057299     0.228660648924798    72.7678629660227     0.957500436452811    -13.1846687011457    0.957500436452811    -13.1846687011457    0.228660648924798    72.7678629660227     
25.6679093121144     0.230633484772756    72.6760917897163     0.956994692061454    -13.3009101967478    0.956994692061454    -13.3009101967478    0.230633484772756    72.6760917897163     
25.9036289361445     0.232621480633411    72.5832065510035     0.956481056931127    -13.4181000044303    0.956481056931127    -13.4181000044303    0.232621480633411    72.5832065510035     
26.1415132764543     0.234624702496417    72.4892027055225     0.955959413122578    -13.5362438932501    0.955959413122578    -13.5362438932501    0.234624702496417    72.4892027055225     
26.381582212579      0.23664321527596     72.3940757161525     0.955429641321964    -13.6553476154669    0.955429641321964    -13.6553476154669    0.23664321527596     72.3940757161525     
26.6238558066162     0.238677082767352    72.297821054737      0.954891620839431    -13.7754169048892    0.954891620839431    -13.7754169048892    0.238677082767352    72.297821054737      
26.8683543049028     0.24072636760283     72.2004342038467     0.95434522960838     -13.896457475182     0.95434522960838     -13.896457475182     0.24072636760283     72.2004342038467     
27.1150981397063     0.242791131206529    72.1019106585805     0.953790344185416    -14.0184750181349    0.953790344185416    -14.0184750181349    0.242791131206529    72.1019106585805     
27.3641079309328     0.244871433748576    72.0022459284104     0.953226839750847    -14.1414752018855    0.953226839750847    -14.1414752018855    0.244871433748576    72.0022459284104     
27.6154044878501     0.246967334098401    71.9014355390638     0.952654590110018    -14.2654636691057    0.952654590110018    -14.2654636691057    0.246967334098401    71.9014355390638     
27.8690088108264     0.249078889777194    71.7994750344503     0.952073467695282    -14.3904460351437    0.952073467695282    -14.3904460351437    0.249078889777194    71.7994750344503     
28.1249420930855     0.25120615690953     71.696359978627      0.951483343568771    -14.5164278861252    0.951483343568771    -14.5164278861252    0.25120615690953     71.696359978627      
28.383225722478      0.253349190174164    71.5920859578091     0.950884087425916    -14.6434147770109    0.950884087425916    -14.6434147770109    0.253349190174164    71.5920859578091     
28.6438812832684     0.255508042754005    71.4866485824209     0.950275567599803    -14.771412229612     0.950275567599803    -14.771412229612     0.255508042754005    71.4866485824209     
28.9069305579387     0.257682766285251    71.3800434891896     0.949657651066348    -14.9004257305624    0.949657651066348    -14.9004257305624    0.257682766285251    71.3800434891896     
29.1723955290092     0.259873410805723    71.2722663432834     0.949030203450339    -15.0304607292472    0.949030203450339    -15.0304607292472    0.259873410805723    71.2722663432834     
29.4402983808754     0.262080024702367    71.1633128404913     0.948393089032387    -15.1615226356878    0.948393089032387    -15.1615226356878    0.262080024702367    71.1633128404913     
29.7106615016613     0.264302654657948    71.0531787094486     0.94774617075678     -15.2936168183821    0.94774617075678     -15.2936168183821    0.264302654657948    71.0531787094486     
29.9835074850914     0.266541345596951    70.9418597139041     0.947089310240294    -15.4267486021017    0.947089310240294    -15.4267486021017    0.266541345596951    70.9418597139041     
30.2588591323778     0.268796140630685    70.8293516550324     0.946422367782022    -15.5609232656436    0.946422367782022    -15.5609232656436    0.268796140630685    70.8293516550324     
30.5367394541264     0.2710670810016      70.7156503737906     0.945745202374173    -15.6961460395381    0.945745202374173    -15.6961460395381    0.2710670810016      70.7156503737906     
30.8171716722594     0.273354206026816    70.6007517533191     0.945057671713932    -15.8324221037106    0.945057671713932    -15.8324221037106    0.273354206026816    70.6007517533191     
31.100179221956      0.275657553040923    70.4846517213865     0.94435963221642     -15.9697565851003    0.94435963221642     -15.9697565851003    0.275657553040923    70.4846517213865     
31.385785753611      0.277977157337988    70.3673462528802     0.943650939028703    -16.1081545552318    0.943650939028703    -16.1081545552318    0.277977157337988    70.3673462528802     
31.6740151348111     0.280313052112873    70.2488313723399     0.942931446045053    -16.2476210277442    0.942931446045053    -16.2476210277442    0.280313052112873    70.2488313723399     
31.9648914523294     0.282665268401783    70.1291031565375     0.942201005923245    -16.3881609558722    0.942201005923245    -16.3881609558722    0.282665268401783    70.1291031565375     
32.2584390141385     0.285033835022156    70.0081577371002     0.94145947010216     -16.5297792298852    0.94145947010216     -16.5297792298852    0.285033835022156    70.0081577371002     
32.5546823514414     0.287418778511831    69.8859913031794     0.940706688820598    -16.6724806744789    0.940706688820598    -16.6724806744789    0.287418778511831    69.8859913031794     
32.8536462207224     0.289820123067576    69.7626001041625     0.939942511137329    -16.8162700461236    0.939942511137329    -16.8162700461236    0.289820123067576    69.7626001041625     
33.1553556058148     0.292237890482951    69.6379804524306     0.939166784952496    -16.9611520303668    0.939166784952496    -16.9611520303668    0.292237890482951    69.6379804524306     
33.4598357199899     0.294672100085578    69.5121287261588     0.93837935703034     -17.1071312390936    0.93837935703034     -17.1071312390936    0.294672100085578    69.5121287261588     
33.767112008063      0.297122768673767    69.3850413721611     0.937580073023247    -17.2542122077384    0.937580073023247    -17.2542122077384    0.297122768673767    69.3850413721611     
34.0772101485207     0.299589910452623    69.2567149087788     0.936768777497294    -17.4023993924582    0.936768777497294    -17.4023993924582    0.299589910452623    69.2567149087788     
34.3901560556661     0.30207353696956     69.1271459288125     0.935945313959095    -17.5516971672573    0.935945313959095    -17.5516971672573    0.30207353696956     69.1271459288125     
34.7059758817846     0.304573657049347    68.9963311024948     0.935109524884276    -17.7021098210727    0.935109524884276    -17.7021098210727    0.304573657049347    68.9963311024948     
35.0246960193297     0.307090276728617    68.8642671805082     0.934261251747271    -17.8536415548137    0.934261251747271    -17.8536415548137    0.307090276728617    68.8642671805082     
35.3463431031282     0.309623399189978    68.7309509970426     0.9334003350528      -18.0062964783623    0.9334003350528      -18.0062964783623    0.309623399189978    68.7309509970426     
35.6709440126061     0.312173024695675    68.5963794728948     0.932526614368847    -18.1600786075294    0.932526614368847    -18.1600786075294    0.312173024695675    68.5963794728948     
35.998525874035      0.314739150520865    68.4605496186089     0.931639928361191    -18.3149918609708    0.931639928361191    -18.3149918609708    0.314739150520865    68.4605496186089     
36.3291160627989     0.317321770886581    68.323458537656      0.930740114829633    -18.471040057064     0.930740114829633    -18.471040057064     0.317321770886581    68.323458537656      
36.6627422056818     0.319920876892366    68.1851034296533     0.929827010745839    -18.6282269107436    0.929827010745839    -18.6282269107436    0.319920876892366    68.1851034296533     
36.9994321831767     0.322536456448665    68.0454815936209     0.928900452292886    -18.7865560303002    0.928900452292886    -18.7865560303002    0.322536456448665    68.0454815936209     
37.3392141318152     0.325168494208992    67.9045904312776     0.927960274906506    -18.9460309141392    0.927960274906506    -18.9460309141392    0.325168494208992    67.9045904312776     
37.682116446519      0.327816971501928    67.7624274503706     0.927006313318073    -19.1066549475044    0.927006313318073    -19.1066549475044    0.327816971501928    67.7624274503706     
38.0281677829728     0.330481866262996    67.6189902680437     0.926038401599366    -19.2684313991646    0.926038401599366    -19.2684313991646    0.330481866262996    67.6189902680437     
38.3773970600189     0.333163152966492    67.4742766142359     0.925056373209164    -19.4313634180678    0.925056373209164    -19.4313634180678    0.333163152966492    67.4742766142359     
38.7298334620742     0.335860802557246    67.3282843351169     0.924060061041575    -19.5954540299582    0.924060061041575    -19.5954540299582    0.335860802557246    67.3282843351169     
39.0855064415685     0.338574782382471    67.1810113965526     0.923049297476304    -19.7607061339646    0.923049297476304    -19.7607061339646    0.338574782382471    67.1810113965526     
39.4444457214063     0.341305056123676    67.0324558875997     0.922023914430766    -19.927122499156     0.922023914430766    -19.927122499156     0.341305056123676    67.0324558875997     
39.8066812974506     0.344051583728744    66.8826160240325     0.920983743414046    -20.0947057610683    0.920983743414046    -20.0947057610683    0.344051583728744    66.8826160240325     
40.1722434410293     0.346814321344206    66.7314901518947     0.919928615582847    -20.2634584182023    0.919928615582847    -20.2634584182023    0.346814321344206    66.7314901518947     
40.5411627014654     0.349593221247818    66.5790767510776     0.918858361799329    -20.4333828284973    0.918858361799329    -20.4333828284973    0.349593221247818    66.5790767510776     
40.9134699086294     0.352388231781455    66.4253744389235     0.917772812690907    -20.6044812057777    0.917772812690907    -20.6044812057777    0.352388231781455    66.4253744389235     
41.2891961755163     0.355199297284429    66.2703819738503     0.916671798712043    -20.7767556161786    0.916671798712043    -20.7767556161786    0.355199297284429    66.2703819738503     
41.6683729008448     0.358026358027279    66.114098258997      0.915555150207992    -20.9502079745496    0.915555150207992    -20.9502079745496    0.358026358027279    66.114098258997      
42.0510317716824     0.360869350146108    65.9565223458896     0.91442269748056     -21.1248400408389    0.91442269748056     -21.1248400408389    0.360869350146108    65.9565223458896     
42.4372047660922     0.363728205577566    65.7976534381199     0.91327427085592     -21.3006534164625    0.91327427085592     -21.3006534164625    0.363728205577566    65.7976534381199     
42.8269241558062     0.366602851994492    65.6374908950424     0.912109700754334    -21.4776495406556    0.912109700754334    -21.4776495406556    0.366602851994492    65.6374908950424     
43.2202225089217     0.369493212742384    65.4760342354823     0.910928817762046    -21.6558296868141    0.910928817762046    -21.6558296868141    0.369493212742384    65.4760342354823     
43.6171326926231     0.372399206776686    65.3132831414515     0.909731452705093    -21.8351949588239    0.909731452705093    -21.8351949588239    0.372399206776686    65.3132831414515     
44.0176878759283     0.375320748601036    65.1492374618756     0.908517436725209    -22.0157462873828    0.908517436725209    -22.0157462873828    0.375320748601036    65.1492374618756     
44.4219215324611     0.378257748206547    64.9838972163229     0.907286601357779    -22.1974844263182    0.907286601357779    -22.1974844263182    0.378257748206547    64.9838972163229     
44.8298674432481     0.381210111012174    64.8172625987367     0.90603877861177     -22.3804099488999    0.90603877861177     -22.3804099488999    0.381210111012174    64.8172625987367     
45.2415596995416     0.384177737806298    64.6493339811689     0.90477380105175     -22.5645232441539    0.90477380105175     -22.5645232441539    0.384177737806298    64.6493339811689     
45.6570327056691     0.387160524689597    64.4801119175077     0.903491501881905    -22.7498245131798    0.903491501881905    -22.7498245131798    0.387160524689597    64.4801119175077     
46.0763211819078     0.390158363019299    64.3095971472012     0.90219171503208     -22.9363137654718    0.90219171503208     -22.9363137654718    0.390158363019299    64.3095971472012     
46.4994601673866     0.393171139354889    64.1377905989718     0.900874275245796    -23.12399081525      0.900874275245796    -23.12399081525      0.393171139354889    64.1377905989718     
46.9264850230139     0.396198735405417    63.9646933945181     0.899539018170298    -23.3128552778027    0.899539018170298    -23.3128552778027    0.396198735405417    63.9646933945181     
47.3574314344327     0.39924102797844     63.7903068522014     0.898185780448511    -23.502906565843     0.898185780448511    -23.502906565843     0.39924102797844     63.7903068522014     
47.792335415003      0.402297888930736    63.6146324907149     0.896814399812994    -23.6941438858846    0.896814399812994    -23.6941438858846    0.402297888930736    63.6146324907149     
48.2312333088112     0.405369185120897    63.4376720327287     0.895424715181773    -23.8865662346386    0.895424715181773    -23.8865662346386    0.405369185120897    63.4376720327287     
48.6741617937071     0.408454778363856    63.2594274085119     0.894016566756078    -24.0801723954353    0.894016566756078    -24.0801723954353    0.408454778363856    63.2594274085119     
49.1211578843696     0.411554525387483    63.0799007595251     0.892589796119929    -24.2749609346736    0.892589796119929    -24.2749609346736    0.411554525387483    63.0799007595251     
49.5722589353992     0.414668277791358    62.8990944419792     0.891144246341545    -24.4709301983044    0.891144246341545    -24.4709301983044    0.414668277791358    62.8990944419792     
50.0275026444402     0.417795882007807    62.717011030359      0.889679762076546    -24.6680783083481    0.889679762076546    -24.6680783083481    0.417795882007807    62.717011030359      
50.4869270553309     0.420937179265287    62.5336533209076     0.888196189672824    -24.8664031594523    0.888196189672824    -24.8664031594523    0.420937179265287    62.5336533209076     
50.9505705612826     0.424092005554287    62.3490243350644     0.886693377277217    -25.0659024154938    0.886693377277217    -25.0659024154938    0.424092005554287    62.3490243350644     
51.4184719080883     0.427260191595767    62.1631273228585     0.885171174943676    -25.2665735062264    0.885171174943676    -25.2665735062264    0.427260191595767    62.1631273228585     
51.8906701973606     0.430441562812311    61.975965766247      0.883629434743145    -25.4684136239819    0.883629434743145    -25.4684136239819    0.430441562812311    61.975965766247      
52.3672048897993     0.433635939302056    61.7875433823994     0.882068010874859    -25.671419720426     0.882068010874859    -25.671419720426     0.433635939302056    61.7875433823994     
52.8481158084889     0.436843135815511    61.5978641269213     0.88048675977914     -25.8755885033734    0.88048675977914     -25.8755885033734    0.436843135815511    61.5978641269213     
53.3334431422269     0.440062961735399    61.4069321970125     0.878885540251592    -26.0809164336687    0.878885540251592    -26.0809164336687    0.440062961735399    61.4069321970125     
53.8232274488819     0.443295221059542    61.2147520345598     0.877264213558547    -26.2873997221326    0.877264213558547    -26.2873997221326    0.443295221059542    61.2147520345598     
54.3175096587832     0.446539712387049    61.0213283291508     0.875622643553841    -26.4950343265854    0.875622643553841    -26.4950343265854    0.446539712387049    61.0213283291508     
54.8163310781411     0.449796228907686    60.8266660210178     0.873960696796618    -26.7038159489414    0.873960696796618    -26.7038159489414    0.449796228907686    60.8266660210178     
55.3197333924991     0.453064558394782    60.6307703038911     0.872278242670354    -26.9137400323921    0.872278242670354    -26.9137400323921    0.453064558394782    60.6307703038911     
55.8277586702171     0.456344483201538    60.4336466277752     0.870575153502711    -27.1248017586687    0.870575153502711    -27.1248017586687    0.456344483201538    60.4336466277752     
56.340449365987      0.459635780260999    60.2353007016257     0.86885130468637     -27.3369960453994    0.86885130468637     -27.3369960453994    0.459635780260999    60.2353007016257     
56.8578483243809     0.462938221089702    60.0357384959367     0.867106574800619    -27.55031754356      0.867106574800619    -27.55031754356      0.462938221089702    60.0357384959367     
57.3799987834314     0.466251571795152    59.8349662452239     0.865340845733614    -27.7647606350259    0.865340845733614    -27.7647606350259    0.466251571795152    59.8349662452239     
57.9069443782443     0.469575593087139    59.6329904504057     0.863554002805216    -27.9803194302261    0.863554002805216    -27.9803194302261    0.469575593087139    59.6329904504057     
58.4387291446464     0.472910040293055    59.4298178810748     0.861745934890293    -28.196987765907     0.861745934890293    -28.196987765907     0.472910040293055    59.4298178810748     
58.9753975228642     0.476254663377296    59.2254555776538     0.859916534542386    -28.4147592030115    0.859916534542386    -28.4147592030115    0.476254663377296    59.2254555776538     
59.5169943612384     0.479609206964759    59.0199108534347     0.858065698117548    -28.6336270246732    0.858065698117548    -28.6336270246732    0.479609206964759    59.0199108534347     
60.0635649199715     0.4829734103686      58.813191296495      0.856193325898326    -28.8535842343347    0.856193325898326    -28.8535842343347    0.4829734103686      58.813191296495      
60.6151548749104     0.486347007622294    58.6053047714842     0.854299322217706    -29.0746235539941    0.854299322217706    -29.0746235539941    0.486347007622294    58.6053047714842     
61.171810321363      0.48972972751606     58.3962594212797     0.852383595582904    -29.2967374225821    0.852383595582904    -29.2967374225821    0.48972972751606     58.3962594212797     
61.7335777779508     0.493121293637721    58.1860636685074     0.850446058798822    -29.5199179944749    0.850446058798822    -29.5199179944749    0.493121293637721    58.1860636685074     
62.300504190496      0.496521424418089    57.9747262169176     0.848486629091101    -29.7441571381494    0.848486629091101    -29.7441571381494    0.496521424418089    57.9747262169176     
62.8726369359447     0.499929833180896    57.7622560526191     0.846505228228606    -29.9694464349818    0.846505228228606    -29.9694464349818    0.499929833180896    57.7622560526191     
63.4500238263266     0.503346228197385    57.5486624451594     0.844501782645145    -30.1957771781983    0.844501782645145    -30.1957771781983    0.503346228197385    57.5486624451594     
64.0327131127494     0.506770312745506    57.3339549484561     0.842476223560332    -30.4231403719753    0.842476223560332    -30.4231403719753    0.506770312745506    57.3339549484561     
64.6207534894326     0.510201785173901    57.1181434015641     0.840428487099408    -30.6515267307029    0.840428487099408    -30.6515267307029    0.510201785173901    57.1181434015641     
65.2141940977755     0.513640338970569    56.9012379292857     0.838358514411913    -30.8809266784045    0.838358514411913    -30.8809266784045    0.513640338970569    56.9012379292857     
65.8130845304645     0.517085662836378    56.68324894261       0.836266251788954    -31.1113303483276    0.836266251788954    -31.1113303483276    0.517085662836378    56.68324894261       
66.4174748356173     0.520537440763364    56.4641871389847     0.834151650779023    -31.3427275827023    0.834151650779023    -31.3427275827023    0.520537440763364    56.4641871389847     
67.0274155209653     0.52399535211783     56.2440635024134     0.832014668302106    -31.5751079326716    0.832014668302106    -31.5751079326716    0.52399535211783     56.2440635024134     
67.6429575580745     0.527459071728353    56.0228893033747     0.829855266761976    -31.8084606584027    0.829855266761976    -31.8084606584027    0.527459071728353    56.0228893033747     
68.2641523866049     0.530928269978585    55.8006760985601     0.827673414156513    -32.0427747293757    0.827673414156513    -32.0427747293757    0.530928269978585    55.8006760985601     
68.8910519186097     0.534402612904939    55.5774357304286     0.82546908418579     -32.2780388248584    0.82546908418579     -32.2780388248584    0.534402612904939    55.5774357304286     
69.5237085428728     0.537881762299106    55.3531803265719     0.823242256357885    -32.5142413345676    0.823242256357885    -32.5142413345676    0.537881762299106    55.3531803265719     
70.1621751292874     0.541365375815403    55.1279222988905     0.82099291609218     -32.7513703595209    0.82099291609218     -32.7513703595209    0.541365375815403    55.1279222988905     
70.8065050332739     0.544853107082933    54.9016743425742     0.818721054819936    -32.9894137130819    0.818721054819936    -32.9894137130819    0.544853107082933    54.9016743425742     
71.456752100239      0.548344605822497    54.6744494348908     0.816426670082085    -33.2283589221991    0.816426670082085    -33.2283589221991    0.548344605822497    54.6744494348908     
72.1129706700753     0.551839517968274    54.4462608337706     0.814109765623938    -33.468193228846     0.814109765623938    -33.468193228846     0.551839517968274    54.4462608337706     
72.775215581702      0.55533748579419     54.2171220761935     0.811770351486794    -33.7089035916604    0.811770351486794    -33.7089035916604    0.55533748579419     54.2171220761935     
73.4435421776486     0.558838148044893    53.9870469763731     0.809408444096108    -33.950476687785     0.809408444096108    -33.950476687785     0.558838148044893    53.9870469763731     
74.1180063086786     0.562341140071342    53.7560496237352     0.807024066346185    -34.1928989149132    0.807024066346185    -34.1928989149132    0.562341140071342    53.7560496237352     
74.7986643384582     0.565846093970891    53.52414438069       0.80461724768119     -34.436156393542     0.80461724768119     -34.436156393542     0.565846093970891    53.52414438069       
75.4855731482651     0.569352638731765    53.2913458801984     0.80218802417228     -34.6802349694287    0.80218802417228     -34.6802349694287    0.569352638731765    53.2913458801984     
76.178790141743      0.572860400381952    53.0576690231261     0.799736438590744    -34.9251202162603    0.799736438590744    -34.9251202162603    0.572860400381952    53.0576690231261     
76.8783732496981     0.576369002142258    52.823128975393      0.797262540476962    -35.1707974385275    0.797262540476962    -35.1707974385275    0.576369002142258    52.823128975393      
77.5843809349409     0.579878064583551    52.5877411649085     0.794766386205046    -35.4172516746114    0.794766386205046    -35.4172516746114    0.579878064583551    52.5877411649085     
78.2968721971708     0.58338720578802     52.3515212782991     0.792248039043004    -35.6644677000786    0.792248039043004    -35.6644677000786    0.58338720578802     52.3515212782991     
79.0159065779079     0.586896041514347    52.1144852574233     0.789707569208266    -35.9124300311871    0.789707569208266    -35.9124300311871    0.586896041514347    52.1144852574233     
79.7415441654676     0.590404185366661    51.8766492956786     0.787145053918462    -36.1611229286013    0.787145053918462    -36.1611229286013    0.590404185366661    51.8766492956786     
80.4738455999826     0.593911248967121    51.6380298340982     0.784560577437269    -36.4105304013158    0.784560577437269    -36.4105304013158    0.593911248967121    51.6380298340982     
81.2128720784708     0.597416842132026    51.3986435572371     0.781954231115235    -36.6606362107891    0.781954231115235    -36.6606362107891    0.597416842132026    51.3986435572371     
81.9586853599486     0.600920573051231    51.158507388856      0.77932611342542     -36.9114238752809    0.77932611342542     -36.9114238752809    0.600920573051231    51.158507388856      
82.7113477705926     0.604422048470818    50.9176384873899     0.776676329993754    -37.1628766744012    0.776676329993754    -37.1628766744012    0.604422048470818    50.9176384873899     
83.4709222089481     0.607920873878699    50.6760542412234     0.774004993623989    -37.4149776538556    0.774004993623989    -37.4149776538556    0.607920873878699    50.6760542412234     
84.2374721511849     0.611416653693153    50.4337722637532     0.771312224317116    -37.6677096303999    0.771312224317116    -37.6677096303999    0.611416653693153    50.4337722637532     
85.0110616564023     0.614908991453958    50.1908103882581     0.76859814928519     -37.9210551969891    0.76859814928519     -37.9210551969891    0.614908991453958    50.1908103882581     
85.7917553719824     0.618397490016045    49.9471866625673     0.765862902959409    -38.1749967281265    0.765862902959409    -38.1749967281265    0.618397490016045    49.9471866625673     
86.5796185389924     0.621881751745401    49.702919343536      0.763106626992409    -38.4295163854046    0.763106626992409    -38.4295163854046    0.621881751745401    49.702919343536      
87.3747169976366     0.625361378717075    49.4580268913288     0.760329470254678    -38.6845961232387    0.760329470254678    -38.6845961232387    0.625361378717075    49.4580268913288     
88.1771171927588     0.628835972915035    49.2125279635172     0.757531588824992    -38.9402176947859    0.757531588824992    -38.9402176947859    0.628835972915035    49.2125279635172     
88.9868861793949     0.632305136433725    48.9664414089894     0.754713145974877    -39.1963626580503    0.754713145974877    -39.1963626580503    0.632305136433725    48.9664414089894     
89.8040916283762     0.635768471681003    48.7197862616852     0.751874312146921    -39.4530123821632    0.751874312146921    -39.4530123821632    0.635768471681003    48.7197862616852     
90.6288018319849     0.639225581582362    48.4725817341518     0.749015264927082    -39.7101480538425    0.749015264927082    -39.7101480538425    0.639225581582362    48.4725817341518     
91.4610857096615     0.642676069786089    48.2248472109321     0.74613618901072     -39.9677506840177    0.74613618901072     -39.9677506840177    0.642676069786089    48.2248472109321     
92.3010128137631     0.646119540869245    47.9766022417834     0.743237276162546    -40.225801114626     0.743237276162546    -40.225801114626     0.646119540869245    47.9766022417834     
93.1486533353769     0.649555600544118    47.7278665347402     0.74031872517031     -40.4842800255604    0.74031872517031     -40.4842800255604    0.649555600544118    47.7278665347402     
94.0040781101857     0.652983855865001    47.4786599490199     0.737380741792312    -40.7431679417791    0.737380741792312    -40.7431679417791    0.652983855865001    47.4786599490199     
94.8673586243869     0.656403915435006    47.2290024877804     0.734423538698706    -41.0024452405581    0.734423538698706    -41.0024452405581    0.656403915435006    47.2290024877804     
95.7385670206669     0.65981538961269     46.9789142907344     0.73144733540662     -41.2620921588888    0.73144733540662     -41.2620921588888    0.65981538961269     46.9789142907344     
96.6177761042304     0.663217890718269    46.7284156266263     0.72845235820909     -41.5220888010125    0.72845235820909     -41.5220888010125    0.663217890718269    46.7284156266263     
97.5050593488835     0.666611033239102    46.4775268855823     0.725438840097873    -41.7824151460792    0.725438840097873    -41.7824151460792    0.666611033239102    46.4775268855823     
98.4004909031747     0.669994434034279    46.2262685713357     0.722407020680171    -42.0430510559337    0.722407020680171    -42.0430510559337    0.669994434034279    46.2262685713357     
99.304145596591      0.673367712538057    45.9746612933341     0.719357146089296    -42.3039762830167    0.719357146089296    -42.3039762830167    0.673367712538057    45.9746612933341     
100.216098945811     0.676730490961853    45.7227257587401     0.7162894688894      -42.5651704783724    0.7162894688894      -42.5651704783724    0.676730490961853    45.7227257587401     
101.136427161016     0.680082394494563    45.4704827643319     0.71320424797424     -42.8266131997566    0.71320424797424     -42.8266131997566    0.680082394494563    45.4704827643319     
102.06520715226      0.683423051501008    45.2179531883069     0.710101748460204    -43.0882839198398    0.710101748460204    -43.0882839198398    0.683423051501008    45.2179531883069     
103.002516535893     0.686752093718232    44.9651579819994     0.706982241573533    -43.3501620344965    0.706982241573533    -43.3501620344965    0.686752093718232    44.9651579819994     
103.948433641052     0.690069156449365    44.7121181615252     0.703846004531985    -43.6122268711665    0.703846004531985    -43.6122268711665    0.690069156449365    44.7121181615252     
104.903037516204     0.693373878754949    44.4588547993488     0.700693320420958    -43.8744576972937    0.700693320420958    -43.8744576972937    0.693373878754949    44.4588547993488     
105.866407935752     0.696665903641346    44.2053890157935     0.697524478064211    -44.1368337288199    0.697524478064211    -44.1368337288199    0.696665903641346    44.2053890157935     
106.838625406703     0.699944878246076    43.951741970498      0.694339771889393    -44.3993341387329    0.694339771889393    -44.3993341387329    0.699944878246076    43.951741970498      
107.819771175395     0.703210454019888    43.6979348538247     0.691139501788374    -44.6619380656616    0.691139501788374    -44.6619380656616    0.703210454019888    43.6979348538247     
108.809927234287     0.706462286905245    43.4439888782358     0.687923972972699    -44.9246246225027    0.687923972972699    -44.9246246225027    0.706462286905245    43.4439888782358     
109.80917632881      0.709700037511146    43.1899252696357     0.684693495824152    -45.1873729050799    0.684693495824152    -45.1873729050799    0.709700037511146    43.1899252696357     
110.817601964281     0.712923371283928    42.9357652587        0.681448385740764    -45.4501620008166    0.681448385740764    -45.4501620008166    0.712923371283928    42.9357652587        
111.835288412885     0.716131958673967    42.6815300721901     0.678188962978268    -45.7129709974219    0.678188962978268    -45.7129709974219    0.716131958673967    42.6815300721901     
112.862320720715     0.719325475298058    42.4272409242641     0.674915552487337    -45.9757789915796    0.674915552487337    -45.9757789915796    0.719325475298058    42.4272409242641     
113.898784714878     0.722503602097194    42.1729190077996     0.671628483746711    -46.2385650976238    0.671628483746711    -46.2385650976238    0.722503602097194    42.1729190077996     
114.94476701067      0.725666025489723    41.9185854857256     0.668328090592392    -46.5013084562064    0.668328090592392    -46.5013084562064    0.725666025489723    41.9185854857256     
116.000355018814     0.728812437519541    41.6642614823838     0.665014711043185    -46.7639882429319    0.665014711043185    -46.7639882429319    0.728812437519541    41.6642614823838     
117.065636952761     0.731942535999329    41.4099680749172     0.661688687122701    -47.0265836769672    0.661688687122701    -47.0265836769672    0.731942535999329    41.4099680749172     
118.140701836068     0.735056024648529    41.1557262847019     0.658350364678138    -47.2890740296039    0.658350364678138    -47.2890740296039    0.735056024648529    41.1557262847019     
119.225639509831     0.73815261322599     40.90155706883       0.65500009319594     -47.5514386327715    0.65500009319594     -47.5514386327715    0.73815261322599     40.90155706883       
120.320540640198     0.741232017657146    40.6474813116467     0.651638225614664    -47.8136568874942    0.651638225614664    -47.8136568874942    0.741232017657146    40.6474813116467     
121.425496725945     0.744293960155588    40.3935198163547     0.648265118135202    -48.0757082722798    0.648265118135202    -48.0757082722798    0.744293960155588    40.3935198163547     
122.540600106118     0.74733816933887     40.1396932966951     0.644881130028658    -48.3375723514304    0.644881130028658    -48.3375723514304    0.74733816933887     40.1396932966951     
123.665943967755     0.750364380338554    39.8860223687044     0.641486623442027    -48.599228783278     0.641486623442027    -48.599228783278     0.750364380338554    39.8860223687044     
124.80162235367      0.75337233490424     39.6325275425684     0.638081963202019    -48.86065732832      0.638081963202019    -48.86065732832      0.75337233490424     39.6325275425684     
125.947730170315     0.756361781501635    39.3792292145686     0.634667516617146    -49.121837857263     0.634667516617146    -49.121837857263     0.756361781501635    39.3792292145686     
127.104363195709     0.7593324754045      39.1261476591352     0.63124365327841     -49.3827503589576    0.63124365327841     -49.3827503589576    0.7593324754045      39.1261476591352     
128.27161808744      0.76228417878043     38.8733030210132     0.627810744858787    -49.6433749482206    0.627810744858787    -49.6433749482206    0.76228417878043     38.8733030210132     
129.449592390748     0.76521666077044     38.6207153075453     0.62436916491175     -49.9036918735374    0.62436916491175     -49.9036918735374    0.76521666077044     38.6207153075453     
130.638384546671     0.768129697562219    38.3684043810866     0.620919288669066    -50.1636815246336    0.620919288669066    -50.1636815246336    0.768129697562219    38.3684043810866     
131.838093900277     0.771023072457171    38.116389951544      0.617461492838134    -50.4233244399195    0.617461492838134    -50.4233244399195    0.771023072457171    38.116389951544      
133.04882070896      0.773896575931032    37.8646915690633     0.613996155399077    -50.6826013137858    0.613996155399077    -50.6826013137858    0.773896575931032    37.8646915690633     
134.270666150823     0.776750005688211    37.6133286168571     0.610523655401819    -50.941493003758     0.610523655401819    -50.941493003758     0.776750005688211    37.6133286168571     
135.503732333132     0.779583166709752    37.3623203041837     0.607044372763432    -51.1999805374981    0.607044372763432    -51.1999805374981    0.779583166709752    37.3623203041837     
136.748122300848     0.782395871294947    37.1116856594871     0.603558688065902    -51.4580451196443    0.603558688065902    -51.4580451196443    0.782395871294947    37.1116856594871     
138.003940045239     0.785187939096632    36.8614435236958     0.600066982354647    -51.71566813849      0.600066982354647    -51.71566813849      0.785187939096632    36.8614435236958     
139.271290512571     0.787959197150162    36.6116125436922     0.596569636937909    -51.9728311724922    0.596569636937909    -51.9728311724922    0.787959197150162    36.6116125436922     
140.550279612876     0.790709479896146    36.3622111659505     0.593067033187326    -52.2295159966082    0.593067033187326    -52.2295159966082    0.790709479896146    36.3622111659505     
141.841014228805     0.793438629196918    36.1132576303571     0.589559552339855    -52.4857045884508    0.589559552339855    -52.4857045884508    0.793438629196918    36.1132576303571     
143.143602224559     0.796146494346862    35.8647699642076     0.586047575301281    -52.7413791342631    0.586047575301281    -52.7413791342631    0.796146494346862    35.8647699642076     
144.458152454903     0.798832932076622    35.6167659763917     0.582531482451513    -52.9965220347057    0.582531482451513    -52.9965220347057    0.798832932076622    35.6167659763917     
145.784774774263     0.801497806551254    35.3692632517675     0.579011653451872    -53.2511159104522    0.579011653451872    -53.2511159104522    0.801497806551254    35.3692632517675     
147.123580045906     0.804140989362457    35.122279145725      0.575488467054569    -53.5051436075945    0.575488467054569    -53.5051436075945    0.804140989362457    35.122279145725      
148.474680151204     0.806762359514904    34.8758307789484     0.571962300914568    -53.7585882028469    0.571962300914568    -53.7585882028469    0.806762359514904    34.8758307789484     
149.838187998987     0.809361803406805    34.6299350323746     0.568433531404021    -54.0114330085537    0.568433531404021    -54.0114330085537    0.809361803406805    34.6299350323746     
151.214217534972     0.81193921480479     34.3846085423545     0.564902533429436    -54.2636615774911    0.564902533429436    -54.2636615774911    0.81193921480479     34.3846085423545     
152.602883751294     0.814494494813262    34.1398676960128     0.561369680251796    -54.5152577074694    0.561369680251796    -54.5152577074694    0.814494494813262    34.1398676960128     
154.004302696108     0.817027551838258    33.8957286268179     0.557835343309722    -54.7662054457236    0.557835343309722    -54.7662054457236    0.817027551838258    33.8957286268179     
155.418591483291     0.819538301546041    33.6522072103531     0.554299892045921    -55.0164890931011    0.554299892045921    -55.0164890931011    0.819538301546041    33.6522072103531     
156.845868302227     0.82202666681645     33.409319060299      0.550763693737005    -55.2660932080348    0.550763693737005    -55.2660932080348    0.82202666681645     33.409319060299      
158.286252427686     0.824492577691248    33.1670795246206     0.547227113326835    -55.5150026103119    0.547227113326835    -55.5150026103119    0.824492577691248    33.1670795246206     
159.739864229788     0.826935971317505    32.9255036819671     0.543690513263593    -55.7632023846264    0.543690513263593    -55.7632023846264    0.826935971317505    32.9255036819671     
161.206825184068     0.829356791886256    32.6846063382782     0.540154253340583    -56.0106778839234    0.540154253340583    -56.0106778839234    0.829356791886256    32.6846063382782     
162.687257881621     0.831754990566512    32.4444020236013     0.536618690541002    -56.2574147325308    0.536618690541002    -56.2574147325308    0.831754990566512    32.4444020236013     
164.18128603935      0.834130525434821    32.2049049891178     0.533084178886715    -56.5033988290797    0.533084178886715    -56.5033988290797    0.834130525434821    32.2049049891178     
165.689034510306     0.836483361400514    31.9661292043779     0.529551069291195    -56.7486163492137    0.529551069291195    -56.7486163492137    0.836483361400514    31.9661292043779     
167.210629294119     0.838813470126839    31.7280883547425     0.526019709416644    -56.993053748089     0.526019709416644    -56.993053748089     0.838813470126839    31.7280883547425     
168.746197547527     0.841120829948048    31.4907958390358     0.522490443535478    -57.2366977626617    0.522490443535478    -57.2366977626617    0.841120829948048    31.4907958390358     
170.295867595007     0.843405425782757    31.2542647673987     0.518963612396179    -57.4795354137718    0.518963612396179    -57.4795354137718    0.843405425782757    31.2542647673987     
171.859768939494     0.845667249043596    31.0185079593504     0.515439553093624    -57.7215540080159    0.515439553093624    -57.7215540080159    0.845667249043596    31.0185079593504     
173.438032273204     0.847906297543414    30.7835379420518     0.511918598943922    -57.9627411394168    0.511918598943922    -57.9627411394168    0.847906297543414    30.7835379420518     
175.03078948856      0.850122575398187    30.549366948768      0.508401079363869    -58.2030846908895    0.508401079363869    -58.2030846908895    0.850122575398187    30.549366948768      
176.638173689207     0.85231609292679     30.3160069175315     0.504887319755007    -58.4425728355057    0.504887319755007    -58.4425728355057    0.85231609292679     30.3160069175315     
178.260319201141     0.854486866547816    30.0834694900013     0.501377641392341    -58.6811940375582    0.501377641392341    -58.6811940375582    0.854486866547816    30.0834694900013     
179.897361583933     0.856634918673634    29.8517660105126     0.497872361317778    -58.9189370534324    0.497872361317778    -58.9189370534324    0.856634918673634    29.8517660105126     
181.549437642054     0.858760277601807    29.6209075253233     0.494371792238288    -59.1557909322777    0.494371792238288    -59.1557909322777    0.858760277601807    29.6209075253233     
183.216685436313     0.86086297740412     29.3909047820423     0.490876242428776    -59.391745016494     0.490876242428776    -59.391745016494     0.86086297740412     29.3909047820423     
184.899244295391     0.862943057813324    29.1617682292462     0.487386015639734    -59.6267889420271    0.487386015639734    -59.6267889420271    0.862943057813324    29.1617682292462     
186.597254827483     0.865000564107807    28.9335080162765     0.483901411009615    -59.8609126384789    0.483901411009615    -59.8609126384789    0.865000564107807    28.9335080162765     
188.310858932054     0.86703554699434     28.7061339932152     0.480422722981971    -60.0941063290375    0.480422722981971    -60.0941063290375    0.86703554699434     28.7061339932152     
190.04019981169      0.869048062489093    28.4796557110346     0.476950241227306    -60.3263605302287    0.476950241227306    -60.3263605302287    0.869048062489093    28.4796557110346     
191.785421984073     0.871038171797056    28.2540824219177     0.473484250569665    -60.5576660514918    0.473484250569665    -60.5576660514918    0.871038171797056    28.2540824219177     
193.546671294051     0.873005941190064    28.0294230797462     0.470025030917874    -60.7880139945875    0.470025030917874    -60.7880139945875    0.873005941190064    28.0294230797462     
195.324094925831     0.874951441883553    27.8056863407517     0.466572857201479    -61.0173957528347    0.466572857201479    -61.0173957528347    0.874951441883553    27.8056863407517     
197.117841415273     0.87687474991225     27.5828805643244     0.463127999311277    -61.2458030101886    0.463127999311277    -61.2458030101886    0.87687474991225     27.5828805643244     
198.928060662312     0.878775946004903    27.3610138139787     0.45969072204445     -61.4732277401559    0.45969072204445     -61.4732277401559    0.878775946004903    27.3610138139787     
200.754903943476     0.880655115458256    27.1400938584676     0.456261285054203    -61.6996622045579    0.456261285054203    -61.6996622045579    0.880655115458256    27.1400938584676     
202.598523924532     0.882512348010383    26.9201281730447     0.452839942803905    -61.9250989521415    0.452839942803905    -61.9250989521415    0.882512348010383    26.9201281730447     
204.459074673245     0.884347737713553    26.7011239408668     0.449426944525643    -62.149530817043     0.449426944525643    -62.149530817043     0.884347737713553    26.7011239408668     
206.33671167225      0.886161382806741    26.4830880545357     0.446022534183134    -62.3729509171113    0.446022534183134    -62.3729509171113    0.886161382806741    26.4830880545357     
208.231591832047     0.887953385587962    26.2660271177719     0.442626950438933    -62.5953526520906    0.442626950438933    -62.5953526520906    0.887953385587962    26.2660271177719     
210.143873504114     0.88972385228655     26.0499474472153     0.439240426625858    -62.8167297016732    0.439240426625858    -62.8167297016732    0.88972385228655     26.0499474472153     
212.073716494141     0.891472892935478    25.8348550743535     0.435863190722586    -63.0370760234187    0.435863190722586    -63.0370760234187    0.891472892935478    25.8348550743535     
214.021282075381     0.893200621243917    25.6207557475665     0.432495465333287    -63.2563858505504    0.432495465333287    -63.2563858505504    0.893200621243917    25.6207557475665     
215.986733002131     0.894907154470099    25.407654934287      0.429137467671269    -63.4746536896315    0.429137467671269    -63.4746536896315    0.894907154470099    25.407654934287      
217.970233523334     0.89659261329464     25.1955578232697     0.425789409546528    -63.6918743181255    0.425789409546528    -63.6918743181255    0.89659261329464     25.1955578232697     
219.971949396299     0.898257121694403    24.9844693269695     0.422451497357115    -63.908042781842     0.422451497357115    -63.908042781842     0.898257121694403    24.9844693269695     
221.992047900558     0.899900806817069    24.7743940840158     0.419123932084219    -64.1231543922792    0.419123932084219    -64.1231543922792    0.899900806817069    24.7743940840158     
224.030697851845     0.901523798856438    24.5653364617878     0.415806909290913    -64.3372047238589    0.415806909290913    -64.3372047238589    0.901523798856438    24.5653364617878     
226.088069616203     0.903126230928668    24.3573005590776     0.412500619124418    -64.5501896110679    0.412500619124418    -64.5501896110679    0.903126230928668    24.3573005590776     
228.164335124219     0.904708238949445    24.1502902088435     0.409205246321832    -64.7621051454994    0.409205246321832    -64.7621051454994    0.904708238949445    24.1502902088435     
230.259667885395     0.906269961512258    23.9443089810443     0.405920970219198    -64.9729476728091    0.405920970219198    -64.9729476728091    0.906269961512258    23.9443089810443     
232.374243002646     0.907811539767815    23.7393601855524     0.402647964763836    -65.1827137895816    0.402647964763836    -65.1827137895816    0.907811539767815    23.7393601855524     
234.508237186933     0.909333117304724    23.5354468751409     0.399386398529799    -65.3914003401173    0.399386398529799    -65.3914003401173    0.909333117304724    23.5354468751409     
236.661828772033     0.910834840031483    23.3325718485395     0.396136434736426    -65.59900441314      0.396136434736426    -65.59900441314      0.910834840031483    23.3325718485395     
238.835197729437     0.91231685605988     23.1307376535566     0.392898231269795    -65.8055233384307    0.392898231269795    -65.8055233384307    0.91231685605988     23.1307376535566     
241.028525683396     0.913779315589864    22.9299465902609     0.389671940707043    -66.0109546833933    0.389671940707043    -66.0109546833933    0.913779315589864    22.9299465902609     
243.241995926093     0.91522237079596     22.7302007142199     0.386457710343438    -66.2152962495517    0.386457710343438    -66.2152962495517    0.91522237079596     22.7302007142199     
245.475793432966     0.916646175715276    22.5315018397927     0.383255682222084    -66.4185460689859    0.383255682222084    -66.4185460689859    0.916646175715276    22.5315018397927     
247.73010487816      0.918050886137172    22.3338515434689     0.380065993166152    -66.620702400709     0.380065993166152    -66.620702400709     0.918050886137172    22.3338515434689     
250.005118650134     0.919436659494656    22.1372511672527     0.376888774813568    -66.8217637269902    0.376888774813568    -66.8217637269902    0.919436659494656    22.1372511672527     
252.301024867396     0.920803654757523    21.9417018220878     0.37372415365401     -67.0217287496249    0.37372415365401     -67.0217287496249    0.920803654757523    21.9417018220878     
254.618015394399     0.92215203232732     21.7472043913195     0.370572251068162    -67.2205963861566    0.370572251068162    -67.2205963861566    0.92215203232732     21.7472043913195     
256.956283857571     0.923481953934154    21.5537595341885     0.367433183369073    -67.4183657660553    0.367433183369073    -67.4183657660553    0.923481953934154    21.5537595341885     
259.316025661493     0.924793582535391    21.3613676893545     0.36430706184556     -67.6150362268526    0.36430706184556     -67.6150362268526    0.924793582535391    21.3613676893545     
261.697438005235     0.926087082216283    21.170029078446      0.361193992807539    -67.8106073102391    0.361193992807539    -67.8106073102391    0.926087082216283    21.170029078446      
264.10071989883      0.927362618092545    20.9797437096315     0.358094077633183    -68.0050787581259    0.358094077633183    -68.0050787581259    0.927362618092545    20.9797437096315     
266.526072179907     0.928620356214906    20.7905113812106     0.355007412817809    -68.1984505086724    0.355007412817809    -68.1984505086724    0.928620356214906    20.7905113812106     
268.973697530478     0.929860463475694    20.6023316852177     0.351934090024417    -68.3907226922861    0.351934090024417    -68.3907226922861    0.929860463475694    20.6023316852177     
271.443800493867     0.931083107517405    20.415204011043      0.348874196135761    -68.5818956275915    0.348874196135761    -68.5818956275915    0.931083107517405    20.415204011043      
273.936587491814     0.932288456643346    20.2291275490574     0.345827813307866    -68.7719698173782    0.345827813307866    -68.7719698173782    0.932288456643346    20.2291275490574     
276.452266841717     0.933476679730321    20.0441012942471     0.342795019024916    -68.9609459445209    0.342795019024916    -68.9609459445209    0.933476679730321    20.0441012942471     
278.991048774044     0.934647946143387    19.8601240498494     0.339775886155401    -69.1488248678852    0.339775886155401    -69.1488248678852    0.934647946143387    19.8601240498494     
281.553145449902     0.935802425652677    19.6771944309899     0.336770483009437    -69.3356076182089    0.336770483009437    -69.3356076182089    0.935802425652677    19.6771944309899     
284.138770978765     0.936940288352325    19.4953108683165     0.333778873397195    -69.5212953939711    0.333778873397195    -69.5212953939711    0.936940288352325    19.4953108683165     
286.748141436369     0.938061704581439    19.3144716116289     0.330801116688314    -69.7058895572451    0.330801116688314    -69.7058895572451    0.938061704581439    19.3144716116289     
289.381474882767     0.939166844847182    19.1346747335011     0.327837267872272    -69.8893916295375    0.327837267872272    -69.8893916295375    0.939166844847182    19.1346747335011     
292.038991380555     0.940255879749925    18.9559181328919     0.324887377619558    -70.0718032876176    0.324887377619558    -70.0718032876176    0.940255879749925    18.9559181328919     
294.720913013255     0.941328979910467    18.7781995387447     0.321951492343653    -70.2531263593352    0.321951492343653    -70.2531263593352    0.941328979910467    18.7781995387447     
297.427463903884     0.942386315899323    18.6015165135728     0.319029654263659    -70.4333628194311    0.319029654263659    -70.4333628194311    0.942386315899323    18.6015165135728     
300.158870233677     0.943428058168082    18.4258664570253     0.316121901467566    -70.6125147853387    0.316121901467566    -70.6125147853387    0.943428058168082    18.4258664570253     
302.915360260989     0.944454376982786    18.251246609438      0.313228267976054    -70.7905845129794    0.313228267976054    -70.7905845129794    0.944454376982786    18.251246609438      
305.697164340371     0.945465442359359    18.07765405536       0.310348783806753    -70.967574392552     0.310348783806753    -70.967574392552     0.945465442359359    18.07765405536       
308.504514941824     0.946461424001041    17.9050857270591     0.307483475038914    -71.1434869443172    0.307483475038914    -71.1434869443172    0.946461424001041    17.9050857270591     
311.337646670217     0.947442491237829    17.7335384080018     0.304632363878409    -71.3183248143777    0.304632363878409    -71.3183248143777    0.947442491237829    17.7335384080018     
314.196796284903     0.948408812967886    17.5630087363082     0.301795468722997    -71.4920907704523    0.301795468722997    -71.4920907704523    0.948408812967886    17.5630087363082     
317.082202719497     0.949360557600918    17.3934932081774     0.2989728042278      -71.6647876976476    0.2989728042278      -71.6647876976476    0.949360557600918    17.3934932081774     
319.994107101846     0.950297893003487    17.2249881812841     0.29616438137093     -71.8364185942252    0.29616438137093     -71.8364185942252    0.950297893003487    17.2249881812841     
322.932752774179     0.95122098644623     17.0574898781446     0.293370207519194    -72.0069865673637    0.293370207519194    -72.0069865673637    0.95122098644623     17.0574898781446     
325.898385313446     0.952130004552982    16.8909943894491     0.290590286493832    -72.1764948289177    0.290590286493832    -72.1764948289177    0.952130004552982    16.8909943894491     
328.891252551832     0.953025113251746    16.7254976773621     0.287824618636247    -72.3449466911697    0.287824618636247    -72.3449466911697    0.953025113251746    16.7254976773621     
331.911604597479     0.953906477727511    16.5609955787867     0.285073200873644    -72.512345562578     0.285073200873644    -72.512345562578     0.953906477727511    16.5609955787867     
334.959693855376     0.95477426237688     16.3974838085924     0.28233602678455     -72.6786949435179    0.28233602678455     -72.6786949435179    0.95477426237688     16.3974838085924     
338.035775048462     0.955628630764469    16.2349579628072     0.27961308666417     -72.8439984220142    0.27961308666417     -72.8439984220142    0.955628630764469    16.2349579628072     
341.140105238905     0.95646974558107     16.0734135217709     0.276904367589525    -73.0082596694653    0.276904367589525    -73.0082596694653    0.95646974558107     16.0734135217709     
344.272943849588     0.957297768603526    15.9128458532484     0.274209853484314    -73.1714824363587    0.274209853484314    -73.1714824363587    0.957297768603526    15.9128458532484     
347.434552685789     0.958112860656297    15.7532502155053     0.271529525183502    -73.3336705479717    0.271529525183502    -73.3336705479717    0.958112860656297    15.7532502155053     
350.625195957055     0.958915181574695    15.5946217603404     0.268863360497533    -73.4948279000609    0.268863360497533    -73.4948279000609    0.958915181574695    15.5946217603404     
353.845140299287     0.959704890169733    15.4369555360779     0.266211334276192    -73.6549584545354    0.266211334276192    -73.6549584545354    0.959704890169733    15.4369555360779     
357.094654797021     0.960482144194578    15.2802464905179     0.263573418472037    -73.814066235111     0.263573418472037    -73.814066235111     0.960482144194578    15.2802464905179     
360.374011005911     0.961247100312557    15.1244894738438     0.260949582203375    -73.9721553229449    0.260949582203375    -73.9721553229449    0.961247100312557    15.1244894738438     
363.683482975428     0.961999914066706    14.9696792414855     0.258339791816774    -74.1292298522472    0.258339791816774    -74.1292298522472    0.961999914066706    14.9696792414855     
367.023347271757     0.962740739850801    14.8158104569413     0.255744010949044    -74.2852940058652    0.255744010949044    -74.2852940058652    0.962740739850801    14.8158104569413     
370.393883000911     0.963469730881857    14.6628776945523     0.253162200588686    -74.4403520108396    0.253162200588686    -74.4403520108396    0.963469730881857    14.6628776945523     
373.795371832057     0.964187039174054    14.510875442236      0.250594319136771    -74.5944081339256    0.250594319136771    -74.5944081339256    0.964187039174054    14.510875442236      
377.228098021052     0.964892815514059    14.359798104172      0.248040322467223    -74.7474666770792    0.248040322467223    -74.7474666770792    0.964892815514059    14.359798104172      
380.692348434199     0.965587209437703    14.2096400034445     0.24550016398648     -74.8995319729007    0.24550016398648     -74.8995319729007    0.965587209437703    14.2096400034445     
384.18841257222      0.966270369207997    14.0603953846378     0.242973794692519    -75.0506083800342    0.242973794692519    -75.0506083800342    0.966270369207997    14.0603953846378     
387.716582594447     0.966942441794424    13.9120584163889     0.240461163233222    -75.2007002785146    0.240461163233222    -75.2007002785146    0.966942441794424    13.9120584163889     
391.277153343241     0.9676035728535      13.7646231938918     0.237962215964054    -75.3498120650607    0.237962215964054    -75.3498120650607    0.9676035728535      13.7646231938918     
394.870422368627     0.968253906710562    13.6180837413574     0.235476897005044    -75.4979481483066    0.235476897005044    -75.4979481483066    0.968253906710562    13.6180837413574     
398.496689953164     0.96889358634274     13.4724340144275     0.233005148297054    -75.6451129439661    0.233005148297054    -75.6451129439661    0.96889358634274     13.4724340144275     
402.156259137034     0.969522753363092    13.3276679025433     0.230546909657314    -75.791310869923     0.230546909657314    -75.791310869923     0.969522753363092    13.3276679025433     
405.849435743373     0.970141548005866    13.1837792312671     0.228102118834215    -75.9365463412417    0.228102118834215    -75.9365463412417    0.970141548005866    13.1837792312671     
409.576528403823     0.970750109112845    13.0407617645604     0.225670711561345    -76.0808237650892    0.225670711561345    -76.0808237650892    0.970750109112845    13.0407617645604     
413.337848584323     0.971348574120764    12.8986092070139     0.223252621610753    -76.2241475355631    0.223252621610753    -76.2241475355631    0.971348574120764    12.8986092070139     
417.133710611143     0.971937079049748    12.7573152060344     0.22084778084544     -76.3665220284131    0.22084778084544     -76.3665220284131    0.971937079049748    12.7573152060344     
420.964431697147     0.972515758492742    12.6168733539842     0.218456119271052    -76.5079515956525    0.218456119271052    -76.5079515956525    0.972515758492742    12.6168733539842     
424.830331968302     0.973084745605915    12.4772771902783     0.216077565086803    -76.6484405600439    0.216077565086803    -76.6484405600439    0.973084745605915    12.4772771902783     
428.731734490435     0.973644172099983    12.3385202034339     0.213712044735558    -76.7879932094545    0.213712044735558    -76.7879932094545    0.973644172099983    12.3385202034339     
432.668965296224     0.974194168232447    12.2005958330772     0.211359482953147    -76.9266137910661    0.211359482953147    -76.9266137910661    0.974194168232447    12.2005958330772     
436.642353412451     0.974734862800693    12.0634974719051     0.209019802816833    -77.0643065054296    0.209019802816833    -77.0643065054296    0.974734862800693    12.0634974719051     
440.65223088749      0.975266383135941    11.9272184676029     0.20669292579299     -77.2010755003512    0.20669292579299     -77.2010755003512    0.975266383135941    11.9272184676029     
444.698932819065     0.975788855097998    11.7917521247192     0.204378771783942    -77.3369248645961    0.204378771783942    -77.3369248645961    0.975788855097998    11.7917521247192     
448.782797382247     0.976302403070797    11.6570917064962     0.202077259173999    -77.4718586213965    0.202077259173999    -77.4718586213965    0.976302403070797    11.6570917064962     
452.904165857715     0.976807149958696    11.5232304366582     0.199788304874647    -77.6058807217463    0.199788304874647    -77.6058807217463    0.976807149958696    11.5232304366582     
457.063382660279     0.977303217183495    11.3901615011564     0.197511824368938    -77.7389950374687    0.197511824368938    -77.7389950374687    0.977303217183495    11.3901615011564     
461.260795367662     0.977790724682155    11.2578780498724     0.195247731755043    -77.8712053540358    0.195247731755043    -77.8712053540358    0.977790724682155    11.2578780498724     
465.496754749542     0.978269790905185    11.1263731982803     0.192995939788994    -78.002515363122     0.192995939788994    -78.002515363122     0.978269790905185    11.1263731982803     
469.77161479687      0.978740532815685    10.9956400290657     0.190756359926591    -78.1329286548724    0.190756359926591    -78.1329286548724    0.978740532815685    10.9956400290657     
474.085732751451     0.979203065888989    10.8656715937061     0.188528902364512    -78.2624487098606    0.188528902364512    -78.2624487098606    0.979203065888989    10.8656715937061     
478.439469135795     0.979657504112921    10.7364609140087     0.186313476080589    -78.3910788907157    0.186313476080589    -78.3910788907157    0.979657504112921    10.7364609140087     
482.833187783252     0.980103959988603    10.6080009836104     0.184109988873291    -78.5188224333884    0.184109988873291    -78.5188224333884    0.980103959988603    10.6080009836104     
487.267255868408     0.980542544531819    10.4802847694367     0.181918347400388    -78.6456824380337    0.181918347400388    -78.6456824380337    0.980542544531819    10.4802847694367     
491.742043937777     0.980973367274887    10.3533052131217     0.179738457216828    -78.7716618594759    0.179738457216828    -78.7716618594759    0.980973367274887    10.3533052131217     
496.257925940761     0.981396536269038    10.2270552323917     0.177570222811801    -78.8967634972255    0.177570222811801    -78.8967634972255    0.981396536269038    10.2270552323917     
500.815279260905     0.981812158087258    10.1015277224074     0.175413547645033    -79.0209899850148    0.175413547645033    -79.0209899850148    0.981812158087258    10.1015277224074     
505.41448474743      0.98222033782759     9.97671555707202     0.173268334182282    -79.1443437798105    0.173268334182282    -79.1443437798105    0.98222033782759     9.97671555707202     
510.055926747064     0.982621179116856    9.85261159030022     0.171134483930071    -79.2668271502681    0.171134483930071    -79.2668271502681    0.982621179116856    9.85261159030022     
514.739993136157     0.983014784114796    9.7292086572518      0.169011897469638    -79.3884421645792    0.169011897469638    -79.3884421645792    0.983014784114796    9.7292086572518      
519.467075353097     0.983401253518581    9.60649957552915     0.166900474490148    -79.5091906776673    0.166900474490148    -79.5091906776673    0.983401253518581    9.60649957552915     
524.237568431022     0.983780686567706    9.48447714633937     0.164800113821127    -79.6290743176797    0.164800113821127    -79.6290743176797    0.983780686567706    9.48447714633937     
529.051871030833     0.984153181049217    9.36313415562202     0.162710713464175    -79.7480944717191    0.162710713464175    -79.7480944717191    0.984153181049217    9.36313415562202     
533.910385474506     0.984518833303274    9.24246337514189     0.160632170623932    -79.8662522707552    0.160632170623932    -79.8662522707552    0.984518833303274    9.24246337514189     
538.813517778719     0.984877738229015    9.12245756354907     0.158564381738326    -79.9835485736491    0.158564381738326    -79.9835485736491    0.984877738229015    9.12245756354907     
543.761677688774     0.985229989290719    9.00310946740495     0.156507242508105    -80.09998395022      0.156507242508105    -80.09998395022      0.985229989290719    9.00310946740495     
548.755278712847     0.985575678524228    8.8844118221767      0.154460647925663    -80.2155586632757    0.154460647925663    -80.2155586632757    0.985575678524228    8.8844118221767      
553.794738156538     0.985914896543636    8.76635735319848     0.152424492303175    -80.3302726495211    0.152424492303175    -80.3302726495211    0.985914896543636    8.76635735319848     
558.880477157746     0.986247732548209    8.64893877660273     0.150398669300056    -80.4441254992534    0.150398669300056    -80.4441254992534    0.986247732548209    8.64893877660273     
564.012920721867     0.986574274329525    8.53214880021885     0.148383071949724    -80.5571164347405    0.148383071949724    -80.5571164347405    0.986574274329525    8.53214880021885     
569.192497757303     0.98689460827883     8.41598012444309     0.146377592685746    -80.6692442871747    0.146377592685746    -80.6692442871747    0.98689460827883     8.41598012444309     
574.419641111312     0.987208819394566    8.30042544307783     0.144382123367289    -80.7805074720777    0.144382123367289    -80.7805074720777    0.987208819394566    8.30042544307783     
579.694787606175     0.987516991290092    8.18547744414151     0.142396555303977    -80.8909039630253    0.142396555303977    -80.8909039630253    0.987516991290092    8.18547744414151     
585.018378075706     0.987819206201552    8.07112881065046     0.140420779280102    -81.0004312635472    0.140420779280102    -81.0004312635472    0.987819206201552    8.07112881065046     
590.390857402085     0.988115544995901    7.95737222137226     0.138454685578228    -81.10908637704      0.138454685578228    -81.10908637704      0.988115544995901    7.95737222137226     
595.812674553042     0.988406087179047    7.84420035155145     0.136498164002217    -81.2168657745203    0.136498164002217    -81.2168657745203    0.988406087179047    7.84420035155145     
601.284282619373     0.988690910904135    7.73160587360814     0.134551103899648    -81.3237653600217    0.134551103899648    -81.3237653600217    0.988690910904135    7.73160587360814     
606.806138852804     0.98897009297991     7.61958145781053     0.132613394183696    -81.4297804334259    0.132613394183696    -81.4297804334259    0.98897009297991     7.61958145781053     
612.378704704206     0.989243708879205    7.50811977292079     0.130684923354436    -81.5349056504914    0.130684923354436    -81.5349056504914    0.989243708879205    7.50811977292079     
618.00244586215      0.989511832747476    7.39721348681645     0.128765579519635    -81.6391349798198    0.128765579519635    -81.6391349798198    0.989511832747476    7.39721348681645     
623.677832291833     0.989774537411441    7.28685526708578     0.126855250414997    -81.7424616564762    0.126855250414997    -81.7424616564762    0.989774537411441    7.28685526708578     
629.405338274347     0.990031894387751    7.17703778159932     0.124953823423928    -81.8448781319426    0.124953823423928    -81.8448781319426    0.990031894387751    7.17703778159932     
635.185442446311     0.990283973891727    7.06775369905822     0.123061185596811    -81.946376020055     0.123061185596811    -81.946376020055     0.990283973891727    7.06775369905822     
641.018627839879     0.990530844846122    6.95899568951748     0.121177223669802    -82.0469460385338    0.121177223669802    -82.0469460385338    0.990530844846122    6.95899568951748     
646.905381923096     0.990772574889916    6.85075642488821     0.119301824083194    -82.1465779456708    0.119301824083194    -82.1465779456708    0.990772574889916    6.85075642488821     
652.846196640639     0.991009230387131    6.74302857941692     0.117434872999346    -82.245260471693     0.117434872999346    -82.245260471693     0.991009230387131    6.74302857941692     
658.84156845493      0.991240876435645    6.63580483014188     0.115576256320201    -82.3429812442618    0.115576256320201    -82.3429812442618    0.991240876435645    6.63580483014188     
664.89199838762      0.991467576876009    6.52907785733025     0.113725859704436    -82.4397267075071    0.113725859704436    -82.4397267075071    0.991467576876009    6.52907785733025     
670.997992061464     0.99168939430026     6.4228403448924      0.111883568584238    -82.5354820339238    0.111883568584238    -82.5354820339238    0.99168939430026     6.4228403448924      
677.160059742567     0.9919063900607      6.31708498077721     0.110049268181749    -82.6302310283751    0.110049268181749    -82.6302310283751    0.9919063900607      6.31708498077721     
683.378716383037     0.992118624278665    6.21180445734675     0.108222843525215    -82.7239560233604    0.108222843525215    -82.7239560233604    0.992118624278665    6.21180445734675     
689.654481664004     0.992326155853242    6.10699147173216     0.106404179464847    -82.8166377645941    0.106404179464847    -82.8166377645941    0.992326155853242    6.10699147173216     
695.987880039064     0.992529042469956    6.0026387261699      0.104593160688443    -82.9082552858277    0.104593160688443    -82.9082552858277    0.992529042469956    6.0026387261699      
702.379440778094     0.9927273406094      5.89873892832033     0.1027896717368      -82.998785771708     0.1027896717368      -82.998785771708     0.9927273406094      5.89873892832033     
708.829698011494     0.99292110555581     5.79528479156757     0.100993597018953    -83.0882044073076    0.100993597018953    -83.0882044073076    0.99292110555581     5.79528479156757     
715.339190774809     0.993110391405576    5.6922690353027      0.099204820827285    -83.1764842127852    0.099204820827285    -83.1764842127852    0.993110391405576    5.6922690353027      
721.908463053789     0.993295251075674    5.58968438518883     0.097423227352552    -83.2635958614245    0.097423227352552    -83.2635958614245    0.993295251075674    5.58968438518883     
728.53806382984      0.993475736312039    5.48752357341043     0.095648700698879    -83.3495074790626    0.095648700698879    -83.3495074790626    0.993475736312039    5.48752357341043     
735.228547125904     0.993651897697831    5.38577933890599     0.093881124898765    -83.4341844226408    0.093881124898765    -83.4341844226408    0.993651897697831    5.38577933890599     
741.980472052759     0.993823784661632    5.28444442758506     0.092120383928192    -83.5175890352931    0.092120383928192    -83.5175890352931    0.993823784661632    5.28444442758506     
748.794402855741     0.993991445485536    5.18351159252989     0.090366361721872    -83.5996803750109    0.090366361721872    -83.5996803750109    0.993991445485536    5.18351159252989     
755.670908961896     0.994154927313146    5.08297359418243     0.088618942188741    -83.6804139134943    0.088618942188741    -83.6804139134943    0.994154927313146    5.08297359418243     
762.610565027571     0.994314276157454    4.98282320051637     0.086878009227769    -83.7597412012893    0.086878009227769    -83.7597412012893    0.994314276157454    4.98282320051637     
769.613950986429     0.994469536908628    4.88305318719548     0.085143446744198    -83.8376094947175    0.085143446744198    -83.8376094947175    0.994469536908628    4.88305318719548     
776.681652097919     0.994620753341666    4.78365633771822     0.08341513866632     -83.9139613394127    0.08341513866632     -83.9139613394127    0.994620753341666    4.78365633771822     
783.814258996183     0.994767968123941    4.68462544354883     0.081692968962932    -83.9887341044506    0.081692968962932    -83.9887341044506    0.994767968123941    4.68462544354883     
791.012367739415     0.994911222822618    4.58595330423624     0.079976821661613    -84.061859460095     0.079976821661613    -84.061859460095     0.994911222822618    4.58595330423624     
798.276579859672     0.995050557911944    4.48763272751904     0.078266580867997    -84.1332627910311    0.078266580867997    -84.1332627910311    0.995050557911944    4.48763272751904     
805.607502413139     0.995186012780399    4.38965652942059     0.07656213078627     -84.2028625355898    0.07656213078627     -84.2028625355898    0.995186012780399    4.38965652942059     
813.005748030871     0.995317625737725    4.2920175343299      0.074863355741079    -84.27056943984      0.074863355741079    -84.27056943984      0.995317625737725    4.2920175343299      
820.471934969973     0.995445434021792    4.19470857507367     0.0731701402012      -84.3362857134673    0.0731701402012      -84.3362857134673    0.995445434021792    4.19470857507367     
828.006687165279     0.995569473805344    4.09772249297505     0.071482368805208    -84.3999040720201    0.071482368805208    -84.3999040720201    0.995569473805344    4.09772249297505     
835.61063428149      0.995689780202586    4.00105213790366     0.069799926389614    -84.461306647265     0.069799926389614    -84.461306647265     0.995689780202586    4.00105213790366     
843.284411765792     0.995806387275612    3.90469036831424     0.068122698019852    -84.5203637439726    0.068122698019852    -84.5203637439726    0.995806387275612    3.90469036831424     
851.028660900958     0.995919328040702    3.80863005127602     0.066450569024714    -84.5769324172805    0.066450569024714    -84.5769324172805    0.995919328040702    3.80863005127602     
858.844028858946     0.996028634474443    3.71286406249212     0.064783425034829    -84.6308548396918    0.064783425034829    -84.6308548396918    0.996028634474443    3.71286406249212     
866.731168754972     0.996134337519693    3.61738528631051     0.063121152025995    -84.6819564205126    0.063121152025995    -84.6819564205126    0.996134337519693    3.61738528631051     
874.690739702095     0.996236467091396    3.52218661572509     0.061463636368274    -84.730043632833     0.061463636368274    -84.730043632833     0.996236467091396    3.52218661572509     
882.723406866299     0.996335052082217    3.42726095236942     0.059810764881979    -84.7749014935993    0.059810764881979    -84.7749014935993    0.996335052082217    3.42726095236942     
890.829841522077     0.996430120368018    3.33260120650152     0.05816242490194     -84.8162906304391    0.05816242490194     -84.8162906304391    0.996430120368018    3.33260120650152     
899.01072110853      0.996521698813167    3.23820029698122     0.056518504351705    -84.853943853999     0.056518504351705    -84.853943853999     0.996521698813167    3.23820029698122     
907.266729285975     0.996609813275662    3.14405115123981     0.054878891829757    -84.8875621357872    0.054878891829757    -84.8875621357872    0.996609813275662    3.14405115123981     
915.598555993085     0.996694488612102    3.05014670524275     0.053243476710304    -84.9168098677325    0.053243476710304    -84.9168098677325    0.996694488612102    3.05014670524275     
924.006897504535     0.996775748682461    2.95647990344587     0.051612149261809    -84.9413092493233    0.051612149261809    -84.9413092493233    0.996775748682461    2.95647990344587     
932.492456489201     0.996853616354703    2.86304369874403     0.049984800787246    -84.9606336092334    0.049984800787246    -84.9606336092334    0.996853616354703    2.86304369874403     
941.05594206887      0.996928113509202    2.7698310524147      0.048361323791116    -84.9742994179391    0.048361323791116    -84.9742994179391    0.996928113509202    2.7698310524147      
949.698069877506     0.996999261042992    2.67683493405516     0.046741612179591    -84.9817566821515    0.046741612179591    -84.9817566821515    0.996999261042992    2.67683493405516     
958.419562121052     0.997067078873832    2.58404832151416     0.045125561501942    -84.9823773256033    0.045125561501942    -84.9823773256033    0.997067078873832    2.58404832151416     
967.221147637784     0.997131585944078    2.49146420081824     0.043513069243777    -84.9754410463912    0.043513069243777    -84.9754410463912    0.997131585944078    2.49146420081824     
976.103561959216     0.997192800224385    2.39907556609365     0.041904035185768    -84.9601179882096    0.041904035185768    -84.9601179882096    0.997192800224385    2.39907556609365     
985.067547371573     0.997250738717209    2.30687541948267     0.040298361845802    -84.9354473564214    0.040298361845802    -84.9354473564214    0.997250738717209    2.30687541948267     
994.113852977814     0.997305417460129    2.21485677105649     0.038695955028343    -84.9003108283813    0.038695955028343    -84.9003108283813    0.997305417460129    2.21485677105649     
1003.24323476024     0.997356851528969    2.12301263872357     0.037096724512818    -84.8533992191105    0.037096724512818    -84.8533992191105    0.997356851528969    2.12301263872357     
1012.45645564368     0.997405055040746    2.03133604813439     0.035500584924057    -84.7931703214121    0.035500584924057    -84.7931703214121    0.997405055040746    2.03133604813439     
1021.7542855592      0.997450041156414    1.93982003258258     0.033907456843765    -84.7177950732313    0.033907456843765    -84.7177950732313    0.997450041156414    1.93982003258258     
1031.13750150852     0.997491822083416    1.84845763290338     0.032317268244778    -84.6250881066321    0.032317268244778    -84.6250881066321    0.997491822083416    1.84845763290338     
1040.60688762889     0.99753040907805     1.75724189736824     0.030729956363119    -84.5124171344617    0.030729956363119    -84.5124171344617    0.99753040907805     1.75724189736824     
1050.16323525862     0.997565812447634    1.66616588157797     0.029145470172139    -84.3765832670197    0.029145470172139    -84.3765832670197    0.997565812447634    1.66616588157797     
1059.80734300325     0.99759804155248     1.57522264835309     0.027563773697241    -84.213660792751     0.027563773697241    -84.213660792751     0.99759804155248     1.57522264835309     
1069.54001680225     0.997627104807674    1.4844052676216      0.025984850523923    -84.0187794955841    0.025984850523923    -84.0187794955841    0.997627104807674    1.4844052676216      
1079.36206999638     0.997653009684654    1.39370681630619     0.024408710031398    -83.7858240187326    0.024408710031398    -83.7858240187326    0.997653009684654    1.39370681630619     
1089.27432339568     0.997675762712594    1.30312037820915     0.022835396172876    -83.507011039953     0.022835396172876    -83.507011039953     0.997675762712594    1.30312037820915     
1099.27760534804     0.997695369479599    1.21263904389607     0.021265000101293    -83.172282377716     0.021265000101293    -83.172282377716     0.997695369479599    1.21263904389607     
1109.37275180841     0.997711834633687    1.12225591057949     0.019697678752588    -82.7684137375779    0.019697678752588    -82.7684137375779    0.997711834633687    1.12225591057949     
1119.56060640871     0.997725161883589    1.0319640820009      0.018133682930898    -82.2776715017575    0.018133682930898    -82.2776715017575    0.997725161883589    1.0319640820009      
1129.84202052829     0.997735353999339    0.941756668313227    0.016573401059927    -81.6757276110792    0.016573401059927    -81.6757276110792    0.997735353999339    0.941756668313227    
1140.21785336507     0.997742412812674    0.851626785962928    0.015017429768792    -80.9283106979275    0.015017429768792    -80.9283106979275    0.997742412812674    0.851626785962928    
1150.6889720074      0.997746339217228    0.761567557572009    0.013466692528759    -79.9856107141626    0.013466692528759    -79.9856107141626    0.997746339217228    0.761567557572009    
1161.25625150644     0.997747133168538    0.671572111821648    0.011922648940395    -78.7724867043214    0.011922648940395    -78.7724867043214    0.997747133168538    0.671572111821648    
1171.92057494936     0.997744793683838    0.581633583335268    0.010387685990399    -77.1703641857306    0.010387685990399    -77.1703641857306    0.997744793683838    0.581633583335268    
1182.68283353307     0.99773931884167     0.491745112563629    0.008865902955999    -74.9815107923378    0.008865902955999    -74.9815107923378    0.99773931884167     0.491745112563629    
1193.54392663876     0.997730705781278    0.401899845670938    0.007364829034545    -71.8528423589926    0.007364829034545    -71.8528423589926    0.997730705781278    0.401899845670938    
1204.50476190702     0.997718950701826    0.312090934422697    0.005899610124089    -67.0981991955084    0.005899610124089    -67.0981991955084    0.997718950701826    0.312090934422697    
1215.5662553137      0.997704048861394    0.222311536075354    0.004504635077438    -59.245966283718     0.004504635077438    -59.245966283718     0.997704048861394    0.222311536075354    
1226.72933124645     0.9976859945758      0.132554813268435    0.003270259704654    -44.8945345989043    0.003270259704654    -44.8945345989043    0.9976859945758      0.132554813268435    
1237.994922582       0.997664781217206    0.042813933918768    0.002451594700706    -17.703268292683     0.002451594700706    -17.703268292683     0.997664781217206    0.042813933918768    
1249.36397076406     0.997640401212532    -0.046917928882075   0.002497333792593    19.0943604576913     0.002497333792593    19.0943604576913     0.997640401212532    -0.046917928882075   
1260.83742588205     0.997612846041684    -0.1366475969674     0.003372374835       44.8710201290255     0.003372374835       44.8710201290255     0.997612846041684    -0.1366475969674     
1272.41624675048     0.997582106235569    -0.226381887191972   0.004628143072992    58.3912964277295     0.004628143072992    58.3912964277295     0.997582106235569    -0.226381887191972   
1284.10140098906     0.997548171373929    -0.316127611524399   0.006031516929941    65.8566974431943     0.006031516929941    65.8566974431943     0.997548171373929    -0.316127611524399   
1295.89386510357     0.997511030082972    -0.405891577135927   0.007500330322498    70.41619821135       0.007500330322498    70.41619821135       0.997511030082972    -0.405891577135927   
1307.79462456749     0.99747067003281     -0.495680586485078   0.009002888886387    73.4356147532998     0.009002888886387    73.4356147532998     0.99747067003281     -0.495680586485078   
1319.80467390431     0.997427077934708    -0.58550143739722    0.010525057097453    75.5577016377027     0.010525057097453    75.5577016377027     0.997427077934708    -0.58550143739722    
1331.92501677069     0.997380239538139    -0.675360923139985   0.012059739911983    77.1160387901831     0.012059739911983    77.1160387901831     0.997380239538139    -0.675360923139985   
1344.15666604028     0.997330139627642    -0.76526583249318    0.013603046331714    78.2987407520171     0.013603046331714    78.2987407520171     0.997330139627642    -0.76526583249318    
1356.50064388841     0.997276762019501    -0.855222949813038   0.015152698204213    79.2192480096749     0.015152698204213    79.2192480096749     0.997276762019501    -0.855222949813038   
1368.95798187749     0.997220089558225    -0.945239055091454   0.01670729664188     79.9497753702311     0.01670729664188     79.9497753702311     0.997220089558225    -0.945239055091454   
1381.52972104321     0.997160104112844    -1.03532092400821    0.018265953730905    80.5383722436144     0.018265953730905    80.5383722436144     0.997160104112844    -1.03532092400821    
1394.21691198154     0.997096786573018    -1.12547532797763    0.019828094376615    81.0182016529079     0.019828094376615    81.0182016529079     0.997096786573018    -1.12547532797763    
1407.02061493656     0.997030116844962    -1.21570903418819    0.021393343432564    81.4128668263046     0.021393343432564    81.4128668263046     0.997030116844962    -1.21570903418819    
1419.94189988901     0.996960073847186    -1.30602880563515    0.02296145827121     81.7396116943362     0.02296145827121     81.7396116943362     0.996960073847186    -1.30602880563515    
1432.98184664574     0.996886635506055    -1.39644140114582    0.024532286843637    82.0113203250418     0.024532286843637    82.0113203250418     0.996886635506055    -1.39644140114582    
1446.14154492993     0.996809778751162    -1.48695357539754    0.026105740676039    82.2378086845229     0.026105740676039    82.2378086845229     0.996809778751162    -1.48695357539754    
1459.42209447217     0.996729479510532    -1.57757207892702    0.027681776955228    82.4266839284751     0.027681776955228    82.4266839284751     0.996729479510532    -1.57757207892702    
1472.82460510235     0.996645712705643    -1.6683036581319     0.029260386328997    82.5839308388345     0.029260386328997    82.5839308388345     0.996645712705643    -1.6683036581319     
1486.35019684243     0.996558452246268    -1.75915505526374    0.03084158440447     82.7143212049169     0.03084158440447     82.7143212049169     0.996558452246268    -1.75915505526374    
1500                 0.996467671025162    -1.85013300841147    0.032425405700901    82.8217054151083     0.032425405700901    82.8217054151083     0.996467671025162    -1.85013300841147    
