# MHz S MA R 50      
!Freq                MagS11               AngS11               MagS21               AngS21               MagS12               AngS12               MagS22               AngS22               
1                    0.021294631721646    48.9970311705871     0.986159583974847    -0.933738121953559   0.986159583974847    -0.933738121953559   0.021294631721646    48.9970311705871     
1.00890198512623     0.021416376469564    49.2035898213231     0.986140400476129    -0.942032680173793   0.986140400476129    -0.942032680173793   0.021416376469564    49.2035898213231     
1.01788321559164     0.021539454470148    49.4096709256222     0.986121101141484    -0.950400822091833   0.986121101141484    -0.950400822091833   0.021539454470148    49.4096709256222     
1.02694439683708     0.021663878097683    49.6152624789849     0.986101684906531    -0.958843198822562   0.986101684906531    -0.958843198822562   0.021663878097683    49.6152624789849     
1.03608624058318     0.021789659812223    49.820352593068      0.986082150692394    -0.967360467210474   0.986082150692394    -0.967360467210474   0.021789659812223    49.820352593068      
1.04530946488635     0.021916812160294    50.0249294981454     0.9860624974054      -0.975953289879354   0.9860624974054      -0.975953289879354   0.021916812160294    50.0249294981454     
1.05461479419507     0.022045347775618    50.2289815454833     0.986042723936879    -0.984622335282435   0.986042723936879    -0.984622335282435   0.022045347775618    50.2289815454833     
1.06400295940689     0.022175279379847    50.4324972096374     0.986022829162926    -0.993368277753007   0.986022829162926    -0.993368277753007   0.022175279379847    50.4324972096374     
1.0734746979258      0.022306619783314    50.6354650906637     0.986002811944087    -1.00219179755533    0.986002811944087    -1.00219179755533    0.022306619783314    50.6354650906637     
1.08303075372011     0.022439381885797    50.8378739162446     0.985982671125189    -1.01109358093615    0.985982671125189    -1.01109358093615    0.022439381885797    50.8378739162446     
1.09267187738098     0.022573578677294    51.0397125437337     0.985962405535009    -1.02007432017642    0.985962405535009    -1.02007432017642    0.022573578677294    51.0397125437337     
1.10239882618127     0.022709223238827    51.2409699621123     0.985942013986058    -1.02913471364368    0.985942013986058    -1.02913471364368    0.022709223238827    51.2409699621123     
1.11221236413511     0.02284632874324     51.4416352938603     0.985921495274299    -1.03827546584473    0.985921495274299    -1.03827546584473    0.02284632874324     51.4416352938603     
1.12211326205784     0.022984908456029    51.6416977967439     0.985900848178828    -1.0474972874787     0.985900848178828    -1.0474972874787     0.022984908456029    51.6416977967439     
1.13210229762663     0.023124975736178    51.8411468655138     0.985880071461697    -1.05680089549079    0.985880071461697    -1.05680089549079    0.023124975736178    51.8411468655138     
1.14218025544147     0.023266544037012    52.0399720335177     0.985859163867526    -1.06618701312615    0.985859163867526    -1.06618701312615    0.023266544037012    52.0399720335177     
1.15234792708688     0.023409626907063    52.2381629742279     0.985838124123276    -1.07565636998442    0.985838124123276    -1.07565636998442    0.023409626907063    52.2381629742279     
1.16260611119405     0.023554237990955    52.4357095026791     0.985816950937947    -1.08520970207467    0.985816950937947    -1.08520970207467    0.023554237990955    52.4357095026791     
1.17295561350356     0.023700391030299    52.6326015768229     0.985795643002256    -1.09484775187072    0.985795643002256    -1.09484775187072    0.023700391030299    52.6326015768229     
1.18339724692869     0.023848099864606    52.828829298795      0.985774198988383    -1.10457126836705    0.985774198988383    -1.10457126836705    0.023848099864606    52.828829298795      
1.19393183161927     0.023997378432211    53.0243829160928     0.98575261754961     -1.11438100713504    0.98575261754961     -1.11438100713504    0.023997378432211    53.0243829160928     
1.20456019502607     0.024148240771215    53.2192528226741     0.985730897320024    -1.12427773037971    0.985730897320024    -1.12427773037971    0.024148240771215    53.2192528226741     
1.21528317196584     0.024300701020442    53.4134295599631     0.985709036914233    -1.13426220699702    0.985709036914233    -1.13426220699702    0.024300701020442    53.4134295599631     
1.22610160468684     0.024454773420407    53.6069038177762     0.985687034927002    -1.14433521263147    0.985687034927002    -1.14433521263147    0.024454773420407    53.6069038177762     
1.23701634293501     0.0246104723143      53.7996664351625     0.98566488993292     -1.15449752973433    0.98566488993292     -1.15449752973433    0.0246104723143      53.7996664351625     
1.24802824402071     0.024767812148985    53.9917084011572     0.9856426004861      -1.16474994762223    0.9856426004861      -1.16474994762223    0.024767812148985    53.9917084011572     
1.2591381728861      0.024926807476015    54.1830208554579     0.985620165119805    -1.17509326253632    0.985620165119805    -1.17509326253632    0.024926807476015    54.1830208554579     
1.270347002173       0.025087472952657    54.3735950890127     0.985597582346115    -1.18552827770183    0.985597582346115    -1.18552827770183    0.025087472952657    54.3735950890127     
1.28165561229149     0.025249823342938    54.5634225445304     0.985574850655582    -1.19605580338819    0.985574850655582    -1.19605580338819    0.025249823342938    54.5634225445304     
1.29306489148905     0.025413873518692    54.7524948169079     0.985551968516851    -1.20667665696958    0.985551968516851    -1.20667665696958    0.025413873518692    54.7524948169079     
1.30457573592034     0.025579638460641    54.9408036535802     0.9855289343763      -1.21739166298596    0.9855289343763      -1.21739166298596    0.025579638460641    54.9408036535802     
1.31618904971754     0.025747133259472    55.1283409547888     0.985505746657694    -1.22820165320474    0.985505746657694    -1.22820165320474    0.025747133259472    55.1283409547888     
1.32790574506143     0.025916373116935    55.3150987737745     0.985482403761751    -1.23910746668267    0.985482403761751    -1.23910746668267    0.025916373116935    55.3150987737745     
1.339726742253       0.026087373346957    55.5010693168926     0.985458904065824    -1.25010994982856    0.985458904065824    -1.25010994982856    0.026087373346957    55.5010693168926     
1.35165296978574     0.02626014937677     55.6862449436537     0.985435245923461    -1.26120995646623    0.985435245923461    -1.26120995646623    0.02626014937677     55.6862449436537     
1.3636853644186      0.026434716748044    55.8706181666893     0.985411427664023    -1.27240834789816    0.985411427664023    -1.27240834789816    0.026434716748044    55.8706181666893     
1.37582487124951     0.026611091118045    56.0541816516439     0.985387447592291    -1.28370599296949    0.985387447592291    -1.28370599296949    0.026611091118045    56.0541816516439     
1.38807244378966     0.026789288260799    56.2369282169975     0.985363303988018    -1.29510376813266    0.985363303988018    -1.29510376813266    0.026789288260799    56.2369282169975     
1.40042904403841     0.026969324068273    56.4188508338152     0.985338995105563    -1.30660255751253    0.985338995105563    -1.30660255751253    0.026969324068273    56.4188508338152     
1.41289564255878     0.027151214551568    56.5999426254297     0.985314519173409    -1.31820325297199    0.985314519173409    -1.31820325297199    0.027151214551568    56.5999426254297     
1.42547321855375     0.027334975842127    56.7801968670554     0.985289874393774    -1.32990675417813    0.985289874393774    -1.32990675417813    0.027334975842127    56.7801968670554     
1.43816275994315     0.027520624192949    56.9596069853361     0.98526505894215     -1.34171396866891    0.98526505894215     -1.34171396866891    0.027520624192949    56.9596069853361     
1.45096526344126     0.02770817597983     57.1381665578282     0.985240070966838    -1.35362581192039    0.985240070966838    -1.35362581192039    0.02770817597983     57.1381665578282     
1.46388173463508     0.027897647702601    57.3158693124213     0.985214908588522    -1.36564320741443    0.985214908588522    -1.36564320741443    0.027897647702601    57.3158693124213     
1.47691318806336     0.028089055986392    57.492709126696      0.985189569899809    -1.37776708670707    0.985189569899809    -1.37776708670707    0.028089055986392    57.492709126696      
1.49006064729623     0.0282824175829      57.668680027222      0.985164052964709    -1.38999838949724    0.985164052964709    -1.38999838949724    0.0282824175829      57.668680027222      
1.50332514501564     0.028477749371674    57.8437761887972     0.985138355818189    -1.40233806369618    0.985138355818189    -1.40233806369618    0.028477749371674    57.8437761887972     
1.51670772309645     0.028675068361411    58.0179919336311     0.98511247646569     -1.41478706549734    0.98511247646569     -1.41478706549734    0.028675068361411    58.0179919336311     
1.53020943268829     0.028874391691265    58.1913217304711     0.985086412882633    -1.4273463594469     0.985086412882633    -1.4273463594469     0.028874391691265    58.1913217304711     
1.5438313342981      0.029075736632168    58.3637601936741     0.985060163013868    -1.44001691851465    0.985060163013868    -1.44001691851465    0.029075736632168    58.3637601936741     
1.55757449787343     0.029279120588164    58.5353020822298     0.985033724773203    -1.45279972416565    0.985033724773203    -1.45279972416565    0.029279120588164    58.5353020822298     
1.57144000288649     0.029484561097752    58.7059422987293     0.985007096042871    -1.46569576643235    0.985007096042871    -1.46569576643235    0.029484561097752    58.7059422987293     
1.58542893841894     0.029692075835249    58.8756758882852     0.984980274673004    -1.47870604398729    0.984980274673004    -1.47870604398729    0.029692075835249    58.8756758882852     
1.59954240324744     0.029901682612151    59.0444980374069     0.984953258481067    -1.49183156421627    0.984953258481067    -1.49183156421627    0.029901682612151    59.0444980374069     
1.61378150592992     0.030113399378522    59.2124040728269     0.98492604525132     -1.50507334329223    0.98492604525132     -1.50507334329223    0.030113399378522    59.2124040728269     
1.62814736489269     0.030327244224383    59.3793894602856     0.984898632734267    -1.51843240624964    0.984898632734267    -1.51843240624964    0.030327244224383    59.3793894602856     
1.64264110851827     0.030543235381116    59.5454498032713     0.984871018646086    -1.53190978705943    0.984871018646086    -1.53190978705943    0.030543235381116    59.5454498032713     
1.65726387523403     0.030761391222881    59.7105808417207     0.984843200668024    -1.54550652870455    0.984843200668024    -1.54550652870455    0.030761391222881    59.7105808417207     
1.6720168136016      0.030981730268045    59.8747784506795     0.984815176445839    -1.55922368325608    0.984815176445839    -1.55922368325608    0.030981730268045    59.8747784506795     
1.68690108240708     0.031204271180615    60.0380386389265     0.984786943589171    -1.5730623119499     0.984786943589171    -1.5730623119499     0.031204271180615    60.0380386389265     
1.70191785075209     0.031429032771694    60.2003575475589     0.984758499670954    -1.58702348526402    0.984758499670954    -1.58702348526402    0.031429032771694    60.2003575475589     
1.71706829814555     0.031656034000937    60.3617314485468     0.984729842226796    -1.6011082829964     0.984729842226796    -1.6011082829964     0.031656034000937    60.3617314485468     
1.73235361459636     0.031885293978026    60.5221567432504     0.984700968754321    -1.61531779434344    0.984700968754321    -1.61531779434344    0.031885293978026    60.5221567432504     
1.74777500070686     0.032116831964149    60.6816299609112     0.984671876712549    -1.62965311797902    0.984671876712549    -1.62965311797902    0.032116831964149    60.6816299609112     
1.76333366776715     0.032350667373496    60.8401477571075     0.984642563521235    -1.64411536213412    0.984642563521235    -1.64411536213412    0.032350667373496    60.8401477571075     
1.77903083785019     0.032586819774761    60.9977069121869     0.984613026560229    -1.65870564467716    0.984613026560229    -1.65870564467716    0.032586819774761    60.9977069121869     
1.79486774390783     0.032825308892656    61.1543043296682     0.984583263168739    -1.67342509319468    0.984583263168739    -1.67342509319468    0.032825308892656    61.1543043296682     
1.81084562986764     0.03306615460944     61.3099370346205     0.98455327064471     -1.68827484507296    0.98455327064471     -1.68827484507296    0.03306615460944     61.3099370346205     
1.82696575073062     0.033309376966445    61.4646021720169     0.984523046244089    -1.70325604757995    0.984523046244089    -1.70325604757995    0.033309376966445    61.4646021720169     
1.84322937266975     0.033554996165632    61.6182970050673     0.984492587180127    -1.718369857948      0.984492587180127    -1.718369857948      0.033554996165632    61.6182970050673     
1.85963777312949     0.033803032571138    61.771018913529      0.984461890622624    -1.73361744345711    0.984461890622624    -1.73361744345711    0.033803032571138    61.771018913529      
1.87619224092605     0.034053506710844    61.922765391999      0.984430953697242    -1.74899998151879    0.984430953697242    -1.74899998151879    0.034053506710844    61.922765391999      
1.89289407634872     0.034306439277951    62.073534048187      0.984399773484723    -1.76451865976058    0.984399773484723    -1.76451865976058    0.034306439277951    62.073534048187      
1.90974459126191     0.034561851132564    62.2233226011729     0.98436834702014     -1.78017467611122    0.98436834702014     -1.78017467611122    0.034561851132564    62.2233226011729     
1.92674510920821     0.034819763303288    62.3721288796488     0.984336671292112    -1.79596923888626    0.984336671292112    -1.79596923888626    0.034819763303288    62.3721288796488     
1.94389696551242     0.03508019698883     62.5199508201459     0.984304743242037    -1.81190356687457    0.984304743242037    -1.81190356687457    0.03508019698883     62.5199508201459     
1.96120150738633     0.035343173559614    62.6667864652493     0.984272559763257    -1.82797888942516    0.984272559763257    -1.82797888942516    0.035343173559614    62.6667864652493     
1.97866009403462     0.035608714559402    62.8126339618024     0.984240117700267    -1.8441964465349     0.984240117700267    -1.8441964465349     0.035608714559402    62.8126339618024     
1.99627409676157     0.035876841706932    62.9574915590989     0.984207413847906    -1.86055748893675    0.984207413847906    -1.86055748893675    0.035876841706932    62.9574915590989     
2.01404489907882     0.036147576897552    63.1013576070679     0.984174444950448    -1.87706327818853    0.984174444950448    -1.87706327818853    0.036147576897552    63.1013576070679     
2.03197389681397     0.036420942204877    63.2442305544495     0.984141207700809    -1.89371508676249    0.984141207700809    -1.89371508676249    0.036420942204877    63.2442305544495     
2.0500624982203      0.036696959882443    63.3861089469645     0.984107698739667    -1.91051419813546    0.984107698739667    -1.91051419813546    0.036696959882443    63.3861089469645     
2.06831212408729     0.03697565236538     63.5269914254791     0.984073914654514    -1.92746190687946    0.984073914654514    -1.92746190687946    0.03697565236538     63.5269914254791     
2.08672420785231     0.037257042272088    63.6668767241635     0.984039851978842    -1.94455951875332    0.984039851978842    -1.94455951875332    0.037257042272088    63.6668767241635     
2.10530019571315     0.037541152405919    63.8057636686488     0.984005507191171    -1.96180835079447    0.984005507191171    -1.96180835079447    0.037541152405919    63.8057636686488     
2.12404154674164     0.037828005756879    63.9436511741808     0.983970876714106    -1.97920973141177    0.983970876714106    -1.97920973141177    0.037828005756879    63.9436511741808     
2.14294973299822     0.038117625503323    64.0805382437722     0.983935956913426    -1.99676500047874    0.983935956913426    -1.99676500047874    0.038117625503323    64.0805382437722     
2.16202623964763     0.038410035013671    64.2164239663549     0.983900744097115    -2.01447550942759    0.983900744097115    -2.01447550942759    0.038410035013671    64.2164239663549     
2.18127256507548     0.038705257848124    64.3513075149327     0.983865234514331    -2.03234262134363    0.983865234514331    -2.03234262134363    0.038705257848124    64.3513075149327     
2.20069022100604     0.039003317760397    64.4851881447357     0.983829424354486    -2.05036771106075    0.983829424354486    -2.05036771106075    0.039003317760397    64.4851881447357     
2.22028073262087     0.039304238699448    64.6180651913768     0.983793309746134    -2.068552165257      0.983793309746134    -2.068552165257      0.039304238699448    64.6180651913768     
2.24004563867871     0.039608044811225    64.7499380690118     0.983756886756057    -2.08689738255137    0.983756886756057    -2.08689738255137    0.039608044811225    64.7499380690118     
2.2599864916363      0.039914760440417    64.8808062685028     0.983720151388093    -2.10540477360075    0.983720151388093    -2.10540477360075    0.039914760440417    64.8808062685028     
2.28010485777032     0.040224410132212    65.0106693555888     0.98368309958216     -2.12407576119786    0.98368309958216     -2.12407576119786    0.040224410132212    65.0106693555888     
2.30040231730043     0.040537018634065    65.1395269690584     0.98364572721311     -2.14291178036958    0.98364572721311     -2.14291178036958    0.040537018634065    65.1395269690584     
2.32088046451338     0.040852610897469    65.2673788189323     0.983608030089668    -2.16191427847614    0.983608030089668    -2.16191427847614    0.040852610897469    65.2673788189323     
2.34154090788823     0.041171212079738    65.394224684651      0.983570003953288    -2.18108471531078    0.983570003953288    -2.18108471531078    0.041171212079738    65.394224684651      
2.36238527022271     0.041492847545798    65.5200644132713     0.983531644476998    -2.20042456320012    0.983531644476998    -2.20042456320012    0.041492847545798    65.5200644132713     
2.38341518876065     0.041817542869976    65.6448979176706     0.983492947264275    -2.21993530710526    0.983492947264275    -2.21993530710526    0.041817542869976    65.6448979176706     
2.40463231532062     0.042145323837807    65.7687251747614     0.983453907847811    -2.23961844472328    0.983453907847811    -2.23961844472328    0.042145323837807    65.7687251747614     
2.42603831642566     0.042476216447844    65.8915462237144     0.983414521688369    -2.25947548658972    0.983414521688369    -2.25947548658972    0.042476216447844    65.8915462237144     
2.44763487343414     0.04281024691347     66.0133611641929     0.983374784173526    -2.27950795618139    0.983374784173526    -2.27950795618139    0.04281024691347     66.0133611641929     
2.46942368267188     0.043147441664723    66.1341701545982     0.983334690616438    -2.29971739002003    0.983334690616438    -2.29971739002003    0.043147441664723    66.1341701545982     
2.49140645556538     0.043487827350125    66.2539734103248     0.983294236254589    -2.32010533777648    0.983294236254589    -2.32010533777648    0.043487827350125    66.2539734103248     
2.51358491877621     0.043831430838515    66.3727712020306     0.98325341624847     -2.34067336237548    0.98325341624847     -2.34067336237548    0.043831430838515    66.3727712020306     
2.53596081433667     0.04417827922089     66.4905638539164     0.983212225680329    -2.36142304010131    0.983212225680329    -2.36142304010131    0.04417827922089     66.4905638539164     
2.55853589978659     0.044528399812255    66.6073517420207     0.983170659552798    -2.38235596070378    0.983170659552798    -2.38235596070378    0.044528399812255    66.6073517420207     
2.58131194831141     0.044881820153473    66.7231352925269     0.983128712787554    -2.40347372750503    0.983128712787554    -2.40347372750503    0.044881820153473    66.7231352925269     
2.60429074888144     0.045238568013127    66.8379149800838     0.983086380223973    -2.42477795750697    0.983086380223973    -2.42477795750697    0.045238568013127    66.8379149800838     
2.62747410639235     0.045598671389376    66.9516913261416     0.98304365661768     -2.44627028149914    0.98304365661768     -2.44627028149914    0.045598671389376    66.9516913261416     
2.65086384180701     0.045962158511833    67.0644648973009     0.983000536639186    -2.46795234416751    0.983000536639186    -2.46795234416751    0.045962158511833    67.0644648973009     
2.67446179229843     0.046329057843436    67.1762363036787     0.982957014872412    -2.48982580420363    0.982957014872412    -2.48982580420363    0.046329057843436    67.1762363036787     
2.69826981139413     0.046699398082326    67.2870061972868     0.982913085813219    -2.51189233441451    0.982913085813219    -2.51189233441451    0.046699398082326    67.2870061972868     
2.72228976912171     0.047073208163731    67.3967752704283     0.982868743867946    -2.5341536218332     0.982868743867946    -2.5341536218332     0.047073208163731    67.3967752704283     
2.74652355215572     0.047450517261855    67.5055442541085     0.982823983351851    -2.55661136782968    0.982823983351851    -2.55661136782968    0.047450517261855    67.5055442541085     
2.77097306396584     0.047831354791774    67.6133139164626     0.982778798487613    -2.57926728822284    0.982778798487613    -2.57926728822284    0.047831354791774    67.6133139164626     
2.79564022496645     0.048215750411328    67.7200850611987     0.98273318340374     -2.60212311339252    0.98273318340374     -2.60212311339252    0.048215750411328    67.7200850611987     
2.82052697266738     0.048603734023023    67.8258585260592     0.982687132132956    -2.6251805883926     0.982687132132956    -2.6251805883926     0.048603734023023    67.8258585260592     
2.84563526182619     0.048995335775939    67.9306351812967     0.982640638610635    -2.64844147306438    0.982640638610635    -2.64844147306438    0.048995335775939    67.9306351812967     
2.87096706460164     0.049390586067634    68.0344159281685     0.982593696673096    -2.67190754215076    0.982593696673096    -2.67190754215076    0.049390586067634    68.0344159281685     
2.89652437070861     0.049789515546059    68.1372016974479     0.982546300055962    -2.69558058541077    0.982546300055962    -2.69558058541077    0.049789515546059    68.1372016974479     
2.92230918757442     0.050192155111467    68.2389934479521     0.982498442392462    -2.71946240773498    0.982498442392462    -2.71946240773498    0.050192155111467    68.2389934479521     
2.94832354049644     0.050598535918337    68.3397921650883     0.982450117211661    -2.74355482926116    0.982450117211661    -2.74355482926116    0.050598535918337    68.3397921650883     
2.97456947280125     0.051008689377289    68.439598859417      0.982401317936752    -2.76785968549074    0.982401317936752    -2.76785968549074    0.051008689377289    68.439598859417      
3.00104904600506     0.051422647157006    68.5384145652331     0.982352037883215    -2.79237882740572    0.982352037883215    -2.79237882740572    0.051422647157006    68.5384145652331     
3.02776433997568     0.051840441186159    68.6362403391644     0.982302270257056    -2.81711412158615    0.982302270257056    -2.81711412158615    0.051840441186159    68.6362403391644     
3.05471745309587     0.052262103655336    68.7330772587887     0.982252008152907    -2.8420674503282     0.982252008152907    -2.8420674503282     0.052262103655336    68.7330772587887     
3.08191050242815     0.05268766701896     68.8289264212677     0.982201244552184    -2.86724071176265    0.982201244552184    -2.86724071176265    0.05268766701896     68.8289264212677     
3.10934562388114     0.053117163997226    68.923788942         0.982149972321157    -2.89263581997402    0.982149972321157    -2.89263581997402    0.053117163997226    68.923788942         
3.13702497237723     0.053550627578023    69.017665953291      0.982098184209001    -2.91825470512011    0.982098184209001    -2.91825470512011    0.053550627578023    69.017665953291      
3.16495072202193     0.053988091018869    69.110558603042      0.982045872845867    -2.94409931355231    0.982045872845867    -2.94409931355231    0.053988091018869    69.110558603042      
3.19312506627462     0.054429587848836    69.2024680534562     0.98199303074082     -2.97017160793594    0.98199303074082     -2.97017160793594    0.054429587848836    69.2024680534562     
3.22155021812078     0.054875151870481    69.2933954797635     0.981939650279851    -2.99647356737157    0.981939650279851    -2.99647356737157    0.054875151870481    69.2933954797635     
3.25022841024589     0.055324817161771    69.383342068963      0.981885723723753    -3.02300718751646    0.981885723723753    -3.02300718751646    0.055324817161771    69.383342068963      
3.27916189521074     0.055778618078019    69.4723090185835     0.981831243206084    -3.04977448070675    0.981831243206084    -3.04977448070675    0.055778618078019    69.4723090185835     
3.3083529456284      0.056236589253801    69.5602975354627     0.981776200730959    -3.07677747607987    0.981776200730959    -3.07677747607987    0.056236589253801    69.5602975354627     
3.3378038543427      0.056698765604883    69.6473088345427     0.981720588170921    -3.10401821969747    0.981720588170921    -3.10401821969747    0.056698765604883    69.6473088345427     
3.36751693460832     0.057165182330148    69.7333441376857     0.981664397264714    -3.13149877466895    0.981664397264714    -3.13149877466895    0.057165182330148    69.7333441376857     
3.39749452027253     0.057635874913508    69.8184046725051     0.981607619615031    -3.15922122127504    0.981607619615031    -3.15922122127504    0.057635874913508    69.8184046725051     
3.42773896595843     0.058110879125827    69.902491671217      0.981550246686256    -3.18718765709231    0.981550246686256    -3.18718765709231    0.058110879125827    69.902491671217      
3.45825264724999     0.058590231026832    69.9856063695067     0.981492269802127    -3.21540019711751    0.981492269802127    -3.21540019711751    0.058590231026832    69.9856063695067     
3.48903796087855     0.059073966967021    70.0677500054155     0.981433680143366    -3.24386097389271    0.981433680143366    -3.24386097389271    0.059073966967021    70.0677500054155     
3.52009732491113     0.059562123589571    70.1489238182428     0.981374468745331    -3.27257213763064    0.981374468745331    -3.27257213763064    0.059562123589571    70.1489238182428     
3.55143317894037     0.060054737832234    70.2291290474675     0.981314626495519    -3.30153585634022    0.981314626495519    -3.30153585634022    0.060054737832234    70.2291290474675     
3.58304798427609     0.060551846929237    70.3083669316848     0.981254144131168    -3.33075431595297    0.981254144131168    -3.33075431595297    0.060551846929237    70.3083669316848     
3.61494422413867     0.061053488413164    70.3866387075632     0.981193012236661    -3.36022972044882    0.981193012236661    -3.36022972044882    0.061053488413164    70.3866387075632     
3.6471244038541      0.061559700116845    70.4639456088153     0.981131221241046    -3.38996429198328    0.981131221241046    -3.38996429198328    0.061559700116845    70.4639456088153     
3.67959105105071     0.062070520175228    70.5402888651881     0.981068761415417    -3.41996027101409    0.981068761415417    -3.41996027101409    0.062070520175228    70.5402888651881     
3.71234671585777     0.062585987027247    70.6156697014694     0.981005622870266    -3.45021991642838    0.981005622870266    -3.45021991642838    0.062585987027247    70.6156697014694     
3.74539397110573     0.063106139417681    70.6900893365106     0.980941795552822    -3.48074550567019    0.980941795552822    -3.48074550567019    0.063106139417681    70.6900893365106     
3.77873541252838     0.063631016399006    70.7635489822671     0.980877269244338    -3.51153933486823    0.980877269244338    -3.51153933486823    0.063631016399006    70.7635489822671     
3.81237365896666     0.064160657333234    70.8360498428547     0.980812033557293    -3.54260371896331    0.980812033557293    -3.54260371896331    0.064160657333234    70.8360498428547     
3.8463113525744      0.06469510189375     70.9075931136221     0.980746077932648    -3.57394099183699    0.980746077932648    -3.57394099183699    0.06469510189375     70.9075931136221     
3.88055115902586     0.065234390067125    70.978179980241      0.980679391636939    -3.6055535064392     0.980679391636939    -3.6055535064392     0.065234390067125    70.978179980241      
3.91509576772508     0.06577856215493     71.0478116178104     0.98061196375941     -3.63744363491693    0.98061196375941     -3.63744363491693    0.06577856215493     71.0478116178104     
3.94994789201713     0.066327658775527    71.1164891899789     0.980543783209045    -3.66961376874231    0.980543783209045    -3.66961376874231    0.066327658775527    71.1164891899789     
3.98511026940124     0.066881720865865    71.1842138480809     0.980474838711642    -3.70206631884158    0.980474838711642    -3.70206631884158    0.066881720865865    71.1842138480809     
4.02058566174583     0.067440789683237    71.2509867302909     0.9804051188067      -3.7348037157233     0.9804051188067      -3.7348037157233     0.067440789683237    71.2509867302909     
4.05637685550541     0.068004906807042    71.3168089607905     0.980334611844383    -3.76782840960695    0.980334611844383    -3.76782840960695    0.068004906807042    71.3168089607905     
4.0924866619395      0.068574114140527    71.3816816489533     0.980263305982404    -3.80114287055185    0.980263305982404    -3.80114287055185    0.068574114140527    71.3816816489533     
4.12891791733337     0.069148453912506    71.445605888544      0.980191189182797    -3.83474958858539    0.980191189182797    -3.83474958858539    0.069148453912506    71.445605888544      
4.16567348322089     0.069727968679076    71.5085827569322     0.980118249208748    -3.8686510738318     0.980118249208748    -3.8686510738318     0.069727968679076    71.5085827569322     
4.20275624660924     0.070312701325301    71.5706133143218     0.980044473621262    -3.90284985664055    0.980044473621262    -3.90284985664055    0.070312701325301    71.5706133143218     
4.24016912020572     0.07090269506688     71.6316986029952     0.979969849775868    -3.93734848771441    0.979969849775868    -3.93734848771441    0.07090269506688     71.6316986029952     
4.27791504264648     0.071497993451809    71.6918396465717     0.979894364819243    -3.97214953823826    0.979894364819243    -3.97214953823826    0.071497993451809    71.6918396465717     
4.31599697872739     0.072098640362002    71.751037449281      0.979818005685744    -4.00725560000635    0.979818005685744    -4.00725560000635    0.072098640362002    71.751037449281      
4.35441791963686     0.072704680014905    71.80929299525       0.979740759093978    -4.04266928555068    0.979740759093978    -4.04266928555068    0.072704680014905    71.80929299525       
4.39318088319085     0.073316156965081    71.8666072478051     0.979662611543203    -4.07839322826818    0.979662611543203    -4.07839322826818    0.073316156965081    71.8666072478051     
4.43228891406985     0.073933116105778    71.9229811487874     0.979583549309805    -4.11443008254823    0.979583549309805    -4.11443008254823    0.073933116105778    71.9229811487874     
4.47174508405804     0.07455560267046     71.9784156178824     0.979503558443581    -4.15078252389944    0.979503558443581    -4.15078252389944    0.07455560267046     71.9784156178824     
4.51155249228461     0.075183662234324    72.0329115519632     0.979422624764091    -4.18745324907615    0.979422624764091    -4.18745324907615    0.075183662234324    72.0329115519632     
4.55171426546712     0.075817340715788    72.0864698244471     0.979340733856879    -4.22444497620486    0.979340733856879    -4.22444497620486    0.075817340715788    72.0864698244471     
4.59223355815715     0.076456684377942    72.139091284666      0.979257871069663    -4.2617604449096     0.979257871069663    -4.2617604449096     0.076456684377942    72.139091284666      
4.63311355298803     0.077101739829984    72.1907767572496     0.979174021508451    -4.29940241643754    0.979174021508451    -4.29940241643754    0.077101739829984    72.1907767572496     
4.67435746092486     0.07775255402861     72.2415270415219     0.979089170033637    -4.33737367378336    0.979089170033637    -4.33737367378336    0.07775255402861     72.2415270415219     
4.71596852151668     0.07840917427939     72.2913429109109     0.979003301256       -4.37567702181367    0.979003301256       -4.37567702181367    0.07840917427939     72.2913429109109     
4.75795000315098     0.079071648238089    72.3402251123708     0.978916399532631    -4.41431528739014    0.978916399532631    -4.41431528739014    0.079071648238089    72.3402251123708     
4.80030520331037     0.079740023911978    72.3881743658165     0.97882844896289     -4.45329131949284    0.97882844896289     -4.45329131949284    0.079740023911978    72.3881743658165     
4.84303744883159     0.080414349661086    72.4351913635718     0.978739433384173    -4.49260798934187    0.978739433384173    -4.49260798934187    0.080414349661086    72.4351913635718     
4.88615009616686     0.081094674199433    72.4812767698286     0.978649336367708    -4.53226819051903    0.978649336367708    -4.53226819051903    0.081094674199433    72.4812767698286     
4.92964653164745     0.081781046596214    72.5264312201192     0.97855814121428     -4.57227483908815    0.97855814121428     -4.57227483908815    0.081781046596214    72.5264312201192     
4.97353017174974     0.082473516276945    72.5706553208009     0.978465830949852    -4.61263087371474    0.978465830949852    -4.61263087371474    0.082473516276945    72.5706553208009     
5.0178044633635      0.083172133024572    72.6139496485512     0.978372388321154    -4.65333925578491    0.978372388321154    -4.65333925578491    0.083172133024572    72.6139496485512     
5.06247288406268     0.08387694698053     72.6563147498768     0.978277795791233    -4.69440296952289    0.978277795791233    -4.69440296952289    0.08387694698053     72.6563147498768     
5.10753894237854     0.084588008645758    72.6977511406326     0.978182035534849    -4.73582502210762    0.978182035534849    -4.73582502210762    0.084588008645758    72.6977511406326     
5.15300617807523     0.085305368881674    72.7382593055538     0.978085089433899    -4.77760844378853    0.978085089433899    -4.77760844378853    0.085305368881674    72.7382593055538     
5.19887816242781     0.086029078911098    72.7778396977975     0.97798693907276     -4.81975628799982    0.97798693907276     -4.81975628799982    0.086029078911098    72.7778396977975     
5.24515849850282     0.08675919031912     72.8164927384984     0.97788756573349     -4.86227163147355    0.97788756573349     -4.86227163147355    0.08675919031912     72.8164927384984     
5.2918508214412      0.087495755053924    72.8542188163326     0.977786950391085    -4.90515757435169    0.977786950391085    -4.90515757435169    0.087495755053924    72.8542188163326     
5.33895879874389     0.088238825427555    72.8910182870954     0.977685073708532    -4.94841724029635    0.977685073708532    -4.94841724029635    0.088238825427555    72.8910182870954     
5.38648613055985     0.088988454116632    72.9268914732881     0.977581916031907    -4.99205377659901    0.977581916031907    -4.99205377659901    0.088988454116632    72.9268914732881     
5.43443654997673     0.089744694163001    72.9618386637167     0.977477457385355    -5.03607035428799    0.977477457385355    -5.03607035428799    0.089744694163001    72.9618386637167     
5.48281382331405     0.090507598974331    72.9958601131009     0.977371677465988    -5.08047016823436    0.977371677465988    -5.08047016823436    0.090507598974331    72.9958601131009     
5.53162175041907     0.09127722232465     73.0289560416947     0.977264555638733    -5.12525643725639    0.977264555638733    -5.12525643725639    0.09127722232465     73.0289560416947     
5.58086416496522     0.092053618354811    73.0611266349163     0.9771560709311      -5.17043240422181    0.9771560709311      -5.17043240422181    0.092053618354811    73.0611266349163     
5.63054493475324     0.092836841572906    73.0923720429897     0.977046202027922    -5.21600133614904    0.977046202027922    -5.21600133614904    0.092836841572906    73.0923720429897     
5.68066796201497     0.093626946854593    73.1226923805959     0.976934927265904    -5.2619665243054     0.976934927265904    -5.2619665243054     0.093626946854593    73.1226923805959     
5.73123718371986     0.094423989443375    73.1520877265352     0.97682222462828     -5.30833128430476    0.97682222462828     -5.30833128430476    0.094423989443375    73.1520877265352     
5.78225657188422     0.095228024950784    73.1805581233994     0.97670807173922     -5.35509895620152    0.97670807173922     -5.35509895620152    0.095228024950784    73.1805581233994     
5.83373013388317     0.09603910935651     73.2081035772535     0.976592445858254    -5.40227290458393    0.976592445858254    -5.40227290458393    0.09603910935651     73.2081035772535     
5.88566191276543     0.096857299008444    73.23472405733       0.976475323874632    -5.44985651866397    0.976475323874632    -5.44985651866397    0.096857299008444    73.23472405733       
5.93805598757087     0.097682650622641    73.2604194957294     0.976356682301585    -5.49785321236597    0.976356682301585    -5.49785321236597    0.097682650622641    73.2604194957294     
5.99091647365093     0.098515221283205    73.2851897871343     0.976236497270472    -5.54626642441187    0.976236497270472    -5.54626642441187    0.098515221283205    73.2851897871343     
6.04424752299185     0.099355068442086    73.309034788532      0.976114744524922    -5.5950996184043     0.976114744524922    -5.5950996184043     0.099355068442086    73.309034788532      
6.09805332454077     0.100202249918788    73.3319543189462     0.975991399414859    -5.64435628290719    0.975991399414859    -5.64435628290719    0.100202249918788    73.3319543189462     
6.15233810453477     0.101056823900004    73.3539481591804     0.975866436890483    -5.69403993152378    0.975866436890483    -5.69403993152378    0.101056823900004    73.3539481591804     
6.20710612683287     0.101918848939123    73.375016051569      0.975739831496085    -5.74415410297078    0.975739831496085    -5.74415410297078    0.101918848939123    73.375016051569      
6.26236169325085     0.102788383955684    73.3951576997404     0.975611557363935    -5.79470236115116    0.975611557363935    -5.79470236115116    0.102788383955684    73.3951576997404     
6.31810914389923     0.103665488234703    73.4143727683882     0.975481588207937    -5.84568829522252    0.975481588207937    -5.84568829522252    0.103665488234703    73.4143727683882     
6.37435285752411     0.104550221425908    73.4326608830525     0.975349897317325    -5.89711551966311    0.975349897317325    -5.89711551966311    0.104550221425908    73.4326608830525     
6.43109725185111     0.105442643542866    73.4500216299116     0.975216457550198    -5.94898767433382    0.975216457550198    -5.94898767433382    0.105442643542866    73.4500216299116     
6.48834678393242     0.106342814962012    73.466454555582      0.975081241327034    -6.00130842453804    0.975081241327034    -6.00130842453804    0.106342814962012    73.466454555582      
6.54610595049679     0.107250796421556    73.4819591669299     0.974944220624081    -6.05408146107614    0.974944220624081    -6.05408146107614    0.107250796421556    73.4819591669299     
6.60437928830283     0.108166649020283    73.4965349308905     0.974805366966707    -6.10731050029797    0.974805366966707    -6.10731050029797    0.108166649020283    73.4965349308905     
6.66317137449527     0.109090434216235    73.5101812742979     0.974664651422646    -6.1609992841509     0.974664651422646    -6.1609992841509     0.109090434216235    73.5101812742979     
6.72248682696453     0.110022213825277    73.5228975837252     0.974522044595194    -6.21515158022387    0.974522044595194    -6.21515158022387    0.110022213825277    73.5228975837252     
6.78233030470944     0.110962050019521    73.5346832053326     0.974377516616245    -6.26977118178717    0.974377516616245    -6.26977118178717    0.110962050019521    73.5346832053326     
6.84270650820313     0.11191000532565     73.5455374447268     0.97423103713938     -6.32486190782884    0.97423103713938     -6.32486190782884    0.11191000532565     73.5455374447268     
6.90362017976229     0.112866142623088    73.5554595668292     0.974082575332748    -6.38042760308592    0.974082575332748    -6.38042760308592    0.112866142623088    73.5554595668292     
6.96507610391966     0.113830525142053    73.5644487957541     0.973932099871955    -6.43647213807178    0.973932099871955    -6.43647213807178    0.113830525142053    73.5644487957541     
7.0270791077998      0.11480321646145     73.5725043146967     0.973779578932815    -6.49299940909835    0.973779578932815    -6.49299940909835    0.11480321646145     73.5725043146967     
7.08963406149827     0.115784280506646    73.5796252658299     0.973624980184075    -6.55001333829409    0.973624980184075    -6.55001333829409    0.115784280506646    73.5796252658299     
7.15274587846412     0.116773781547082    73.585810750213      0.973468270780006    -6.60751787361634    0.973468270780006    -6.60751787361634    0.116773781547082    73.585810750213      
7.2164195158859      0.117771784193742    73.5910598277084     0.973309417352957    -6.66551698885953    0.973309417352957    -6.66551698885953    0.117771784193742    73.5910598277084     
7.28065997508094     0.118778353396469    73.5953715169082     0.97314838600582     -6.72401468365738    0.97314838600582     -6.72401468365738    0.118778353396469    73.5953715169082     
7.34547230188823     0.119793554441113    73.598744795072      0.972985142304414    -6.78301498347995    0.972985142304414    -6.78301498347995    0.119793554441113    73.598744795072      
7.41086158706476     0.120817452946528    73.6011785980739     0.972819651269754    -6.84252193962477    0.972819651269754    -6.84252193962477    0.120817452946528    73.6011785980739     
7.47683296668534     0.121850114861394    73.6026718203597     0.972651877370331    -6.90253962920297    0.972651877370331    -6.90253962920297    0.121850114861394    73.6026718203597     
7.54339162254607     0.122891606460878    73.6032233149143     0.97248178451422     -6.96307215511892    0.97248178451422     -6.96307215511892    0.122891606460878    73.6032233149143     
7.61054278257129     0.123941994343103    73.6028318932387     0.97230933604118     -7.02412364604383    0.97230933604118     -7.02412364604383    0.123941994343103    73.6028318932387     
7.67829172122426     0.12500134542545     73.6014963253388     0.972134494714632    -7.08569825638279    0.972134494714632    -7.08569825638279    0.12500134542545     73.6014963253388     
7.74664375992143     0.126069726940668    73.5992153397234     0.971957222713584    -7.14780016623599    0.971957222713584    -7.14780016623599    0.126069726940668    73.5992153397234     
7.81560426745044     0.127147206432801    73.5959876234126     0.971777481624483    -7.21043358135255    0.971777481624483    -7.21043358135255    0.127147206432801    73.5959876234126     
7.88517866039177     0.128233851752909    73.5918118219573     0.971595232432983    -7.27360273307821    0.971595232432983    -7.27360273307821    0.128233851752909    73.5918118219573     
7.95537240354423     0.129329731054605    73.5866865394696     0.971410435515682    -7.33731187829521    0.971410435515682    -7.33731187829521    0.129329731054605    73.5866865394696     
8.02619101035418     0.130434912789368    73.5806103386639     0.971223050631661    -7.40156529935482    0.971223050631661    -7.40156529935482    0.130434912789368    73.5806103386639     
8.09764004334862     0.131549465701663    73.5735817409076     0.971033036914151    -7.46636730400371    0.971033036914151    -7.46636730400371    0.131549465701663    73.5735817409076     
8.16972511457206     0.13267345882384     73.5655992262857     0.970840352861946    -7.53172222530067    0.970840352861946    -7.53172222530067    0.13267345882384     73.5655992262857     
8.24245188602735     0.133806961470806    73.5566612336733     0.970644956330856    -7.59763442152673    0.970644956330856    -7.59763442152673    0.133806961470806    73.5566612336733     
8.31582607012041     0.134950043234482    73.5467661608219     0.970446804525039    -7.66410827608687    0.970446804525039    -7.66410827608687    0.134950043234482    73.5467661608219     
8.38985343010893     0.136102773978026    73.5359123644564     0.970245853988326    -7.73114819740301    0.970245853988326    -7.73114819740301    0.136102773978026    73.5359123644564     
8.46453978055499     0.13726522382981     73.5240981603829     0.970042060595416    -7.79875861879879    0.970042060595416    -7.79875861879879    0.13726522382981     73.5240981603829     
8.53989098778186     0.13843746317717     73.5113218236098     0.96983537954304     -7.86694399837502    0.96983537954304     -7.86694399837502    0.13843746317717     73.5113218236098     
8.6159129703347      0.13961956265989     73.4975815884797     0.96962576534106     -7.93570881887643    0.96962576534106     -7.93570881887643    0.13961956265989     73.4975815884797     
8.69261169944549     0.140811593163448    73.4828756488134     0.969413171803531    -8.00505758754921    0.969413171803531    -8.00505758754921    0.140811593163448    73.4828756488134     
8.76999319950203     0.142013625811997    73.4672021580673     0.969197552039695    -8.0749948359883     0.969197552039695    -8.0749948359883     0.142013625811997    73.4672021580673     
8.84806354852112     0.143225731961067    73.4505592295019     0.968978858444846    -8.14552511997536    0.968978858444846    -8.14552511997536    0.143225731961067    73.4505592295019     
8.92682887862598     0.144447983190021    73.4329449363642     0.968757042691314    -8.21665301930681    0.968757042691314    -8.21665301930681    0.144447983190021    73.4329449363642     
9.00629537652789     0.145680451294204    73.4143573120812     0.968532055719211    -8.28838313761076    0.968532055719211    -8.28838313761076    0.145680451294204    73.4143573120812     
9.08646928401215     0.146923208276823    73.3947943504687     0.968303847727237    -8.36072010215378    0.968303847727237    -8.36072010215378    0.146923208276823    73.3947943504687     
9.16735689842836     0.148176326340546    73.3742540059516     0.968072368163457    -8.43366856363723    0.968072368163457    -8.43366856363723    0.148176326340546    73.3742540059516     
9.24896457318499     0.149439877878767    73.3527341937989     0.967837565715931    -8.50723319598074    0.967837565715931    -8.50723319598074    0.149439877878767    73.3527341937989     
9.33129871824849     0.150713935466611    73.3302327903706     0.967599388303417    -8.58141869609649    0.967599388303417    -8.58141869609649    0.150713935466611    73.3302327903706     
9.41436580064673     0.1519985718516      73.306747633381      0.967357783065995    -8.65622978364985    0.967357783065995    -8.65622978364985    0.1519985718516      73.306747633381      
9.49817234497696     0.153293859944004    73.2822765221735     0.967112696355633    -8.73167120080881    0.967112696355633    -8.73167120080881    0.153293859944004    73.2822765221735     
9.58272493391829     0.154599872806877    73.2568172180127     0.966864073726741    -8.80774771198076    0.966864073726741    -8.80774771198076    0.154599872806877    73.2568172180127     
9.66803020874877     0.155916683645757    73.2303674443878     0.966611859926741    -8.88446410353681    0.966611859926741    -8.88446410353681    0.155916683645757    73.2303674443878     
9.75409486986697     0.157244365798023    73.2029248873339     0.966355998886543    -8.96182518352281    0.966355998886543    -8.96182518352281    0.157244365798023    73.2029248873339     
9.84092567731835     0.158582992721912    73.1744871957666     0.966096433711047    -9.03983578135742    0.966096433711047    -9.03983578135742    0.158582992721912    73.1744871957666     
9.92852945132615     0.159932637985185    73.145051981832      0.965833106669658    -9.11850074751658    0.965833106669658    -9.11850074751658    0.159932637985185    73.145051981832      
10.0169130728272     0.161293375253426    73.1146168212739     0.96556595918669     -9.19782495320326    0.96556595918669     -9.19782495320326    0.161293375253426    73.1146168212739     
10.1060834840122     0.162665278277979    73.0831792538155     0.965294931831886    -9.27781329000407    0.965294931831886    -9.27781329000407    0.162665278277979    73.0831792538155     
10.1960476888713     0.164048420883504    73.0507367835572     0.965019964310843    -9.35847066953024    0.965019964310843    -9.35847066953024    0.164048420883504    73.0507367835572     
10.2868127537439     0.165442876955171    73.0172868793923     0.964740995455536    -9.43980202304479    0.964740995455536    -9.43980202304479    0.165442876955171    73.0172868793923     
10.3783858078741     0.166848720425429    72.9828269754381     0.964457963214713    -9.52181230107276    0.964457963214713    -9.52181230107276    0.166848720425429    72.9828269754381     
10.47077404397       0.168266025260412    72.9473544714846     0.964170804644457    -9.60450647299758    0.964170804644457    -9.60450647299758    0.168266025260412    72.9473544714846     
10.5639847187695     0.169694865445923    72.9108667334611     0.96387945589866     -9.68788952664037    0.96387945589866     -9.68788952664037    0.169694865445923    72.9108667334611     
10.6580251536097     0.171135314973012    72.8733610939193     0.96358385221959     -9.77196646782292    0.96358385221959     -9.77196646782292    0.171135314973012    72.8733610939193     
10.7529027350021     0.172587447823122    72.8348348525361     0.963283927928416    -9.85674231991422    0.963283927928416    -9.85674231991422    0.172587447823122    72.8348348525361     
10.8486249152129     0.174051337952828    72.7952852766331     0.962979616415857    -9.94222212336019    0.962979616415857    -9.94222212336019    0.174051337952828    72.7952852766331     
10.9451992128481     0.175527059278123    72.7547096017159     0.962670850132811    -10.0284109351949    0.962670850132811    -10.0284109351949    0.175527059278123    72.7547096017159     
11.0426332134445     0.177014685658265    72.7131050320317     0.962357560581054    -10.1153138285357    0.962357560581054    -10.1153138285357    0.177014685658265    72.7131050320317     
11.140934570065      0.178514290879177    72.670468741147      0.96203967830401     -10.2029358920576    0.96203967830401     -10.2029358920576    0.178514290879177    72.670468741147      
11.2401110039        0.180025948636388    72.6267978725441     0.961717132877585    -10.2912822294522    0.961717132877585    -10.2912822294522    0.180025948636388    72.6267978725441     
11.3401703048738     0.181549732517495    72.5820895402386     0.961389852901015    -10.3803579588645    0.961389852901015    -10.3803579588645    0.181549732517495    72.5820895402386     
11.4411203322567     0.183085715984165    72.5363408294164     0.961057765987911    -10.4701682123125    0.961057765987911    -10.4701682123125    0.183085715984165    72.5363408294164     
11.5429690152818     0.18463397235365     72.4895487970922     0.960720798757265    -10.5607181350863    0.960720798757265    -10.5607181350863    0.18463397235365     72.4895487970922     
11.6457243537684     0.186194574779803    72.4417104727885     0.960378876824632    -10.6520128851265    0.960378876824632    -10.6520128851265    0.186194574779803    72.4417104727885     
11.7493944187498     0.187767596233609    72.3928228592366     0.960031924793408    -10.7440576323831    0.960031924793408    -10.7440576323831    0.187767596233609    72.3928228592366     
11.8539873531077     0.189353109483199    72.3428829330989     0.959679866246182    -10.8368575581525    0.959679866246182    -10.8368575581525    0.189353109483199    72.3428829330989     
11.9595113722116     0.190951187073351    72.2918876457141     0.959322623736266    -10.9304178543935    0.959322623736266    -10.9304178543935    0.190951187073351    72.2918876457141     
12.0659747645639     0.192561901304476    72.2398339238645     0.958960118779304    -11.0247437230211    0.958960118779304    -11.0247437230211    0.192561901304476    72.2398339238645     
12.1733858924515     0.194185324211064    72.1867186705666     0.958592271845048    -11.1198403751787    0.958592271845048    -11.1198403751787    0.194185324211064    72.1867186705666     
12.281753192602      0.195821527539601    72.1325387658844     0.958219002349302    -11.2157130304873    0.958219002349302    -11.2157130304873    0.195821527539601    72.1325387658844     
12.3910851768465     0.197470582725938    72.0772910677678     0.957840228646002    -11.3123669162713    0.957840228646002    -11.3123669162713    0.197470582725938    72.0772910677678     
12.5013904327886     0.199132560872104    72.0209724129136     0.957455868019464    -11.4098072667613    0.957455868019464    -11.4098072667613    0.199132560872104    72.0209724129136     
12.6126776244785     0.200807532722565    71.9635796176523     0.957065836676858    -11.508039322273     0.957065836676858    -11.508039322273     0.200807532722565    71.9635796176523     
12.7249554930935     0.20249556863991     71.905109478859      0.956670049740826    -11.607068328361     0.956670049740826    -11.607068328361     0.20249556863991     71.905109478859      
12.8382328576249     0.204196738579959    71.8455587748903     0.956268421242325    -11.706899534949     0.956268421242325    -11.706899534949     0.204196738579959    71.8455587748903     
12.9525186155706     0.205911112066309    71.7849242665463     0.955860864113729    -11.8075381954338    0.955860864113729    -11.8075381954338    0.205911112066309    71.7849242665463     
13.0678217436336     0.207638758164258    71.7232026980594     0.955447290182082    -11.9089895657641    0.955447290182082    -11.9089895657641    0.207638758164258    71.7232026980594     
13.1841512984276     0.209379745454167    71.6603907981087     0.955027610162682    -12.0112589034933    0.955027610162682    -12.0112589034933    0.209379745454167    71.6603907981087     
13.3015164171881     0.211134142004195    71.596485280863      0.954601733652854    -12.1143514668054    0.954601733652854    -12.1143514668054    0.211134142004195    71.596485280863      
13.4199263184902     0.212902015342435    71.5314828470489     0.954169569126033    -12.2182725135148    0.954169569126033    -12.2182725135148    0.212902015342435    71.5314828470489     
13.5393903029725     0.214683432428438    71.4653801850488     0.953731023926103    -12.3230273000377    0.953731023926103    -12.3230273000377    0.214683432428438    71.4653801850488     
13.6599177540677     0.216478459624106    71.3981739720254     0.953286004262087    -12.4286210803367    0.953286004262087    -12.4286210803367    0.216478459624106    71.3981739720254     
13.7815181387399     0.218287162663966    71.3298608750761     0.952834415203067    -12.5350591048364    0.952834415203067    -12.5350591048364    0.218287162663966    71.3298608750761     
13.9042010082279     0.220109606624804    71.2604375524149     0.952376160673524    -12.6423466193112    0.952376160673524    -12.6423466193112    0.220109606624804    71.2604375524149     
14.0279759987952     0.221945855894674    71.1899006545852     0.951911143448964    -12.7504888637436    0.951911143448964    -12.7504888637436    0.221945855894674    71.1899006545852     
14.1528528324875     0.223795974141239    71.1182468257007     0.951439265151896    -12.8594910711528    0.951439265151896    -12.8594910711528    0.223795974141239    71.1182468257007     
14.278841317896      0.22566002427949     71.0454727047184     0.950960426248241    -12.9693584663938    0.950960426248241    -12.9693584663938    0.22566002427949     71.0454727047184     
14.4059513509277     0.227538068438795    70.9715749267399     0.950474526044077    -13.0800962649269    0.950474526044077    -13.0800962649269    0.227538068438795    70.9715749267399     
14.5341929155828     0.229430167929304    70.8965501243447     0.949981462682831    -13.1917096715553    0.949981462682831    -13.1917096715553    0.229430167929304    70.8965501243447     
14.6635760847391     0.231336383207669    70.8203949289558     0.949481133142863    -13.3042038791322    0.949481133142863    -13.3042038791322    0.231336383207669    70.8203949289558     
14.7941110209427     0.23325677384214     70.7431059722344     0.948973433235549    -13.4175840672368    0.948973433235549    -13.4175840672368    0.23325677384214     70.7431059722344     
14.9258079772069     0.235191398476946    70.6646798875087     0.948458257603751    -13.5318554008181    0.948458257603751    -13.5318554008181    0.235191398476946    70.6646798875087     
15.058677297817      0.237140314796046    70.5851133112344     0.947935499720829    -13.6470230288065    0.947935499720829    -13.6470230288065    0.237140314796046    70.5851133112344     
15.1927294191428     0.239103579486188    70.5044028844875     0.94740505189013     -13.7630920826935    0.94740505189013     -13.7630920826935    0.239103579486188    70.5044028844875     
15.3279748704588     0.241081248199285    70.4225452544911     0.946866805244971    -13.8800676750767    0.946866805244971    -13.8800676750767    0.241081248199285    70.4225452544911     
15.4644242747708     0.243073375514148    70.3395370761736     0.946320649749236    -13.9979548981744    0.946320649749236    -13.9979548981744    0.243073375514148    70.3395370761736     
15.6020883496505     0.245080014897513    70.2553750137632     0.945766474198447    -14.1167588223042    0.945766474198447    -14.1167588223042    0.245080014897513    70.2553750137632     
15.7409779080772     0.247101218664397    70.1700557424143     0.945204166221441    -14.2364844943282    0.945204166221441    -14.2364844943282    0.247101218664397    70.1700557424143     
15.8811038592872     0.249137037937791    70.083575949869      0.944633612282672    -14.3571369360652    0.944633612282672    -14.3571369360652    0.249137037937791    70.083575949869      
16.0224772096307     0.251187522607661    69.9959323381532     0.944054697685099    -14.4787211426667    0.944054697685099    -14.4787211426667    0.251187522607661    69.9959323381532     
16.1651090634361     0.253252721289299    69.9071216253072     0.943467306573744    -14.6012420809594    0.943467306573744    -14.6012420809594    0.253252721289299    69.9071216253072     
16.3090106238827     0.255332681280974    69.8171405471519     0.942871321939892    -14.7247046877522    0.942871321939892    -14.7247046877522    0.255332681280974    69.8171405471519     
16.45419319388       0.257427448520933    69.7259858590889     0.942266625626002    -14.8491138681073    0.942266625626002    -14.8491138681073    0.257427448520933    69.7259858590889     
16.600668176956      0.259537067543733    69.6336543379388     0.941653098331258    -14.9744744935767    0.941653098331258    -14.9744744935767    0.259537067543733    69.6336543379388     
16.7484470781527     0.261661581435919    69.5401427838122     0.941030619617961    -15.1007914004026    0.941030619617961    -15.1007914004026    0.261661581435919    69.5401427838122     
16.8975415049298     0.263801031791023    69.4454480220189     0.940399067918584    -15.2280693876812    0.940399067918584    -15.2280693876812    0.263801031791023    69.4454480220189     
17.0479631680765     0.265955458663953    69.3495669050117     0.939758320543638    -15.3563132154921    0.939758320543638    -15.3563132154921    0.265955458663953    69.3495669050117     
17.1997238826312     0.268124900524699    69.2524963143672     0.939108253690349    -15.4855276029888    0.939108253690349    -15.4855276029888    0.268124900524699    69.2524963143672     
17.3528355688096     0.270309394211423    69.1542331628034     0.93844874245212     -15.6157172264551    0.93844874245212     -15.6157172264551    0.270309394211423    69.1542331628034     
17.5073102529411     0.272508974882925    69.0547743962323     0.937779660828881    -15.7468867173236    0.937779660828881    -15.7468867173236    0.272508974882925    69.0547743962323     
17.663160068413      0.274723675970487    68.95411699585       0.937100881738318    -15.8790406601588    0.937100881738318    -15.8790406601588    0.274723675970487    68.95411699585       
17.8203972566242     0.276953529129091    68.8522579802642     0.936412277027921    -16.0121835906014    0.936412277027921    -16.0121835906014    0.276953529129091    68.8522579802642     
17.9790341679461     0.279198564188083    68.7491944076555     0.935713717488105    -16.146319993279     0.935713717488105    -16.146319993279     0.279198564188083    68.7491944076555     
18.1390832626931     0.281458809101201    68.6449233779793     0.935005072866073    -16.2814542996765    0.935005072866073    -16.2814542996765    0.281458809101201    68.6449233779793     
18.3005571121011     0.283734289896086    68.5394420351996     0.93428621188088     -16.4175908859733    0.93428621188088     -16.4175908859733    0.283734289896086    68.5394420351996     
18.4634683993147     0.286025030623176    68.4327475695645     0.933557002239268    -16.5547340708409    0.933557002239268    -16.5547340708409    0.286025030623176    68.4327475695645     
18.6278299203839     0.288331053304114    68.3248372199132     0.93281731065271     -16.6928881132057    0.93281731065271     -16.6928881132057    0.288331053304114    68.3248372199132     
18.7936545852691     0.290652377879604    68.2157082760217     0.932067002855396    -16.8320572099756    0.932067002855396    -16.8320572099756    0.290652377879604    68.2157082760217     
18.9609554188546     0.292989022156747    68.1053580809859     0.931305943623302    -16.972245493728     0.931305943623302    -16.972245493728     0.292989022156747    68.1053580809859     
19.1297455619724     0.29534100175593     67.9937840336371     0.930533996794415    -17.1134570303652    0.930533996794415    -17.1134570303652    0.29534100175593     67.9937840336371     
19.3000382724336     0.297708330057198    67.8809835909959     0.929751025290008    -17.2556958167308    0.929751025290008    -17.2556958167308    0.297708330057198    67.8809835909959     
19.4718469260704     0.300091018146224    67.7669542707603     0.928956891137117    -17.3989657781927    0.928956891137117    -17.3989657781927    0.300091018146224    67.7669542707603     
19.6451850177865     0.302489074759809    67.6516936538301     0.928151455492132    -17.543270766189     0.928151455492132    -17.543270766189     0.302489074759809    67.6516936538301     
19.8200661626168     0.304902506231027    67.535199386864      0.92733457866569     -17.6886145557409    0.92733457866569     -17.6886145557409    0.304902506231027    67.535199386864      
19.9965040967973     0.307331316433957    67.417469184873      0.926506120148668    -17.8350008429293    0.926506120148668    -17.8350008429293    0.307331316433957    67.417469184873      
20.1745126788435     0.3097755067281      67.2985008338457     0.925665938639522    -17.9824332423391    0.925665938639522    -17.9824332423391    0.3097755067281      67.2985008338457     
20.3541058906395     0.312235075902441    67.1782921934093     0.924813892072825    -18.1309152844676    0.924813892072825    -18.1309152844676    0.312235075902441    67.1782921934093     
20.5352978385356     0.314710020119254    67.0568411995209     0.923949837649176    -18.2804504131026    0.923949837649176    -18.2804504131026    0.314710020119254    67.0568411995209     
20.7181027544569     0.317200332857609    66.9341458671944     0.923073631866333    -18.431041982665     0.923073631866333    -18.431041982665     0.317200332857609    66.9341458671944     
20.9025349970207     0.319706004856699    66.8102042932536     0.922185130551812    -18.5826932555229    0.922185130551812    -18.5826932555229    0.319706004856699    66.8102042932536     
21.0886090526647     0.322227024058928    66.685014659123      0.921284188896723    -18.7354073992707    0.921284188896723    -18.7354073992707    0.322227024058928    66.685014659123      
21.2763395367843     0.324763375552862    66.5585752336431     0.920370661491078    -18.8891874839813    0.920370661491078    -18.8891874839813    0.324763375552862    66.5585752336431     
21.4657411948814     0.327315041516067    66.4308843759186     0.919444402360492    -19.0440364794266    0.919444402360492    -19.0440364794266    0.327315041516067    66.4308843759186     
21.6568289037217     0.329882001157842    66.3019405381926     0.918505265004294    -19.1999572522695    0.918505265004294    -19.1999572522695    0.329882001157842    66.3019405381926     
21.8496176725039     0.332464230661928    66.1717422687511     0.917553102435108    -19.3569525632285    0.917553102435108    -19.3569525632285    0.332464230661928    66.1717422687511     
22.0441226440383     0.335061703129208    66.0402882148515     0.916587767219904    -19.5150250642149    0.916587767219904    -19.5150250642149    0.335061703129208    66.0402882148515     
22.2403590959363     0.337674388520447    65.907577125679      0.915609111522515    -19.6741772954442    0.915609111522515    -19.6741772954442    0.337674388520447    65.907577125679      
22.4383424418102     0.340302253599126    65.7736078553255     0.91461698714771     -19.8344116825229    0.91461698714771     -19.8344116825229    0.340302253599126    65.7736078553255     
22.6380882324844     0.342945261874407    65.6383793657942     0.91361124558673     -19.9957305335109    0.91361124558673     -19.9957305335109    0.342945261874407    65.6383793657942     
22.8396121572163     0.345603373544275    65.5018907300239     0.912591738064411    -20.1581360359624    0.912591738064411    -20.1581360359624    0.345603373544275    65.5018907300239     
23.0429300449286     0.348276545438924    65.3641411349362     0.911558315587855    -20.3216302539448    0.911558315587855    -20.3216302539448    0.348276545438924    65.3641411349362     
23.2480578654533     0.350964730964417    65.2251298845014     0.91051082899665     -20.4862151250382    0.91051082899665     -20.4862151250382    0.350964730964417    65.2251298845014     
23.4550117307852     0.353667880046679    65.0848564028221     0.909449129014688    -20.651892457316     0.909449129014688    -20.651892457316     0.353667880046679    65.0848564028221     
23.6638078963482     0.356385939075886    64.9433202372356     0.908373066303567    -20.8186639263084    0.908373066303567    -20.8186639263084    0.356385939075886    64.9433202372356     
23.8744627622714     0.359118850851315    64.8005210614281     0.907282491517631    -20.9865310719514    0.907282491517631    -20.9865310719514    0.359118850851315    64.8005210614281     
24.0869928746778     0.361866554526666    64.6564586785659     0.906177255360551    -21.1554952955206    0.906177255360551    -21.1554952955206    0.361866554526666    64.6564586785659     
24.3014149269838     0.364628985556006    64.5111330244348     0.905057208643624    -21.3255578565547    0.905057208643624    -21.3255578565547    0.364628985556006    64.5111330244348     
24.5177457612101     0.367406075640251    64.3645441705944     0.903922202345579    -21.4967198697653    0.903922202345579    -21.4967198697653    0.367406075640251    64.3645441705944     
24.736002369305      0.370197752674436    64.2166923275356     0.90277208767412     -21.6689823019419    0.90277208767412     -21.6689823019419    0.370197752674436    64.2166923275356     
24.9562018944789     0.373003940695666    64.0675778478478     0.901606716129053    -21.842345968848     0.901606716129053    -21.842345968848     0.373003940695666    64.0675778478478     
25.1783616325507     0.375824559831923    63.9172012293893     0.900425939567017    -22.0168115321123    0.900425939567017    -22.0168115321123    0.375824559831923    63.9172012293893     
25.4024990333064     0.378659526251742    63.7655631184606     0.899229610267924    -22.1923794961188    0.899229610267924    -22.1923794961188    0.378659526251742    63.7655631184606     
25.62863170187       0.381508752114851    63.6126643129767     0.898017581002916    -22.3690502048944    0.898017581002916    -22.3690502048944    0.381508752114851    63.6126643129767     
25.8567774000856     0.384372145523823    63.4585057656402     0.896789705104049    -22.5468238389989    0.896789705104049    -22.5468238389989    0.384372145523823    63.4585057656402     
26.0869540479133     0.387249610476855    63.3030885871063     0.895545836535544    -22.7257004124202    0.895545836535544    -22.7257004124202    0.387249610476855    63.3030885871063     
26.3191797248364     0.390141046821674    63.1464140491447     0.894285829966623    -22.9056797694728    0.894285829966623    -22.9056797694728    0.390141046821674    63.1464140491447     
26.5534726712815     0.393046350210716    62.9884835877914     0.893009540845969    -23.0867615817076    0.893009540845969    -23.0867615817076    0.393046350210716    62.9884835877914     
26.7898512900509     0.395965412057609    62.8292988064881     0.891716825477762    -23.2689453448309    0.891716825477762    -23.2689453448309    0.395965412057609    62.8292988064881     
27.0283341477688     0.398898119495059    62.6688614792094     0.890407541099249    -23.4522303756381    0.890407541099249    -23.4522303756381    0.398898119495059    62.6688614792094     
27.268939976339      0.401844355334206    62.5071735535715     0.889081545959893    -23.6366158089634    0.889081545959893    -23.6366158089634    0.401844355334206    62.5071735535715     
27.5116876744163     0.404803998025501    62.3442371539249     0.887738699401995    -23.8221005946473    0.887738699401995    -23.8221005946473    0.404803998025501    62.3442371539249     
27.7565963088914     0.407776921621281    62.1800545844194     0.886378861942881    -24.0086834945286    0.886378861942881    -24.0086834945286    0.407776921621281    62.1800545844194     
28.0036851163879     0.410762995739957    62.0146283320515     0.885001895358472    -24.1963630794566    0.885001895358472    -24.1963630794566    0.410762995739957    62.0146283320515     
28.2529735047735     0.413762085532073    61.8479610696777     0.883607662768363    -24.3851377263348    0.883607662768363    -24.3851377263348    0.413762085532073    61.8479610696777     
28.5044810546848     0.416774051648185    61.6800556590013     0.882196028722263    -24.5750056151922    0.882196028722263    -24.5750056151922    0.416774051648185    61.6800556590013     
28.7582275210644     0.419798750208722    61.5109151535228     0.880766859287845    -24.76596472629      0.880766859287845    -24.76596472629      0.419798750208722    61.5109151535228     
29.0142328347136     0.422836032775838    61.3405428014556     0.879320022139868    -24.9580128372618    0.879320022139868    -24.9580128372618    0.422836032775838    61.3405428014556     
29.2725171038571     0.42588574632743     61.1689420486009     0.877855386650658    -25.1511475202968    0.877855386650658    -25.1511475202968    0.42588574632743     61.1689420486009     
29.5331006157229     0.428947733233316    60.996116541179      0.876372823981775    -25.3453661393634    0.876372823981775    -25.3453661393634    0.428947733233316    60.996116541179      
29.7960038381355     0.432021831233705    60.8220701286141     0.87487220717694     -25.5406658474801    0.87487220717694     -25.5406658474801    0.432021831233705    60.8220701286141     
30.0612474211236     0.43510787342002     60.6468068662724     0.873353411256016    -25.7370435840336    0.873353411256016    -25.7370435840336    0.43510787342002     60.6468068662724     
30.3288521985423     0.438205688218175    60.4703310181427     0.871816313310171    -25.9344960721523    0.871816313310171    -25.9344960721523    0.438205688218175    60.4703310181427     
30.5988391897093     0.441315099374378    60.2926470594633     0.870260792598051    -26.1330198161348    0.870260792598051    -26.1330198161348    0.441315099374378    60.2926470594633     
30.8712296010559     0.44443592594351     60.1137596792894     0.868686730642878    -26.3326110989361    0.868686730642878    -26.3326110989361    0.44443592594351     60.1137596792894     
31.1460448277929     0.447567982280233    59.9336737829957     0.867094011330535    -26.5332659797195    0.867094011330535    -26.5332659797195    0.447567982280233    59.9336737829957     
31.4233064555907     0.450711078032816    59.7523944947133     0.865482521008425    -26.7349802914727    0.865482521008425    -26.7349802914727    0.450711078032816    59.7523944947133     
31.7030362622753     0.453865018139852    59.5699271596953     0.863852148585167    -26.9377496386959    0.863852148585167    -26.9377496386959    0.453865018139852    59.5699271596953     
31.9852562195384     0.457029602829841    59.3862773466099     0.862202785630928    -27.1415693951612    0.862202785630928    -27.1415693951612    0.457029602829841    59.3862773466099     
32.2699884946633     0.460204627623809    59.2014508497549     0.860534326478432    -27.3464347017505    0.860534326478432    -27.3464347017505    0.460204627623809    59.2014508497549     
32.5572554522663     0.463389883340978    59.0154536911915     0.858846668324464    -27.5523404643742    0.858846668324464    -27.5523404643742    0.463389883340978    59.0154536911915     
32.8470796560532     0.466585156107584    58.8282921227921     0.857139711331891    -27.7592813519741    0.857139711331891    -27.7592813519741    0.466585156107584    58.8282921227921     
33.1394838705914     0.469790227368887    58.6399726282035     0.855413358731976    -27.9672517946131    0.855413358731976    -27.9672517946131    0.469790227368887    58.6399726282035     
33.4344910630983     0.473004873904486    58.4505019247141     0.85366751692706     -28.1762459816577    0.85366751692706     -28.1762459816577    0.473004873904486    58.4505019247141     
33.732124405245      0.47622886784697     58.2598869650266     0.851902095593371    -28.3862578600564    0.851902095593371    -28.3862578600564    0.47622886784697     58.2598869650266     
34.0324072749766     0.479461976703966    58.0681349389334     0.850117007783952    -28.5972811327144    0.850117007783952    -28.5972811327144    0.479461976703966    58.0681349389334     
34.3353632583481     0.482703963383678    57.8752532748868     0.848312170031591    -28.8093092569736    0.848312170031591    -28.8093092569736    0.482703963383678    57.8752532748868     
34.6410161513776     0.485954586223928    57.6812496414646     0.846487502451602    -29.022335443196     0.846487502451602    -29.022335443196     0.485954586223928    57.6812496414646     
34.9493899619146     0.489213599024815    57.4861319487241     0.844642928844474    -29.2363526534593    0.844642928844474    -29.2363526534593    0.489213599024815    57.4861319487241     
35.2605089115263     0.492480751084958    57.2899083494453     0.842778376798091    -29.4513536003622    0.842778376798091    -29.4513536003622    0.492480751084958    57.2899083494453     
35.5743974373999     0.49575578724148     57.0925872402535     0.84089377778963     -29.6673307459503    0.84089377778963     -29.6673307459503    0.49575578724148     57.0925872402535     
35.8910801942622     0.499038447913681    56.8941772626245     0.838989067286846    -29.8842763007589    0.838989067286846    -29.8842763007589    0.499038447913681    56.8941772626245     
36.2105820563157     0.502328469150484    56.6946873037654     0.83706418484873     -30.1021822229801    0.83706418484873     -30.1021822229801    0.502328469150484    56.6946873037654     
36.5329281191931     0.505625582681693    56.4941264973676     0.835119074225351    -30.3210402177566    0.835119074225351    -30.3210402177566    0.505625582681693    56.4941264973676     
36.8581437019277     0.5089295159731      56.2925042242294     0.833153683456878    -30.5408417366066    0.833153683456878    -30.5408417366066    0.5089295159731      56.2925042242294     
37.1862543489427     0.512239992285436    56.0898301127465     0.831167964971509    -30.7615779769797    0.831167964971509    -30.7615779769797    0.512239992285436    56.0898301127465     
37.5172858320571     0.515556730737228    55.8861140392639     0.829161875682289    -30.9832398819506    0.829161875682289    -30.9832398819506    0.515556730737228    55.8861140392639     
37.8512641525105     0.518879446371555    55.6813661282903     0.82713537708268     -31.2058181400515    0.82713537708268     -31.2058181400515    0.518879446371555    55.6813661282903     
38.1882155430051     0.52220785022675     55.4755967525675     0.8250884353407      -31.4293031852477    0.8250884353407      -31.4293031852477    0.52220785022675     55.4755967525675     
38.5281664697661     0.52554164941101     55.2688165329962     0.823021021391567    -31.6536851970568    0.823021021391567    -31.6536851970568    0.52554164941101     55.2688165329962     
38.8711436346208     0.528880547180955    55.0610363384134     0.820933111028676    -31.8789541008164    0.820933111028676    -31.8789541008164    0.528880547180955    55.0610363384134     
39.2171739770957     0.532224243024125    54.8522672852178     0.818824684992818    -32.1050995681022    0.818824684992818    -32.1050995681022    0.532224243024125    54.8522672852178     
39.5662846765325     0.535572432745416    54.6425207368438     0.816695729059462    -32.3321110172996    0.816695729059462    -32.3321110172996    0.535572432745416    54.6425207368438     
39.9185031542231     0.538924808557395    54.4318083030789     0.814546234123987    -32.5599776143282    0.814546234123987    -32.5599776143282    0.538924808557395    54.4318083030789     
40.2738570755632     0.542281059174586    54.2201418392219     0.812376196284778    -32.7886882735279    0.812376196284778    -32.7886882735279    0.542281059174586    54.2201418392219     
40.6323743522258     0.545640869911547    54.0075334450852     0.810185616923958    -33.0182316586995    0.810185616923958    -33.0182316586995    0.545640869911547    54.0075334450852     
40.9940831443526     0.549003922784869    53.7939954638304     0.807974502785743    -33.248596184311     0.807974502785743    -33.248596184311     0.549003922784869    53.7939954638304     
41.359011862767      0.552369896618926    53.5795404806447     0.805742866052159    -33.4797700168642    0.805742866052159    -33.4797700168642    0.552369896618926    53.5795404806447     
41.7271891712048     0.555738467155445    53.3641813212485     0.803490724416116    -33.7117410764282    0.803490724416116    -33.7117410764282    0.555738467155445    53.3641813212485     
42.0986439885662     0.559109307166765    53.1479310502387     0.801218101151604    -33.9444970383379    0.801218101151604    -33.9444970383379    0.559109307166765    53.1479310502387     
42.4734054911868     0.562482086572751    52.9308029692639     0.798925025180964    -34.1780253350598    0.798925025180964    -34.1780253350598    0.562482086572751    52.9308029692639     
42.8515031151295     0.56585647256137     52.7128106150295     0.796611531139056    -34.4123131582281    0.796611531139056    -34.4123131582281    0.56585647256137     52.7128106150295     
43.2329665584969     0.569232129712745    52.4939677571331     0.794277659434201    -34.6473474608482    0.794277659434201    -34.6473474608482    0.569232129712745    52.4939677571331     
43.6178257837634     0.572608720126695    52.2742883957323     0.791923456305818    -34.883114959671     0.791923456305818    -34.883114959671     0.572608720126695    52.2742883957323     
44.0061110201289     0.575985903553696    52.0537867590359     0.789548973878591    -35.1196021377394    0.789548973878591    -35.1196021377394    0.575985903553696    52.0537867590359     
44.3978527658932     0.579363337529092    51.8324773006292     0.787154270213047    -35.3567952471036    0.787154270213047    -35.3567952471036    0.579363337529092    51.8324773006292     
44.7930817908516     0.582740677510547    51.6103746966242     0.784739409352462    -35.5946803117089    0.784739409352462    -35.5946803117089    0.582740677510547    51.6103746966242     
45.1918291387117     0.586117577018583    51.3874938426422     0.78230446136598     -35.8332431304524    0.78230446136598     -35.8332431304524    0.586117577018583    51.3874938426422     
45.5941261295316     0.589493687780175    51.1638498506197     0.779849502387763    -36.0724692804145    0.779849502387763    -36.0724692804145    0.589493687780175    51.1638498506197     
46.00000436218       0.592868659875171    50.9394580454502     0.77737461465221     -36.3123441202553    0.77737461465221     -36.3123441202553    0.592868659875171    50.9394580454502     
46.4094957168186     0.596242141885555    50.7143339614526     0.774879886524978    -36.5528527937838    0.774879886524978    -36.5528527937838    0.596242141885555    50.7143339614526     
46.8226323574054     0.599613781047318    50.4884933386724     0.772365412529862    -36.7939802336936    0.772365412529862    -36.7939802336936    0.599613781047318    50.4884933386724     
47.2394467342219     0.602983223404913    50.2619521190137     0.7698312933713      -37.0357111654673    0.7698312933713      -37.0357111654673    0.602983223404913    50.2619521190137     
47.6599715864212     0.606350113968037    50.0347264422092     0.767277635952543    -37.2780301114434    0.767277635952543    -37.2780301114434    0.606350113968037    50.0347264422092     
48.0842399445999     0.609714096870746    49.8068326416208     0.764704553389333    -37.5209213950514    0.764704553389333    -37.5209213950514    0.609714096870746    49.8068326416208     
48.5122851333927     0.613074815532615    49.5782872398824     0.762112165019016    -37.7643691452045    0.762112165019016    -37.7643691452045    0.613074815532615    49.5782872398824     
48.9441407740895     0.616431912821908    49.3491069443804     0.759500596405051    -38.0083573008544    0.759500596405051    -38.0083573008544    0.616431912821908    49.3491069443804     
49.3798407872765     0.619785031220528    49.1193086425768     0.75686997933681     -38.2528696157033    0.75686997933681     -38.2528696157033    0.619785031220528    49.1193086425768     
49.8194193955003     0.623133812990641    48.888909397177      0.754220451824658    -38.4978896630705    0.754220451824658    -38.4978896630705    0.623133812990641    48.888909397177      
50.2629111259564     0.626477900342768    48.6579264411456     0.751552158090222    -38.7434008409107    0.751552158090222    -38.7434008409107    0.626477900342768    48.6579264411456     
50.7103508132006     0.629816935605204    48.4263771725734     0.748865248551802    -38.9893863769803    0.748865248551802    -38.9893863769803    0.629816935605204    48.4263771725734     
51.1617736018855     0.633150561394572    48.1942791493988     0.746159879804894    -39.2358293341506    0.746159879804894    -39.2358293341506    0.633150561394572    48.1942791493988     
51.6172149495209     0.636478420787406    47.9616500839835     0.743436214597822    -39.4827126158639    0.743436214597822    -39.4827126158639    0.636478420787406    47.9616500839835     
52.0767106292589     0.639800157492426    47.7285078375563     0.740694421802393    -39.7300189717233    0.740694421802393    -39.7300189717233    0.639800157492426    47.7285078375563     
52.5402967327034     0.643115416023542    47.4948704145142     0.737934676379576    -39.9777310032234    0.737934676379576    -39.9777310032234    0.643115416023542    47.4948704145142     
53.0080096727455     0.646423841873205    47.2607559565997     0.735157159340261    -40.2258311696048    0.735157159340261    -40.2258311696048    0.646423841873205    47.2607559565997     
53.4798861864233     0.649725081686035    47.0261827369485     0.732362057700947    -40.4743017938381    0.732362057700947    -40.4743017938381    0.649725081686035    47.0261827369485     
53.9559633378072     0.653018783432518    46.7911691540166     0.729549564434551    -40.7231250687288    0.729549564434551    -40.7231250687288    0.653018783432518    46.7911691540166     
54.4362785209117     0.656304596582546    46.5557337253896     0.726719878416127    -40.9722830631371    0.726719878416127    -40.9722830631371    0.656304596582546    46.5557337253896     
54.920869462632      0.659582172278632    46.3198950814839     0.723873204363769    -41.2217577283091    0.723873204363769    -41.2217577283091    0.659582172278632    46.3198950814839     
55.4097742257079     0.662851163508626    46.0836719591361     0.721009752774455    -41.4715309043156    0.721009752774455    -41.4715309043156    0.662851163508626    46.0836719591361     
55.9030312117127     0.66611122527772     45.8470831950951     0.718129739855104    -41.7215843265915    0.718129739855104    -41.7215843265915    0.66611122527772     45.8470831950951     
56.4006791640705     0.669362014779531    45.6101477194163     0.715233387448699    -41.971899632569     0.715233387448699    -41.971899632569     0.669362014779531    45.6101477194163     
56.9027571710982     0.672603191566129    45.372884548766      0.712320922955664    -42.2224583684038    0.712320922955664    -42.2224583684038    0.672603191566129    45.372884548766      
57.4093046690767     0.675834417716723    45.1353127796436     0.709392579250456    -42.4732419957807    0.709392579250456    -42.4732419957807    0.675834417716723    45.1353127796436     
57.9203614453479     0.67905535800492     44.8974515815217     0.706448594593481    -42.7242318988016    0.706448594593481    -42.7242318988016    0.67905535800492     44.8974515815217     
58.4359676414401     0.682265680064301    44.6593201899165     0.703489212538396    -42.9754093909426    0.703489212538396    -42.9754093909426    0.682265680064301    44.6593201899165     
58.956163756221      0.68546505455213     44.4209378993924     0.700514681834886    -43.2267557220782    0.700514681834886    -43.2267557220782    0.68546505455213     44.4209378993924     
59.4809906490783     0.688653155311048    44.182324056503      0.697525256326973    -43.4782520855653    0.697525256326973    -43.4782520855653    0.688653155311048    44.182324056503      
60.0104895431297     0.691829659528504    43.9434980526853     0.694521194846964    -43.7298796253774    0.694521194846964    -43.7298796253774    0.691829659528504    43.9434980526853     
60.5447020284603     0.694994247893829    43.7044793171001     0.691502761105184    -43.9816194432893    0.691502761105184    -43.9816194432893    0.694994247893829    43.7044793171001     
61.0836700653896     0.698146604752686    43.4652873094371     0.688470223575479    -44.2334526060982    0.688470223575479    -44.2334526060982    0.698146604752686    43.4652873094371     
61.6274359877671     0.701286418258802    43.2259415126828     0.685423855376761    -44.4853601528815    0.685423855376761    -44.4853601528815    0.701286418258802    43.2259415126828     
62.1760425062978     0.704413380522736    42.9864614258649     0.682363934150589    -44.737323102277     0.682363934150589    -44.737323102277     0.704413380522736    42.9864614258649     
62.7295327118966     0.707527187757588    42.7468665567733     0.67929074193498     -44.9893224597869    0.67929074193498     -44.9893224597869    0.707527187757588    42.7468665567733     
63.2879500790731     0.710627540421437    42.5071764146697     0.676204565034533    -45.241339225092     0.676204565034533    -45.241339225092     0.710627540421437    42.5071764146697     
63.8513384693464     0.713714143356379    42.2674105029901     0.673105693887057    -45.493354399374     0.673105693887057    -45.493354399374     0.713714143356379    42.2674105029901     
64.4197421346903     0.716786705924001    42.0275883120471     0.669994422926811    -45.7453489926351    0.669994422926811    -45.7453489926351    0.716786705924001    42.0275883120471     
64.9932057210087     0.719844942137157    41.7877293117397     0.666871050444524    -45.997304031013     0.666871050444524    -45.997304031013     0.719844942137157    41.7877293117397     
65.5717742716431     0.722888570787896    41.5478529442762     0.663735878444308    -46.2492005640792    0.663735878444308    -46.2492005640792    0.722888570787896    41.5478529442762     
66.1554932309096     0.725917315571386    41.3079786169213     0.660589212497688    -46.5010196721147    0.660589212497688    -46.5010196721147    0.725917315571386    41.3079786169213     
66.7444084476695     0.728930905205798    41.0681256947635     0.657431361594853    -46.7527424733643    0.657431361594853    -46.7527424733643    0.728930905205798    41.0681256947635     
67.3385661789295     0.731929073547899    40.8283134935235     0.654262637993334    -47.0043501312498    0.654262637993334    -47.0043501312498    0.731929073547899    40.8283134935235     
67.9380130934759     0.734911559704331    40.5885612724        0.651083357064242    -47.2558238615447    0.651083357064242    -47.2558238615447    0.734911559704331    40.5885612724        
68.5427962755395     0.737878108138444    40.3488882269635     0.647893837136272    -47.507144939501     0.647893837136272    -47.507144939501     0.737878108138444    40.3488882269635     
69.1529632284943     0.74082846877258     40.1093134821039     0.644694399337647    -47.7582947069218    0.644694399337647    -47.7582947069218    0.74082846877258     40.1093134821039     
69.768561878589      0.74376239708572     39.8698560850377     0.641485367436143    -48.0092545791741    0.641485367436143    -48.0092545791741    0.74376239708572     39.8698560850377     
70.3896405787105     0.746679654206389    39.6305349983835     0.638267067677442    -48.2600060521316    0.638267067677442    -48.2600060521316    0.746679654206389    39.6305349983835     
71.0162481121827     0.749580007000796    39.3913690933072     0.635039828621909    -48.5105307090492    0.635039828621909    -48.5105307090492    0.749580007000796    39.3913690933072     
71.6484336965979     0.752463228156058    39.1523771427489     0.631803980980081    -48.7608102273535    0.631803980980081    -48.7608102273535    0.752463228156058    39.1523771427489     
72.2862469876826     0.755329096258529    38.9135778147318     0.628559857446955    -49.0108263853524    0.628559857446955    -49.0108263853524    0.755329096258529    38.9135778147318     
72.9297380831978     0.758177395867088    38.6749896657657     0.625307792535337    -49.2605610688488    0.625307792535337    -49.2605610688488    0.758177395867088    38.6749896657657     
73.5789575268741     0.761007917581479    38.4366311343392     0.622048122408381    -49.5099962776655    0.622048122408381    -49.5099962776655    0.761007917581479    38.4366311343392     
74.2339563123817     0.763820458105474    38.1985205345221     0.618781184711555    -49.7591141320585    0.618781184711555    -49.7591141320585    0.763820458105474    38.1985205345221     
74.8947858873356     0.766614820305012    37.9606760496676     0.615507318404178    -50.007896879032     0.615507318404178    -50.007896879032     0.766614820305012    37.9606760496676     
75.5614981573366     0.769390813261164    37.7231157262308     0.612226863590765    -50.2563268985342    0.612226863590765    -50.2563268985342    0.769390813261164    37.7231157262308     
76.2341454900488     0.772148252317997    37.4858574677011     0.608940161352266    -50.5043867095408    0.608940161352266    -50.5043867095408    0.772148252317997    37.4858574677011     
76.9127807193119     0.774886959125235    37.2489190286588     0.605647553577535    -50.7520589760123    0.605647553577535    -50.7520589760123    0.774886959125235    37.2489190286588     
77.597457149292      0.777606761675826    37.0123180089556     0.602349382795068    -50.9993265127279    0.602349382795068    -50.9993265127279    0.777606761675826    37.0123180089556     
78.2882285586682     0.780307494338339    36.7760718480268     0.599045992005256    -51.2461722909871    0.599045992005256    -51.2461722909871    0.780307494338339    36.7760718480268     
78.9851492048562     0.782988997884238    36.5401978193382     0.59573772451333     -51.4925794441746    0.59573772451333     -51.4925794441746    0.782988997884238    36.5401978193382     
79.6882738282707     0.785651119510064    36.3047130249711     0.592424923763154    -51.7385312731894    0.592424923763154    -51.7385312731894    0.785651119510064    36.3047130249711     
80.3976576566248     0.788293712854559    36.0696343903484     0.58910793317206     -51.9840112517293    0.58910793317206     -51.9840112517293    0.788293712854559    36.0696343903484     
81.1133564092676     0.790916638010708    35.8349786591104     0.585787095966876    -52.2290030314275    0.585787095966876    -52.2290030314275    0.790916638010708    35.8349786591104     
81.8354263015613     0.793519761532868    35.6007623881338     0.582462755021278    -52.4734904468439    0.582462755021278    -52.4734904468439    0.793519761532868    35.6007623881338     
82.5639240492963     0.796102956438881    35.3670019427087     0.579135252694737    -52.7174575202988    0.579135252694737    -52.7174575202988    0.796102956438881    35.3670019427087     
83.2989068731462     0.798666102207376    35.1337134918655     0.575804930673074    -52.9608884665555    0.575804930673074    -52.9608884665555    0.798666102207376    35.1337134918655     
84.040432503162      0.801209084770215    34.9009130038621     0.572472129810889    -53.2037676973422    0.572472129810889    -53.2037676973422    0.801209084770215    34.9009130038621     
84.7885591833069     0.803731796500195    34.6686162418314     0.569137189975952    -53.446079825714     0.569137189975952    -53.446079825714     0.803731796500195    34.6686162418314     
85.543345676031      0.806234136194131    34.4368387595866     0.565800449895705    -53.6878096702548    0.565800449895705    -53.6878096702548    0.806234136194131    34.4368387595866     
86.3048512668868     0.808716009051269    34.2055958975961     0.562462247006054    -53.9289422591098    0.562462247006054    -53.9289422591098    0.808716009051269    34.2055958975961     
87.0731357691859     0.811177326647289    33.974902779119      0.559122917302517    -54.1694628338574    0.559122917302517    -54.1694628338574    0.811177326647289    33.974902779119      
87.8482595286973     0.81361800690383     33.7447743065106     0.555782795193911    -54.4093568532101    0.555782795193911    -54.4093568532101    0.81361800690383     33.7447743065106     
88.6302834283868     0.816037974053767    33.5152251576929     0.552442213358678    -54.6486099965489    0.552442213358678    -54.6486099965489    0.816037974053767    33.5152251576929     
89.4192688931996     0.818437158602222    33.2862697827986     0.549101502603959    -54.8872081672846    0.549101502603959    -54.8872081672846    0.818437158602222    33.2862697827986     
90.2152778948851     0.820815497283532    33.0579224009792     0.545760991727536    -55.1251374960543    0.545760991727536    -55.1251374960543    0.820815497283532    33.0579224009792     
91.0183729568639     0.823172933014178    32.8301969973887     0.542421007382766    -55.3623843437411    0.542421007382766    -55.3623843437411    0.823172933014178    32.8301969973887     
91.8286171591394     0.825509414841866    32.6031073203349     0.539081873946545    -55.5989353043259    0.539081873946545    -55.5989353043259    0.825509414841866    32.6031073203349     
92.6460741432521     0.827824897890846    32.3766668786018     0.535743913390484    -55.8347772075675    0.535743913390484    -55.8347772075675    0.827824897890846    32.3766668786018     
93.4708081172787     0.83011934330359     32.1508889389431     0.532407445155279    -56.0698971215105    0.532407445155279    -56.0698971215105    0.83011934330359     32.1508889389431     
94.3028838608753     0.832392718178949    31.9257865237453     0.529072786028456    -56.304282354823     0.529072786028456    -56.304282354823     0.832392718178949    31.9257865237453     
95.1423667303651     0.834644995506932    31.7013724088615     0.525740250025507    -56.5379204589635    0.525740250025507    -56.5379204589635    0.834644995506932    31.7013724088615     
95.989322663873      0.836876154100224    31.4776591216124     0.522410148274479    -56.7707992301787    0.522410148274479    -56.7707992301787    0.836876154100224    31.4776591216124     
96.8438181865035     0.839086178522554    31.254658938959      0.519082788904128    -57.0029067113304    0.519082788904128    -57.0029067113304    0.839086178522554    31.254658938959      
97.7059204155669     0.841275059014114    31.0323838858358     0.515758476935633    -57.234231193559     0.515758476935633    -57.234231193559     0.841275059014114    31.0323838858358     
98.5756970658507     0.843442791414057    30.8108457336569     0.512437514177968    -57.4647612177758    0.512437514177968    -57.4647612177758    0.843442791414057    30.8108457336569     
99.4532164549385     0.845589377080293    30.590055998982      0.509120199126956    -57.6944855759926    0.509120199126956    -57.6944855759926    0.845589377080293    30.590055998982      
100.338547508576     0.847714822806707    30.3700259423447     0.505806826868045    -57.9233933124891    0.505806826868045    -57.9233933124891    0.847714822806707    30.3700259423447     
101.231759766085     0.849819140737892    30.1507665672439     0.502497688982808    -58.1514737248162    0.502497688982808    -58.1514737248162    0.849819140737892    30.1507665672439     
102.132923385824     0.851902348281573    29.9322886192921     0.49919307345929     -58.3787163646416    0.49919307345929     -58.3787163646416    0.851902348281573    29.9322886192921     
103.042109150703     0.853964468018843    29.714602585522      0.495893264606069    -58.605111038436     0.495893264606069    -58.605111038436     0.853964468018843    29.714602585522      
103.959388473738     0.856005527612354    29.4977186938458     0.492598542970206    -58.8306478080059    0.492598542970206    -58.8306478080059    0.856005527612354    29.4977186938458     
104.884833403663     0.858025559712601    29.2816469126678     0.489309185258976    -59.0553169908723    0.489309185258976    -59.0553169908723    0.858025559712601    29.2816469126678     
105.818516630589     0.860024601862427    29.0663969506456     0.486025464265427    -59.2791091604998    0.486025464265427    -59.2791091604998    0.860024601862427    29.0663969506456     
106.760511491714     0.862002696399872    28.8519782565992     0.482747648797796    -59.5020151463759    0.482747648797796    -59.5020151463759    0.862002696399872    28.8519782565992     
107.710891977082     0.863959890359526    28.6384000195654     0.479476003612713    -59.7240260339461    0.479476003612713    -59.7240260339461    0.863959890359526    28.6384000195654     
108.669732735394     0.865896235372527    28.4256711689883     0.47621078935222     -59.9451331644096    0.47621078935222     -59.9451331644096    0.865896235372527    28.4256711689883     
109.637109079876     0.867811787565266    28.2138003750558     0.472952262484597    -60.16532813437      0.472952262484597    -60.16532813437      0.867811787565266    28.2138003750558     
110.613096994188     0.869706607457009    28.0027960491661     0.469700675248941    -60.384602795353     0.469700675248941    -60.384602795353     0.869706607457009    28.0027960491661     
111.597773138396     0.871580759856539    27.7926663445263     0.466456275603493    -60.6029492531922    0.466456275603493    -60.6029492531922    0.871580759856539    27.7926663445263     
112.591214854994     0.873434313757891    27.5834191568852     0.463219307177693    -60.8203598672797    0.463219307177693    -60.8203598672797    0.873434313757891    27.5834191568852     
113.593500174977     0.875267342235393    27.3750621253854     0.459990009227906    -61.0368272496955    0.459990009227906    -61.0368272496955    0.875267342235393    27.3750621253854     
114.604707823971     0.877079922338064    27.1676026335414     0.456768616596781    -61.2523442642098    0.456768616596781    -61.2523442642098    0.877079922338064    27.1676026335414     
115.624917228416     0.878872134983502    26.9610478103374     0.453555359676249    -61.4669040251653    0.453555359676249    -61.4669040251653    0.878872134983502    26.9610478103374     
116.654208521804     0.880644064851409    26.7554045314375     0.450350464374015    -61.6804998962445    0.450350464374015    -61.6804998962445    0.880644064851409    26.7554045314375     
117.692662550977     0.882395800276826    26.5506794205109     0.447154152083639    -61.8931254891223    0.447154152083639    -61.8931254891223    0.882395800276826    26.5506794205109     
118.740360882473     0.884127433143207    26.3468788506647     0.443966639657987    -62.1047746620084    0.443966639657987    -62.1047746620084    0.884127433143207    26.3468788506647     
119.797385808931     0.885839058775444    26.1440089459807     0.440788139386154    -62.3154415180845    0.440788139386154    -62.3154415180845    0.885839058775444    26.1440089459807     
120.863820355563     0.887530775832934    25.9420755831546     0.437618858973685    -62.5251204038385    0.437618858973685    -62.5251204038385    0.887530775832934    25.9420755831546     
121.939748286668     0.88920268620279     25.7410843932348     0.434459001526099    -62.7338059072982    0.434459001526099    -62.7338059072982    0.88920268620279     25.7410843932348     
123.025254112211     0.890854894893325    25.54104076345       0.431308765535621    -62.9414928561716    0.431308765535621    -62.9414928561716    0.890854894893325    25.54104076345       
124.120423094469     0.892487509927832    25.3419498391346     0.428168344871073    -63.1481763158926    0.428168344871073    -63.1481763158926    0.892487509927832    25.3419498391346     
125.225341254717     0.894100642238854    25.1438165257339     0.425037928770858    -63.3538515875813    0.425037928770858    -63.3538515875813    0.894100642238854    25.1438165257339     
126.340095379993     0.895694405562921    24.946645490899      0.421917701838941    -63.5585142059152    0.421917701838941    -63.5585142059152    0.895694405562921    24.946645490899      
127.464773029912     0.897268916335943    24.7504411666554     0.418807844043793    -63.7621599369247    0.418807844043793    -63.7621599369247    0.897268916335943    24.7504411666554     
128.599462543542     0.898824293589243    24.5552077516539     0.415708530720203    -63.9647847757045    0.415708530720203    -63.9647847757045    0.898824293589243    24.5552077516539     
129.744253046346     0.900360658846406    24.3609492134876     0.412619932573877    -64.1663849440569    0.412619932573877    -64.1663849440569    0.900360658846406    24.3609492134876     
130.899234457178     0.901878136020915    24.1676692910841     0.40954221568878     -64.3669568880586    0.40954221568878     -64.3669568880586    0.901878136020915    24.1676692910841     
132.064497495351     0.903376851314753    23.9753714971579     0.406475541537099    -64.5664972755658    0.406475541537099    -64.5664972755658    0.903376851314753    23.9753714971579     
133.240133687757     0.904856933117948    23.7840591207276     0.403420066991793    -64.7650029936515    0.403420066991793    -64.7650029936515    0.904856933117948    23.7840591207276     
134.426235376062     0.906318511909163    23.5937352296918     0.400375944341633    -64.962471145983     0.400375944341633    -64.962471145983     0.906318511909163    23.5937352296918     
135.622895723954     0.907761720157424    23.4044026734576     0.397343321308626    -65.1588990501451    0.397343321308626    -65.1588990501451    0.907761720157424    23.4044026734576     
136.830208724465     0.909186692224968    23.2160640856237     0.394322341067812    -65.354284234906     0.394322341067812    -65.354284234906     0.909186692224968    23.2160640856237     
138.048269207349     0.910593564271341    23.0287218867097     0.391313142269269    -65.5486244374353    0.391313142269269    -65.5486244374353    0.910593564271341    23.0287218867097     
139.277172846534     0.911982474158756    22.842378286931      0.388315859062325    -65.7419176004741    0.388315859062325    -65.7419176004741    0.911982474158756    22.842378286931      
140.517016167637     0.913353561358754    22.6570352890163     0.385330621121839    -65.9341618694602    0.385330621121839    -65.9341618694602    0.913353561358754    22.6570352890163     
141.767896555543     0.914706966860242    22.4726946910629     0.382357553676494    -66.1253555896133    0.382357553676494    -66.1253555896133    0.914706966860242    22.4726946910629     
143.029912262058     0.916042833078941    22.2893580894268     0.379396777539032    -66.3154973029832    0.379396777539032    -66.3154973029832    0.916042833078941    22.2893580894268     
144.30316241362      0.917361303768248    22.1070268816474     0.37644840913834     -66.5045857454609    0.37644840913834     -66.5045857454609    0.917361303768248    22.1070268816474     
145.587747019094     0.918662523931598    21.9257022693994     0.373512560553284    -66.6926198437598    0.373512560553284    -66.6926198437598    0.918662523931598    21.9257022693994     
146.883766977619     0.919946639736335    21.7453852614719     0.370589339548269    -66.8795987123673    0.370589339548269    -66.8795987123673    0.919946639736335    21.7453852614719     
148.191324086538     0.921213798429105    21.5660766767722     0.367678849610398    -67.0655216504683    0.367678849610398    -67.0655216504683    0.921213798429105    21.5660766767722     
149.510521049392     0.922464148252837    21.3877771473479     0.36478118998816     -67.2503881388493    0.36478118998816     -67.2503881388493    0.922464148252837    21.3877771473479     
150.841461483989     0.923697838365295    21.2104871214301     0.361896455731601    -67.4341978367772    0.361896455731601    -67.4341978367772    0.923697838365295    21.2104871214301     
152.184249930538     0.92491501875925     21.0342068664895     0.359024737733859    -67.6169505788622    0.359024737733859    -67.6169505788622    0.92491501875925     21.0342068664895     
153.538991859865     0.926115840184282    20.8589364723063     0.356166122774029    -67.7986463719042    0.356166122774029    -67.7986463719042    0.926115840184282    20.8589364723063     
154.905793681698     0.927300454070225    20.6846758540505     0.353320693561247    -67.9792853917266    0.353320693561247    -67.9792853917266    0.927300454070225    20.6846758540505     
156.284762753019     0.928469012452277    20.511424755369      0.350488528779944    -68.1588679799984    0.350488528779944    -68.1588679799984    0.928469012452277    20.511424755369      
157.676007386502     0.929621667897768    20.3391827514793     0.347669703136208    -68.337394641047     0.347669703136208    -68.337394641047     0.929621667897768    20.3391827514793     
159.07963685902      0.930758573434623    20.167949252265      0.344864287405143    -68.5148660386662    0.344864287405143    -68.5148660386662    0.930758573434623    20.167949252265      
160.495761420225     0.931879882481496    19.9977235053742     0.342072348479199    -68.6912829929177    0.342072348479199    -68.6912829929177    0.931879882481496    19.9977235053742     
161.92449230121      0.932985748779614    19.8285045993128     0.339293949417384    -68.8666464769328    0.339293949417384    -68.8666464769328    0.932985748779614    19.8285045993128     
163.365941723248     0.934076326326285    19.6602914665391     0.336529149495293    -69.0409576137108    0.336529149495293    -69.0409576137108    0.934076326326285    19.6602914665391     
164.8202229066       0.935151769310136    19.4930828865481     0.333778004255897    -69.2142176729216    0.333778004255897    -69.2142176729216    0.935151769310136    19.4930828865481     
166.287450079416     0.936212232048006    19.3268774889527     0.331040565561012    -69.3864280677096    0.331040565561012    -69.3864280677096    0.936212232048006    19.3268774889527     
167.767738486702     0.93725786892356     19.1616737565522     0.328316881643417    -69.5575903515045    0.328316881643417    -69.5575903515045    0.93725786892356     19.1616737565522     
169.261204399371     0.938288834327561    18.9974700283917     0.325606997159523    -69.7277062148374    0.325606997159523    -69.7277062148374    0.938288834327561    18.9974700283917     
170.767965123382     0.939305282599833    18.8342645028072     0.322910953242558    -69.8967774821654    0.322910953242558    -69.8967774821654    0.939305282599833    18.8342645028072     
172.288139008946     0.940307367972895    18.6720552404581     0.320228787556207    -70.0648061087074    0.320228787556207    -70.0648061087074    0.940307367972895    18.6720552404581     
173.82184545983      0.941295244517239    18.5108401673408     0.317560534348651    -70.2317941772899    0.317560534348651    -70.2317941772899    0.941295244517239    18.5108401673408     
175.369204942726     0.942269066088266    18.3506170777875     0.314906224506941    -70.3977438952048    0.314906224506941    -70.3977438952048    0.942269066088266    18.3506170777875     
176.930338996725     0.943228986274864    18.1913836374439     0.312265885611671    -70.5626575910832    0.312265885611671    -70.5626575910832    0.943228986274864    18.1913836374439     
178.505370242852     0.944175158349588    18.0331373862265     0.30963954199188     -70.7265377117831    0.30963954199188     -70.7265377117831    0.944175158349588    18.0331373862265     
180.094422393706     0.945107735220457    17.8758757412601     0.307027214780163    -70.8893868192923    0.307027214780163    -70.8893868192923    0.945107735220457    17.8758757412601     
181.697620263172     0.946026869384344    17.7195959997887     0.304428921967897    -71.051207587651     0.304428921967897    -71.051207587651     0.946026869384344    17.7195959997887     
183.315089776225     0.946932712881931    17.5642953420653     0.301844678460584    -71.2120027998908    0.301844678460584    -71.2120027998908    0.946932712881931    17.5642953420653     
184.946957978826     0.947825417254222    17.4099708342146     0.299274496133241    -71.3717753449934    0.299274496133241    -71.3717753449934    0.947825417254222    17.4099708342146     
186.593353047895     0.948705133500583    17.2566194310693     0.296718383885791    -71.5305282148699    0.296718383885791    -71.5305282148699    0.948705133500583    17.2566194310693     
188.254404301381     0.94957201203831     17.1042379789798     0.294176347698432    -71.6882645013595    0.294176347698432    -71.6882645013595    0.94957201203831     17.1042379789798     
189.930242208418     0.95042620266368     16.9528232185935     0.291648390686923    -71.8449873932522    0.291648390686923    -71.8449873932522    0.95042620266368     16.9528232185935     
191.620998399578     0.951267854514474    16.8023717876076     0.289134513157759    -72.0007001733301    0.289134513157759    -72.0007001733301    0.951267854514474    16.8023717876076     
193.326805677204     0.952097116033964    16.6528802234882     0.28663471266321     -72.1554062154356    0.28663471266321     -72.1554062154356    0.952097116033964    16.6528802234882     
195.047798025844     0.952914134936299    16.5043449661617     0.284148984056162    -72.3091089815582    0.284148984056162    -72.3091089815582    0.952914134936299    16.5043449661617     
196.784110622774     0.953719058173323    16.3567623606727     0.28167731954475     -72.4618120189491    0.28167731954475     -72.4618120189491    0.953719058173323    16.3567623606727     
198.535879848616     0.954512031902758    16.210128659809      0.279219708746737    -72.6135189572572    0.279219708746737    -72.6135189572572    0.954512031902758    16.210128659809      
200.303243298051     0.955293201457741    16.0644400266954     0.276776138743615    -72.7642335056903    0.276776138743615    -72.7642335056903    0.955293201457741    16.0644400266954     
202.086339790625     0.956062711317692    15.9196925373531     0.274346594134397    -72.9139594501999    0.274346594134397    -72.9139594501999    0.956062711317692    15.9196925373531     
203.885309381655     0.9568207050805      15.7758821832231     0.271931057089064    -73.0627006506929    0.271931057089064    -73.0627006506929    0.9568207050805      15.7758821832231     
205.700293373227     0.957567325435962    15.633004873659      0.26952950740166     -73.2104610382653    0.26952950740166     -73.2104610382653    0.957567325435962    15.633004873659      
207.531434325296     0.958302714140505    15.4910564383802     0.26714192254299     -73.3572446124627    0.26714192254299     -73.3572446124627    0.958302714140505    15.4910564383802     
209.378876066885     0.959027011993106    15.3500326298947     0.2647682777129      -73.5030554385637    0.2647682777129      -73.5030554385637    0.959027011993106    15.3500326298947     
211.242763707378     0.959740358812446    15.2099291258806     0.262408545892134    -73.6478976448913    0.262408545892134    -73.6478976448913    0.959740358812446    15.2099291258806     
213.123243647925     0.960442893415208    15.0707415315361     0.26006269789372     -73.7917754201447    0.26006269789372     -73.7917754201447    0.960442893415208    15.0707415315361     
215.020463592932     0.961134753595547    14.9324653818912     0.25773070241388     -73.9346930107587    0.25773070241388     -73.9346930107587    0.961134753595547    14.9324653818912     
216.934572561671     0.96181607610567     14.7950961440823     0.255412526082457    -74.0766547182858    0.255412526082457    -74.0766547182858    0.96181607610567     14.7950961440823     
218.86572089998      0.962486996637519    14.6586292195922     0.253108133512812    -74.2176648968018    0.253108133512812    -74.2176648968018    0.962486996637519    14.6586292195922     
220.814060292072     0.963147649805516    14.5230599464505     0.250817487351194    -74.3577279503364    0.250817487351194    -74.3577279503364    0.963147649805516    14.5230599464505     
222.779743772455     0.963798169130361    14.3883836013995     0.248540548325569    -74.4968483303242    0.248540548325569    -74.4968483303242    0.963798169130361    14.3883836013995     
224.762925737942     0.964438687023841    14.254595402021      0.246277275293879    -74.6350305330809    0.246277275293879    -74.6350305330809    0.964438687023841    14.254595402021      
226.763761959788     0.965069334774635    14.1216905088274     0.244027625291739    -74.7722790972995    0.244027625291739    -74.7722790972995    0.965069334774635    14.1216905088274     
228.782409595922     0.965690242535071    13.9896640273148     0.241791553579533    -74.9085986015682    0.241791553579533    -74.9085986015682    0.965690242535071    13.9896640273148     
230.819027203288     0.966301539308846    13.8585110099797     0.239569013688925    -75.0439936619091    0.239569013688925    -75.0439936619091    0.966301539308846    13.8585110099797     
232.873774750301     0.966903352939634    13.7282264582973     0.237359957468752    -75.1784689293363    0.237359957468752    -75.1784689293363    0.966903352939634    13.7282264582973     
234.946813629417     0.967495810100598    13.5988053246646     0.23516433513031     -75.312029087434     0.23516433513031     -75.312029087434     0.967495810100598    13.5988053246646     
237.038306669801     0.968079036284763    13.4702425143045     0.232982095291998    -75.4446788499514    0.232982095291998    -75.4446788499514    0.968079036284763    13.4702425143045     
239.148418150122     0.968653155796217    13.342532887135      0.230813185023345    -75.5764229584152    0.230813185023345    -75.5764229584152    0.968653155796217    13.342532887135      
241.277313811455     0.96921829174214     13.2156712595995     0.228657549888389    -75.7072661797596    0.228657549888389    -75.7072661797596    0.96921829174214     13.2156712595995     
243.425160870301     0.969774566025607    13.0896524064632     0.226515133988407    -75.8372133039688    0.226515133988407    -75.8372133039688    0.969774566025607    13.0896524064632     
245.592128031718     0.970322099339166    12.9644710625712     0.224385880003993    -75.966269141736     0.224385880003993    -75.966269141736     0.970322099339166    12.9644710625712     
247.778385502575     0.970861011159151    12.8401219245701     0.222269729236488    -76.0944385221341    0.222269729236488    -76.0944385221341    0.970861011159151    12.8401219245701     
249.98410500492      0.971391419740714    12.7165996525956     0.220166621648742    -76.2217262902978    0.220166621648742    -76.2217262902978    0.971391419740714    12.7165996525956     
252.209459789467     0.971913442113546    12.5938988719227     0.218076495905213    -76.348137305116     0.218076495905213    -76.348137305116     0.971913442113546    12.5938988719227     
254.454624649207     0.972427194078279    12.472014174581      0.215999289411408    -76.4736764369335    0.215999289411408    -76.4736764369335    0.972427194078279    12.472014174581      
256.719775933134     0.972932790203523    12.3509401209352     0.213934938352644    -76.5983485652583    0.213934938352644    -76.5983485652583    0.972932790203523    12.3509401209352     
259.005091560099     0.973430343823542    12.2306712412292     0.211883377732155    -76.7221585764775    0.211883377732155    -76.7221585764775    0.973430343823542    12.2306712412292     
261.310751032785     0.973919967036525    12.1112020370979     0.209844541408521    -76.8451113615737    0.209844541408521    -76.8451113615737    0.973919967036525    12.1112020370979     
263.636935451802     0.974401770703443    11.9925269830428     0.207818362132433    -76.9672118138466    0.207818362132433    -76.9672118138466    0.974401770703443    11.9925269830428     
265.983827529918     0.974875864447467    11.8746405278741     0.205804771582782    -77.0884648266331    0.205804771582782    -77.0884648266331    0.974875864447467    11.8746405278741     
268.351611606407     0.975342356653932    11.7575370961195     0.20380370040209     -77.2088752910268    0.20380370040209     -77.2088752910268    0.975342356653932    11.7575370961195     
270.740473661526     0.975801354470808    11.6412110893996     0.201815078231272    -77.3284480935942    0.201815078231272    -77.3284480935942    0.975801354470808    11.6412110893996     
273.150601331129     0.976252963809695    11.5256568877699     0.199838833743733    -77.4471881140839    0.199838833743733    -77.4471881140839    0.976252963809695    11.5256568877699     
275.582183921399     0.976697289347273    11.410868851031      0.197874894678803    -77.5651002231298    0.197874894678803    -77.5651002231298    0.976697289347273    11.410868851031      
278.035412423721     0.977134434527238    11.2968413200055     0.195923187874522    -77.6821892799424    0.195923187874522    -77.6821892799424    0.977134434527238    11.2968413200055     
280.510479529681     0.977564501562661    11.1835686177844     0.193983639299755    -77.798460129988     0.193983639299755    -77.798460129988     0.977564501562661    11.1835686177844     
283.007579646206     0.977987591438789    11.0710450509408     0.192056174085672    -77.9139176026528    0.192056174085672    -77.9139176026528    0.977987591438789    11.0710450509408     
285.526908910826     0.978403803916246    10.9592649107134     0.190140716556569    -78.0285665088887    0.190140716556569    -78.0285665088887    0.978403803916246    10.9592649107134     
288.068665207088     0.978813237534621    10.848222474159      0.188237190260052    -78.1424116388381    0.188237190260052    -78.1424116388381    0.978813237534621    10.848222474159      
290.633048180094     0.979215989616438    10.7379120052745     0.186345517996578    -78.255457759435     0.186345517996578    -78.255457759435     0.979215989616438    10.7379120052745     
293.220259252184     0.979612156271474    10.6283277560898     0.184465621848367    -78.3677096119788    0.184465621848367    -78.3677096119788    0.979612156271474    10.6283277560898     
295.830501638755     0.980001832401417    10.5194639677305     0.182597423207688    -78.4791719096778    0.182597423207688    -78.4791719096778    0.980001832401417    10.5194639677305     
298.463980364228     0.980385111704858    10.4113148714521     0.180740842804516    -78.5898493351582    0.180740842804516    -78.5898493351582    0.980385111704858    10.4113148714521     
301.120902278145     0.980762086682576    10.3038746896452     0.178895800733571    -78.699746537937     0.178895800733571    -78.699746537937     0.980762086682576    10.3038746896452     
303.801476071421     0.981132848643135    10.1971376368133     0.177062216480757    -78.8088681318508    0.177062216480757    -78.8088681318508    0.981132848643135    10.1971376368133     
306.505912292736     0.981497487708739    10.0910979205213     0.175240008948984    -78.917218692442     0.175240008948984    -78.917218692442     0.981497487708739    10.0910979205213     
309.234423365066     0.98185609282137     9.98574974231871     0.173429096483403    -79.0248027542918    0.173429096483403    -79.0248027542918    0.98185609282137     9.98574974231871     
311.98722360238      0.982208751749164    9.88108729863422     0.171629396896036    -79.1316248083016    0.171629396896036    -79.1316248083016    0.982208751749164    9.88108729863422     
314.764529226461     0.982555551093031    9.7771047816452      0.169840827489834    -79.2376892989122    0.169840827489834    -79.2376892989122    0.982555551093031    9.7771047816452      
317.5665583839       0.982896576293494    9.67379638011945     0.168063305082146    -79.3430006212615    0.168063305082146    -79.3430006212615    0.982896576293494    9.67379638011945     
320.39353116322      0.983231911637743    9.57115628023372     0.166296746027629    -79.4475631182689    0.166296746027629    -79.4475631182689    0.983231911637743    9.57115628023372     
323.245669612175     0.98356164026688     9.46917866636416     0.164541066240578    -79.5513810776473    0.164541066240578    -79.5513810776473    0.98356164026688     9.46917866636416     
326.12319775518      0.983885844183362    9.36785772185474     0.162796181216717    -79.6544587288307    0.162796181216717    -79.6544587288307    0.983885844183362    9.36785772185474     
329.026341610914     0.984204604258608    9.26718762975959     0.161062006054426    -79.7568002398157    0.161062006054426    -79.7568002398157    0.984204604258608    9.26718762975959     
331.955329210072     0.984518000240767    9.16716257356172     0.159338455475431    -79.8584097139066    0.159338455475431    -79.8584097139066    0.984518000240767    9.16716257356172     
334.910390613272     0.984826110762658    9.06777673786923     0.157625443844969    -79.9592911863595    0.157625443844969    -79.9592911863595    0.984826110762658    9.06777673786923     
337.891757929131     0.98512901334982     8.96902430908666     0.155922885191405    -80.0594486209155    0.155922885191405    -80.0594486209155    0.98512901334982     8.96902430908666     
340.899665332491     0.985426784428717    8.87089947606566     0.15423069322536     -80.1588859062174    0.15423069322536     -80.1588859062174    0.985426784428717    8.87089947606566     
343.934349082817     0.985719499335056    8.7733964307317      0.15254878135829     -80.2576068520979    0.15254878135829     -80.2576068520979    0.985719499335056    8.7733964307317      
346.996047542751     0.986007232322213    8.67650936869023     0.1508770627206      -80.3556151857338    0.1508770627206      -80.3556151857338    0.986007232322213    8.67650936869023     
350.085001196837     0.986290056569761    8.58023248981073     0.149215450179239    -80.4529145476536    0.149215450179239    -80.4529145476536    0.986290056569761    8.58023248981073     
353.201452670406     0.986568044192098    8.48455999878961     0.147563856354808    -80.5495084875893    0.147563856354808    -80.5495084875893    0.986568044192098    8.48455999878961     
356.34564674864      0.986841266247142    8.38948610569329     0.145922193638196    -80.6454004601604    0.145922193638196    -80.6454004601604    0.986841266247142    8.38948610569329     
359.517830395793     0.987109792745118    8.29500502648019     0.144290374206747    -80.7405938203805    0.144290374206747    -80.7405938203805    0.987109792745118    8.29500502648019     
362.71825277459      0.987373692657397    8.20111098350324     0.142668310039948    -80.8350918189696    0.142668310039948    -80.8350918189696    0.987373692657397    8.20111098350324     
365.947165265801     0.98763303392541     8.1077982059934      0.141055912934676    -80.9288975974637    0.141055912934676    -80.9288975974637    0.98763303392541     8.1077982059934      
369.204821487982     0.987887883469586    8.01506093052334     0.139453094519989    -81.0220141831021    0.139453094519989    -81.0220141831021    0.987887883469586    8.01506093052334     
372.4914773174       0.988138307198366    7.92289340145294     0.137859766271479    -81.1144444834813    0.137859766271479    -81.1144444834813    0.988138307198366    7.92289340145294     
375.807390908126     0.988384370017223    7.83128987135637     0.136275839525188    -81.206191280956     0.136275839525188    -81.206191280956     0.988384370017223    7.83128987135637     
379.152822712317     0.988626135837732    7.7402446014318      0.134701225491117    -81.2972572267696    0.134701225491117    -81.2972572267696    0.988626135837732    7.7402446014318      
382.528035500669     0.988863667586647    7.64975186189226     0.133135835266288    -81.3876448348976    0.133135835266288    -81.3876448348976    0.988863667586647    7.64975186189226     
385.933294383061     0.989097027215006    7.55980593234085     0.131579579847428    -81.4773564755799    0.131579579847428    -81.4773564755799    0.989097027215006    7.55980593234085     
389.368866829376     0.989326275707237    7.47040110212833     0.130032370143234    -81.5663943685217    0.130032370143234    -81.5663943685217    0.989326275707237    7.47040110212833     
392.835022690507     0.989551473090267    7.38153167069437     0.128494116986252    -81.6547605757408    0.128494116986252    -81.6547605757408    0.989551473090267    7.38153167069437     
396.332034219559     0.989772678442636    7.29319194789267     0.126964731144364    -81.7424569940322    0.126964731144364    -81.7424569940322    0.989772678442636    7.29319194789267     
399.86017609323      0.989989949903598    7.20537625430061     0.12544412333191     -81.8294853470259    0.12544412333191     -81.8294853470259    0.989989949903598    7.20537625430061     
403.419725433382     0.990203344682205    7.11807892151332     0.12393220422043     -81.9158471768064    0.12393220422043     -81.9158471768064    0.990203344682205    7.11807892151332     
407.010961828817     0.990412919066381    7.03129429242239     0.122428884449045    -82.0015438350627    0.122428884449045    -82.0015438350627    0.990412919066381    7.03129429242239     
410.634167357229     0.990618728431962    6.94501672148063     0.120934074634489    -82.0865764737348    0.120934074634489    -82.0865764737348    0.990618728431962    6.94501672148063     
414.289626607364     0.990820827251722    6.8592405749516      0.119447685380788    -82.1709460351176    0.119447685380788    -82.1709460351176    0.990820827251722    6.8592405749516      
417.977626701374     0.991019269104348    6.77396023114565     0.11796962728861     -82.2546532413851    0.11796962728861     -82.2546532413851    0.991019269104348    6.77396023114565     
421.698457317365     0.991214106683395    6.68917008064202     0.116499810964267    -82.3376985834877    0.116499810964267    -82.3376985834877    0.991214106683395    6.68917008064202     
425.452410712158     0.99140539180619     6.6048645264972      0.115038147028415    -82.4200823093794    0.115038147028415    -82.4200823093794    0.99140539180619     6.6048645264972      
429.239781744236     0.991593175422692    6.52103798444081     0.113584546124415    -82.5018044115197    0.113584546124415    -82.5018044115197    0.991593175422692    6.52103798444081     
433.060867896908     0.991777507624302    6.43768488305802     0.112138918926406    -82.5828646135988    0.112138918926406    -82.5828646135988    0.991777507624302    6.43768488305802     
436.915969301677     0.991958437652624    6.35479966396029     0.110701176147062    -82.6632623564216    0.110701176147062    -82.6632623564216    0.991958437652624    6.35479966396029     
440.805388761812     0.992136013908168    6.27237678194207     0.109271228545061    -82.7429967828907    0.109271228545061    -82.7429967828907    0.992136013908168    6.27237678194207     
444.729431776131     0.992310283958988    6.19041070512864     0.107848986932271    -82.82206672201      0.107848986932271    -82.82206672201      0.992310283958988    6.19041070512864     
448.688406562999     0.992481294549262    6.10889591510887     0.106434362180654    -82.9004706718386    0.106434362180654    -82.9004706718386    0.992481294549262    6.10889591510887     
452.682624084533     0.992649091607809    6.02782690705896     0.105027265228894    -82.9782067813054    0.105027265228894    -82.9782067813054    0.992649091607809    6.02782690705896     
456.712398071036     0.992813720256524    5.94719818985476     0.103627607088776    -83.0552728307944    0.103627607088776    -83.0552728307944    0.992813720256524    5.94719818985476     
460.778045045628     0.992975224818762    5.86700428617189     0.102235298851293    -83.1316662114004    0.102235298851293    -83.1316662114004    0.992975224818762    5.86700428617189     
464.879884349116     0.99313364882762     5.78723973257709     0.100850251692514    -83.2073839027427    0.100850251692514    -83.2073839027427    0.99313364882762     5.78723973257709     
469.018238165075     0.993289035034169    5.7078990796082      0.099472376879212    -83.2824224492201    0.099472376879212    -83.2824224492201    0.993289035034169    5.7078990796082      
473.19343154515      0.993441425415588    5.62897689184442     0.098101585774255    -83.3567779345711    0.098101585774255    -83.3567779345711    0.993441425415588    5.62897689184442     
477.405792434594     0.993590861183225    5.55046774796672     0.096737789841773    -83.4304459545978    0.096737789841773    -83.4304459545978    0.993590861183225    5.55046774796672     
481.655651698022     0.993737382790566    5.47236624080888     0.095380900652114    -83.5034215878927    0.095380900652114    -83.5034215878927    0.993737382790566    5.47236624080888     
485.943343145401     0.993881029941131    5.39466697739922     0.094030829886583    -83.5756993643952    0.094030829886583    -83.5756993643952    0.993881029941131    5.39466697739922     
490.269203558271     0.994021841596263    5.31736457899288     0.092687489341986    -83.6472732315839    0.092687489341986    -83.6472732315839    0.994021841596263    5.31736457899288     
494.633572716194     0.994159855982848    5.24045368109578     0.091350790934978    -83.7181365180949    0.091350790934978    -83.7181365180949    0.994159855982848    5.24045368109578     
499.036793423447     0.994295110600922    5.16392893348009     0.090020646706238    -83.7882818945305    0.090020646706238    -83.7882818945305    0.994295110600922    5.16392893348009     
503.479211535942     0.994427642231207    5.08778500019047     0.088696968824451    -83.8577013312029    0.088696968824451    -83.8577013312029    0.994427642231207    5.08778500019047     
507.961175988401     0.994557486942527    5.01201655954338     0.087379669590147    -83.926386052524     0.087379669590147    -83.926386052524     0.994557486942527    5.01201655954338     
512.483038821751     0.994684680099147    4.93661830411762     0.086068661439366    -83.99432648773      0.086068661439366    -83.99432648773      0.994684680099147    4.93661830411762     
517.045155210786     0.994809256368007    4.8615849407375      0.08476385694719     -84.0615122175863    0.08476385694719     -84.0615122175863    0.994809256368007    4.8615849407375      
521.64788349206      0.994931249725853    4.78691119044827     0.083465168831134    -84.1279319166876    0.083465168831134    -84.1279319166876    0.994931249725853    4.78691119044827     
526.291585192036     0.995050693466273    4.7125917884848      0.082172509954414    -84.1935732909181    0.082172509954414    -84.1935732909181    0.995050693466273    4.7125917884848      
530.976625055474     0.995167620206624    4.63862148423244     0.080885793329104    -84.2584230095922    0.080885793329104    -84.2584230095922    0.995167620206624    4.63862148423244     
535.703371074093     0.995282061894869    4.56499504118172     0.079604932119191    -84.3224666317389    0.079604932119191    -84.3224666317389    0.995282061894869    4.56499504118172     
540.472194515464     0.995394049816291    4.49170723687577     0.078329839643544    -84.3856885259312    0.078329839643544    -84.3856885259312    0.995394049816291    4.49170723687577     
545.28346995218      0.995503614600122    4.41875286285176     0.077060429378817    -84.4480717829881    0.077060429378817    -84.4480717829881    0.995503614600122    4.41875286285176     
550.137575291273     0.995610786226044    4.34612672457531     0.07579661496227     -84.5095981208033    0.07579661496227     -84.5095981208033    0.995610786226044    4.34612672457531     
555.034891803895     0.995715594030609    4.27382364136968     0.074538310194583    -84.5702477804522    0.074538310194583    -84.5702477804522    0.995715594030609    4.27382364136968     
559.975804155271     0.995818066713523    4.20183844633844     0.073285429042622    -84.6299994126368    0.073285429042622    -84.6299994126368    0.995818066713523    4.20183844633844     
564.960700434909     0.995918232343847    4.1301659862822      0.072037885642202    -84.6888299533982    0.072037885642202    -84.6888299533982    0.995918232343847    4.1301659862822      
569.989972187084     0.996016118366073    4.0588011216102      0.070795594300877    -84.7467144878972    0.070795594300877    -84.7467144878972    0.996016118366073    4.0588011216102      
575.064014441592     0.996111751606089    3.98773872624648     0.069558469500762    -84.8036261009038    0.069558469500762    -84.8036261009038    0.996111751606089    3.98773872624648     
580.18322574478      0.996205158277049    3.91697368753022     0.06832642590142     -84.8595357124584    0.06832642590142     -84.8595357124584    0.996205158277049    3.91697368753022     
585.348008190847     0.996296363985117    3.84650090611156     0.067099378342845    -84.9144118969606    0.067099378342845    -84.9144118969606    0.996296363985117    3.84650090611156     
590.558767453429     0.996385393735099    3.77631529584204     0.06587724184857     -84.9682206837026    0.06587724184857     -84.9682206837026    0.996385393735099    3.77631529584204     
595.815912817464     0.996472271935978    3.70641178366073     0.064659931628937    -85.0209253365898    0.064659931628937    -85.0209253365898    0.996472271935978    3.70641178366073     
601.119857211334     0.996557022406321    3.63678530947532     0.063447363084568    -85.0724861104711    0.063447363084568    -85.0724861104711    0.996557022406321    3.63678530947532     
606.47101723931      0.996639668379576    3.56743082603885     0.062239451810078    -85.122859981131     0.062239451810078    -85.122859981131     0.996639668379576    3.56743082603885     
611.869813214263     0.996720232509265    3.49834329882205     0.061036113598093    -85.1720003455613    0.061036113598093    -85.1720003455613    0.996720232509265    3.49834329882205     
617.316669190684     0.996798736874049    3.42951770588182     0.05983726444362     -85.2198566886283    0.05983726444362     -85.2198566886283    0.996798736874049    3.42951770588182     
622.812012997992     0.996875202982695    3.36094903772498     0.058642820548836    -85.2663742116584    0.058642820548836    -85.2663742116584    0.996875202982695    3.36094903772498     
628.356276274136     0.996949651778912    3.29263229716898     0.057452698328385    -85.3114934177696    0.057452698328385    -85.3114934177696    0.996949651778912    3.29263229716898     
633.9498944995       0.997022103646088    3.22456249919803     0.056266814415251    -85.3551496479596    0.056266814415251    -85.3551496479596    0.997022103646088    3.22456249919803     
639.593307031108     0.997092578411896    3.15673467081617     0.055085085667323    -85.3972725609957    0.055085085667323    -85.3972725609957    0.997092578411896    3.15673467081617     
645.286957137135     0.997161095352806    3.0891438508964      0.053907429174769    -85.4377855490019    0.053907429174769    -85.4377855490019    0.997161095352806    3.0891438508964      
651.031292031718     0.997227673198459    3.02178509002685     0.052733762268346    -85.4766050792817    0.052733762268346    -85.4766050792817    0.997227673198459    3.02178509002685     
656.826762910094     0.997292330135944    2.95465345035335     0.05156400252881     -85.5136399512852    0.05156400252881     -85.5136399512852    0.997292330135944    2.95465345035335     
662.673824984028     0.997355083813947    2.88774400541919     0.050398067797622    -85.5487904556847    0.050398067797622    -85.5487904556847    0.997355083813947    2.88774400541919     
668.572937517576     0.997415951346794    2.82105184000128     0.049235876189148    -85.5819474201844    0.049235876189148    -85.5819474201844    0.997415951346794    2.82105184000128     
674.524563863156     0.997474949318368    2.75457204994446     0.04807734610464     -85.6129911238658    0.04807734610464     -85.6129911238658    0.997474949318368    2.75457204994446     
680.529171497941     0.997532093785926    2.68829974199194     0.046922396248282    -85.641790058455     0.046922396248282    -85.641790058455     0.997532093785926    2.68829974199194     
686.587232060581     0.997587400283778    2.62223003361384     0.045770945645675    -85.6681995107376    0.045770945645675    -85.6681995107376    0.997587400283778    2.62223003361384     
692.699221388242     0.997640883826875    2.55635805283289     0.044622913665212    -85.6920599352719    0.044622913665212    -85.6920599352719    0.997640883826875    2.55635805283289     
698.86561955399      0.997692558914257    2.49067893804768     0.043478220042838    -85.713195080314     0.043478220042838    -85.713195080314     0.997692558914257    2.49067893804768     
705.086910904491     0.997742439532402    2.42518783785392     0.042336784910868    -85.7314098221882    0.042336784910868    -85.7314098221882    0.997742439532402    2.42518783785392     
711.363584098062     0.997790539158457    2.35987991086289     0.041198528831596    -85.7464876538092    0.041198528831596    -85.7464876538092    0.997790539158457    2.35987991086289     
717.696132143042     0.997836870763341    2.29475032551871     0.040063372836653    -85.7581877611997    0.040063372836653    -85.7581877611997    0.997836870763341    2.29475032551871     
724.085052436531     0.997881446814748    2.2297942599126      0.038931238473254    -85.7662416069913    0.038931238473254    -85.7662416069913    0.997881446814748    2.2297942599126      
730.530846803445     0.997924279280022    2.16500690159592     0.037802047858736    -85.7703489211692    0.037802047858736    -85.7703489211692    0.997924279280022    2.16500690159592     
737.03402153594      0.997965379628921    2.10038344739145     0.036675723745152    -85.7701729755987    0.036675723745152    -85.7701729755987    0.997965379628921    2.10038344739145     
743.595087433177     0.998004758836264    2.03591910320246     0.035552189596064    -85.7653349885992    0.035552189596064    -85.7653349885992    0.998004758836264    2.03591910320246     
750.214559841443     0.99804242738446     1.97160908382097     0.034431369678298    -85.7554074669557    0.034431369678298    -85.7554074669557    0.99804242738446     1.97160908382097     
756.892958694632     0.998078395265932    1.90744861273366     0.033313189172056    -85.7399062424701    0.033313189172056    -85.7399062424701    0.998078395265932    1.90744861273366     
763.630808555078     0.998112671985403    1.84343292192723     0.032197574303773    -85.7182808946145    0.032197574303773    -85.7182808946145    0.998112671985403    1.84343292192723     
770.428638654765     0.998145266562089    1.77955725169185     0.031084452507293    -85.6899031647324    0.031084452507293    -85.6899031647324    0.998145266562089    1.77955725169185     
777.28698293689      0.99817618753176     1.71581685042389     0.029973752620561    -85.6540528531221    0.029973752620561    -85.6540528531221    0.99817618753176     1.71581685042389     
784.206380097804     0.998205442948694    1.65220697442714     0.028865405127193    -85.6099005377474    0.028865405127193    -85.6099005377474    0.998205442948694    1.65220697442714     
791.187373629328     0.998233040387513    1.58872288771326     0.027759342455212    -85.5564862472887    0.027759342455212    -85.5564862472887    0.998233040387513    1.58872288771326     
798.230511861435     0.998258986944898    1.52535986180147     0.026655499349228    -85.4926929401678    0.026655499349228    -85.4926929401678    0.998258986944898    1.52535986180147     
805.336348005328     0.998283289241199    1.46211317551709     0.025553813337827    -85.4172132534386    0.025553813337827    -85.4172132534386    0.998283289241199    1.46211317551709     
812.505440196882     0.998305953421913    1.39897811478954     0.024454225325684    -85.3285074441591    0.024454225325684    -85.3285074441591    0.998305953421913    1.39897811478954     
819.738351540494     0.998326985159064    1.33594997244967     0.023356680350741    -85.2247496804879    0.023356680350741    -85.2247496804879    0.998326985159064    1.33594997244967     
827.035650153306     0.998346389652457    1.27302404802663     0.022261128562496    -85.1037587424591    0.022261128562496    -85.1037587424591    0.998346389652457    1.27302404802663     
834.397909209831     0.998364171630813    1.21019564754415     0.021167526500184    -84.9629075954554    0.021167526500184    -84.9629075954554    0.998364171630813    1.21019564754415     
841.825706986973     0.998380335352799    1.14746008331661     0.02007583878344     -84.7990039372137    0.02007583878344     -84.7990039372137    0.998380335352799    1.14746008331661     
849.319626909447     0.998394884607932    1.08481267374458     0.0189860403789      -84.6081302624752    0.0189860403789      -84.6081302624752    0.998394884607932    1.08481267374458     
856.880257595608     0.998407822717374    1.02224874311047     0.017898119684585    -84.3854265291005    0.017898119684585    -84.3854265291005    0.998407822717374    1.02224874311047     
864.508192903683     0.99841915253461     0.959763621373954    0.016812082797001    -84.1247899460517    0.016812082797001    -84.1247899460517    0.99841915253461     0.959763621373954    
872.204031978414     0.998428876446004    0.897352643967198    0.01572795952417     -83.81845265363      0.01572795952417     -83.81845265363      0.998428876446004    0.897352643967198    
879.968379298121     0.998436996371249    0.835011151590626    0.014645812035665    -83.4563754043231    0.014645812035665    -83.4563754043231    0.998436996371249    0.835011151590626    
887.801844722185     0.998443513763694    0.772734490008204    0.013565747599205    -83.0253568990419    0.013565747599205    -83.0253568990419    0.998443513763694    0.772734490008204    
895.705043538939     0.998448429610557    0.710518009843587    0.012487937837414    -82.5076910198115    0.012487937837414    -82.5076910198115    0.998448429610557    0.710518009843587    
903.678596514011     0.998451744433026    0.648357066376185    0.01141264873894     -81.8790815838707    0.01141264873894     -81.8790815838707    0.998451744433026    0.648357066376185    
911.723129939068     0.998453458286237    0.5862470193379      0.010340289099692    -81.1052917055984    0.010340289099692    -81.1052917055984    0.998453458286237    0.5862470193379      
919.839275681024     0.998453570759143    0.524183232710145    0.009271491985202    -80.1365422869577    0.009271491985202    -80.1365422869577    0.998453570759143    0.524183232710145    
928.027671231657     0.998452080974264    0.462161074521642    0.008207258534097    -78.8977021573221    0.008207258534097    -78.8977021573221    0.998452080974264    0.462161074521642    
936.288959757689     0.998448987587317    0.40017591664688     0.007149227017702    -77.2701366866806    0.007149227017702    -77.2701366866806    0.998448987587317    0.40017591664688     
944.623790151304     0.998444288786742    0.338223134605225    0.006100213179794    -75.0558455074266    0.006100213179794    -75.0558455074266    0.998444288786742    0.338223134605225    
953.032817081111     0.998437982293098    0.276298107360992    0.005065394370092    -71.9008540701747    0.005065394370092    -71.9008540701747    0.998437982293098    0.276298107360992    
961.516701043575     0.998430065358352    0.21439621712442     0.0040552016942      -67.1161263907436    0.0040552016942      -67.1161263907436    0.998430065358352    0.21439621712442     
970.076108414885     0.998420534765049    0.152512849153782    0.003093374813625    -59.2202273168365    0.003093374813625    -59.2202273168365    0.998420534765049    0.152512849153782    
978.711711503303     0.998409386825367    0.090643391558448    0.002242515070771    -44.7768066510905    0.002242515070771    -44.7768066510905    0.998409386825367    0.090643391558448    
987.424188601971     0.998396617380056    0.028783235103183    0.001680118740003    -17.3690068283809    0.001680118740003    -17.3690068283809    0.998396617380056    0.028783235103183    
996.214224042183     0.998382221797256    -0.033072226985947   0.001717512548451    19.6050684227445     0.001717512548451    19.6050684227445     0.998382221797256    -0.033072226985947   
1005.08250824714     0.998366194971208    -0.094927599214709   0.002325901314572    45.3294985189674     0.002325901314572    45.3294985189674     0.998366194971208    -0.094927599214709   
1014.02973778619     0.998348531320837    -0.156787484012065   0.003194241539757    58.7894471309755     0.003194241539757    58.7894471309755     0.998348531320837    -0.156787484012065   
1023.05661542952     0.998329224788234    -0.218656481920069   0.004163063542646    66.2291737582609     0.004163063542646    66.2291737582609     0.998329224788234    -0.218656481920069   
1032.16385020336     0.998308268837005    -0.280539191781911   0.005176429419584    70.7842596156581     0.005176429419584    70.7842596156581     0.998308268837005    -0.280539191781911   
1041.3521574457      0.998285656450514    -0.342440210928524   0.006212783758115    73.8109286334251     0.006212783758115    73.8109286334251     0.998285656450514    -0.342440210928524   
1050.62225886245     0.998261380130005    -0.404364135362901   0.007262513163698    75.9469847822701     0.007262513163698    75.9469847822701     0.998261380130005    -0.404364135362901   
1059.97488258412     0.998235431892616    -0.466315559942838   0.008320791517359    77.52341405857       0.008320791517359    77.52341405857       0.998235431892616    -0.466315559942838   
1069.41076322306     0.998207803269259    -0.528299078561344   0.009384971711415    78.7268903913777     0.009384971711415    78.7268903913777     0.998207803269259    -0.528299078561344   
1078.9306419311      0.998178485302403    -0.590319284324899   0.010453503814809    79.6700056166849     0.010453503814809    79.6700056166849     0.998178485302403    -0.590319284324899   
1088.53526645781     0.998147468543725    -0.652380769729793   0.011525436224274    80.4244480395087     0.011525436224274    80.4244480395087     0.998147468543725    -0.652380769729793   
1098.22539120919     0.998114743051654    -0.714488126835441   0.012600165160124    81.0379257479344     0.012600165160124    81.0379257479344     0.998114743051654    -0.714488126835441   
1108.00177730698     0.998080298388793    -0.776645947435957   0.013677299853921    81.5433721423712     0.013677299853921    81.5433721423712     0.998080298388793    -0.776645947435957   
1117.8651926484      0.998044123619227    -0.838858823228493   0.014756585741712    81.9642310730576     0.014756585741712    81.9642310730576     0.998044123619227    -0.838858823228493   
1127.81641196648     0.998006207305709    -0.901131345979505   0.015837858571174    82.3176328887798     0.015837858571174    82.3176328887798     0.998006207305709    -0.901131345979505   
1137.85621689092     0.99796653750674     -0.963468107687643   0.016921015852625    82.6163788810604     0.016921015852625    82.6163788810604     0.99796653750674     -0.963468107687643   
1147.98539600947     0.997925101773517    -1.02587370074415    0.018005998475652    82.8702235339425     0.018005998475652    82.8702235339425     0.997925101773517    -1.02587370074415    
1158.20474492988     0.997881887146776    -1.08835271809014    0.01909277851267     83.0867275978667     0.01909277851267     83.0867275978667     0.997881887146776    -1.08835271809014    
1168.51506634237     0.997836880153514    -1.15090975337051    0.020181350913241    83.2718403523392     0.020181350913241    83.2718403523392     0.997836880153514    -1.15090975337051    
1178.91717008272     0.997790066803594    -1.21354940108502    0.021271727716448    83.4303061182443     0.021271727716448    83.4303061182443     0.997790066803594    -1.21354940108502    
1189.41187319585     0.997741432586233    -1.27627625673555    0.022363933934813    83.5659538358237     0.022363933934813    83.5659538358237     0.997741432586233    -1.27627625673555    
1200                 0.997690962466372    -1.33909491697045    0.023458004573195    83.6819070926738     0.023458004573195    83.6819070926738     0.997690962466372    -1.33909491697045    
