# MHz S MA R 50      
!Freq                MagS11               AngS11               MagS21               AngS21               MagS12               AngS12               MagS22               AngS22               
1                    0.273327026613587    60.218576088883      0.896207924620879    -15.3492296858459    0.896207924620879    -15.3492296858459    0.273327026613587    60.218576088883      
1.00692569863907     0.274967555673912    60.1916569553511     0.895675298323995    -15.4488001021293    0.895675298323995    -15.4488001021293    0.274967555673912    60.1916569553511     
1.01389936257978     0.276617094365754    60.1637859475719     0.895137224426392    -15.5489468998125    0.895137224426392    -15.5489468998125    0.276617094365754    60.1637859475719     
1.02092132401536     0.278275657314488    60.1349626428495     0.894593649273928    -15.6496721404205    0.894593649273928    -15.6496721404205    0.278275657314488    60.1349626428495     
1.02799191743969     0.279943258531968    60.1051866354081     0.894044518879432    -15.7509778683678    0.894044518879432    -15.7509778683678    0.279943258531968    60.1051866354081     
1.03511147966328     0.281619911403476    60.0744575367999     0.893489778926158    -15.8528661104013    0.893489778926158    -15.8528661104013    0.281619911403476    60.0744575367999     
1.04228034982927     0.283305628674623    60.0427749763246     0.89292937477151     -15.9553388750367    0.89292937477151     -15.9553388750367    0.283305628674623    60.0427749763246     
1.04949886942961     0.285000422438058    60.0101386014589     0.892363251450879    -16.0583981519874    0.892363251450879    -16.0583981519874    0.285000422438058    60.0101386014589     
1.05676738232133     0.286704304120113    59.9765480782952     0.891791353681721    -16.1620459115847    0.891791353681721    -16.1620459115847    0.286704304120113    59.9765480782952     
1.06408623474289     0.288417284467319    59.9420030919918     0.891213625867805    -16.2662841041923    0.891213625867805    -16.2662841041923    0.288417284467319    59.9420030919918     
1.0714557753307      0.2901393735328      59.906503347233      0.890630012103663    -16.3711146596125    0.890630012103663    -16.3711146596125    0.2901393735328      59.906503347233      
1.07887635513573     0.291870580662565    59.8700485686986     0.89004045617922     -16.476539486484     0.89004045617922     -16.476539486484     0.291870580662565    59.8700485686986     
1.08634832764023     0.293610914481704    59.8326385015436     0.889444901584681    -16.5825604716743    0.889444901584681    -16.5825604716743    0.293610914481704    59.8326385015436     
1.09387204877452     0.295360382880473    59.794272911888      0.888843291515601    -16.6891794796635    0.888843291515601    -16.6891794796635    0.295360382880473    59.794272911888      
1.10144787693404     0.297118993000265    59.754951587317      0.888235568878109    -16.7963983519203    0.888235568878109    -16.7963983519203    0.297118993000265    59.754951587317      
1.10907617299633     0.298886751219513    59.71467433739       0.887621676294458    -16.9042189062721    0.887621676294458    -16.9042189062721    0.298886751219513    59.71467433739       
1.11675730033828     0.300663663139477    59.6734409941598     0.887001556108721    -17.0126429362671    0.887001556108721    -17.0126429362671    0.300663663139477    59.6734409941598     
1.1244916248534      0.30244973356994     59.631251412702      0.886375150392698    -17.1216722105284    0.886375150392698    -17.1216722105284    0.30244973356994     59.631251412702      
1.1322795149693      0.304244966514836    59.5881054716531     0.885742400952128    -17.2313084721023    0.885742400952128    -17.2313084721023    0.304244966514836    59.5881054716531     
1.14012134166517     0.306049365157776    59.5440030737589     0.885103249333023    -17.3415534377991    0.885103249333023    -17.3415534377991    0.306049365157776    59.5440030737589     
1.14801747848952     0.307862931847503    59.4989441464312     0.884457636828362    -17.452408797526     0.884457636828362    -17.452408797526     0.307862931847503    59.4989441464312     
1.15596830157792     0.309685668083265    59.4529286423158     0.883805504484882    -17.5638762136137    0.883805504484882    -17.5638762136137    0.309685668083265    59.4529286423158     
1.16397418967097     0.311517574500135    59.4059565398673     0.883146793110237    -17.6759573201367    0.883146793110237    -17.6759573201367    0.311517574500135    59.4059565398673     
1.17203552413229     0.313358650854236    59.358027843935      0.882481443280339    -17.7886537222252    0.882481443280339    -17.7886537222252    0.313358650854236    59.358027843935      
1.18015268896671     0.315208896007939    59.309142586356      0.881809395346932    -17.9019669953719    0.881809395346932    -17.9019669953719    0.315208896007939    59.309142586356      
1.18832607083859     0.317068307914957    59.2593008265595     0.881130589445449    -18.0158986847304    0.881130589445449    -18.0158986847304    0.317068307914957    59.2593008265595     
1.19655605909017     0.318936883605442    59.2085026521777     0.880444965503132    -18.130450304409     0.880444965503132    -18.130450304409     0.318936883605442    59.2085026521777     
1.20484304576018     0.320814619170986    59.1567481796663     0.87975246324738     -18.2456233367562    0.87975246324738     -18.2456233367562    0.320814619170986    59.1567481796663     
1.2131874256025      0.322701509749616    59.104037554933      0.879053022214374    -18.3614192316413    0.879053022214374    -18.3614192316413    0.322701509749616    59.104037554933      
1.22158959610493     0.324597549510724    59.0503709539755     0.878346581757953    -18.4778394057274    0.878346581757953    -18.4778394057274    0.324597549510724    59.0503709539755     
1.23004995750818     0.326502731639974    58.9957485835266     0.877633081058776    -18.5948852417388    0.877633081058776    -18.5948852417388    0.326502731639974    58.9957485835266     
1.23856891282489     0.328417048324215    58.9401706817069     0.876912459133768    -18.7125580877237    0.876912459133768    -18.7125580877237    0.328417048324215    58.9401706817069     
1.24714686785883     0.330340490736314    58.8836375186876     0.876184654845778    -18.8308592563082    0.876184654845778    -18.8308592563082    0.330340490736314    58.8836375186876     
1.25578423122429     0.332273049020037    58.826149397358      0.875449606913588    -18.9497900239479    0.875449606913588    -18.9497900239479    0.332273049020037    58.826149397358      
1.26448141436544     0.334214712274876    58.7677066540031     0.874707253922146    -19.0693516301702    0.874707253922146    -19.0693516301702    0.334214712274876    58.7677066540031     
1.27323883157605     0.336165468540912    58.7083096589873     0.873957534333105    -19.1895452768149    0.873957534333105    -19.1895452768149    0.336165468540912    58.7083096589873     
1.28205690001911     0.33812530478365     58.647958817446      0.873200386495658    -19.3103721272668    0.873200386495658    -19.3103721272668    0.33812530478365     58.647958817446      
1.29093603974678     0.340094206878909    58.5866545699826     0.872435748657635    -19.4318333056844    0.872435748657635    -19.4318333056844    0.340094206878909    58.5866545699826     
1.29987667372038     0.342072159597688    58.5243973933742     0.871663558976895    -19.5539298962236    0.871663558976895    -19.5539298962236    0.342072159597688    58.5243973933742     
1.30887922783053     0.34405914659109     58.4611878012836     0.870883755533023    -19.6766629422557    0.870883755533023    -19.6766629422557    0.34405914659109     58.4611878012836     
1.31794413091742     0.346055150375278    58.3970263449756     0.870096276339315    -19.8000334455824    0.870096276339315    -19.8000334455824    0.346055150375278    58.3970263449756     
1.32707181479129     0.348060152316462    58.3319136140427     0.869301059355064    -19.9240423656455    0.869301059355064    -19.9240423656455    0.348060152316462    58.3319136140427     
1.33626271425294     0.350074132615941    58.2658502371335     0.868498042498108    -20.0486906187315    0.868498042498108    -20.0486906187315    0.350074132615941    58.2658502371335     
1.34551726711449     0.352097070295225    58.1988368826891     0.867687163657745    -20.1739790771752    0.867687163657745    -20.1739790771752    0.352097070295225    58.1988368826891     
1.35483591422019     0.354128943181182    58.1308742596837     0.866868360707887    -20.2999085685555    0.866868360707887    -20.2999085685555    0.354128943181182    58.1308742596837     
1.36421909946747     0.356169727891303    58.0619631183704     0.86604157152056     -20.4264798748915    0.86604157152056     -20.4264798748915    0.356169727891303    58.0619631183704     
1.37366726982805     0.358219399819031    57.9921042510332     0.865206733979674    -20.5536937318327    0.865206733979674    -20.5536937318327    0.358219399819031    57.9921042510332     
1.38318087536923     0.360277933119184    57.921298492741      0.864363785995131    -20.6815508278476    0.864363785995131    -20.6815508278476    0.360277933119184    57.921298492741      
1.39276036927537     0.362345300693491    57.8495467221088     0.863512665517208    -20.8100518034094    0.863512665517208    -20.8100518034094    0.362345300693491    57.8495467221088     
1.40240620786941     0.364421474176221    57.7768498620611     0.862653310551283    -20.9391972501777    0.862653310551283    -20.9391972501777    0.364421474176221    57.7768498620611     
1.41211885063468     0.366506423919963    57.7032088805996     0.861785659172844    -21.0689877101812    0.861785659172844    -21.0689877101812    0.366506423919963    57.7032088805996     
1.42189876023673     0.368600118981498    57.6286247915746     0.860909649542795    -21.1994236749942    0.860909649542795    -21.1994236749942    0.368600118981498    57.6286247915746     
1.43174640254539     0.370702527107854    57.5530986554592     0.86002521992312     -21.3305055849155    0.86002521992312     -21.3305055849155    0.370702527107854    57.5530986554592     
1.441662246657       0.372813614722481    57.4766315801259     0.859132308692812    -21.462233828143     0.859132308692812    -21.462233828143     0.372813614722481    57.4766315801259     
1.45164676491667     0.374933346911591    57.3992247216277     0.858230854364103    -21.5946087399484    0.858230854364103    -21.5946087399484    0.374933346911591    57.3992247216277     
1.46170043294087     0.377061687410689    57.3208792849777     0.85732079559906     -21.7276306018521    0.85732079559906     -21.7276306018521    0.377061687410689    57.3208792849777     
1.47182372964002     0.379198598591273    57.2415965249346     0.856402071226449    -21.8612996407959    0.856402071226449    -21.8612996407959    0.379198598591273    57.2415965249346     
1.48201713724134     0.381344041447708    57.1613777467864     0.855474620258886    -21.995616028316     0.855474620258886    -21.995616028316     0.381344041447708    57.1613777467864     
1.49228114131181     0.383497975584354    57.0802243071369     0.854538381910344    -22.1305798797182    0.854538381910344    -22.1305798797182    0.383497975584354    57.0802243071369     
1.50261623078131     0.385660359202836    56.9981376146933     0.853593295613921    -22.2661912532499    0.853593295613921    -22.2661912532499    0.385660359202836    56.9981376146933     
1.51302289796588     0.387831149089624    56.9151191310514     0.852639301039954    -22.4024501492779    0.852639301039954    -22.4024501492779    0.387831149089624    56.9151191310514     
1.52350163859121     0.390010300603775    56.831170371485      0.851676338114411    -22.5393565094629    0.851676338114411    -22.5393565094629    0.390010300603775    56.831170371485      
1.53405295181622     0.392197767664975    56.7462929057303     0.850704347037572    -22.6769102159391    0.850704347037572    -22.6769102159391    0.392197767664975    56.7462929057303     
1.54467734025688     0.394393502741803    56.6604883587736     0.849723268303021    -22.8151110904934    0.849723268303021    -22.8151110904934    0.394393502741803    56.6604883587736     
1.5553753100101      0.396597456840313    56.5737584116341     0.848733042716955    -22.9539588937495    0.848733042716955    -22.9539588937495    0.396597456840313    56.5737584116341     
1.56614737067788     0.398809579492847    56.486104802148      0.847733611417751    -23.0934533243527    0.847733611417751    -23.0934533243527    0.398809579492847    56.486104802148      
1.57699403539157     0.401029818747184    56.3975293257482     0.846724915895819    -23.2335940181591    0.846724915895819    -23.2335940181591    0.401029818747184    56.3975293257482     
1.58791582083631     0.403258121155982    56.3080338362431     0.84570689801379     -23.3743805474287    0.84570689801379     -23.3743805474287    0.403258121155982    56.3080338362431     
1.59891324727563     0.405494431766539    56.2176202465913     0.84467950002695     -23.5158124200218    0.84467950002695     -23.5158124200218    0.405494431766539    56.2176202465913     
1.60998683857628     0.40773869411089     56.126290529673      0.843642664603928    -23.6578890786007    0.843642664603928    -23.6578890786007    0.40773869411089     56.126290529673      
1.62113712223314     0.409990850196246    56.0340467190586     0.842596334847717    -23.8006098998359    0.842596334847717    -23.8006098998359    0.409990850196246    56.0340467190586     
1.63236462939433     0.412250840495798    55.9408909097708     0.841540454316922    -23.9439741936181    0.841540454316922    -23.9439741936181    0.412250840495798    55.9408909097708     
1.6436698948866      0.414518603939892    55.8468252590435     0.840474967047302    -24.0879812022767    0.840474967047302    -24.0879812022767    0.414518603939892    55.8468252590435     
1.6550534572407      0.416794077907559    55.7518519870754     0.83939981757352     -24.2326300998029    0.83939981757352     -24.2326300998029    0.416794077907559    55.7518519870754     
1.6665158587171      0.419077198218488    55.6559733777763     0.838314950951228    -24.3779199910813    0.838314950951228    -24.3779199910813    0.419077198218488    55.6559733777763     
1.67805764533181     0.42136789912536     55.5591917795089     0.837220312779312    -24.5238499111282    0.837220312779312    -24.5238499111282    0.42136789912536     55.5591917795089     
1.68967936688237     0.42366611330664     55.461509605822      0.836115849222445    -24.670418824338     0.836115849222445    -24.670418824338     0.42366611330664     55.461509605822      
1.70138157697405     0.425971771859788    55.3629293361772     0.835001507033854    -24.8176256237382    0.835001507033854    -24.8176256237382    0.425971771859788    55.3629293361772     
1.71316483304624     0.428284804294903    55.2634535166682     0.833877233578298    -24.9654691302515    0.833877233578298    -24.9654691302515    0.428284804294903    55.2634535166682     
1.72502969639898     0.430605138528851    55.1630847607304     0.83274297685528     -25.1139480919701    0.83274297685528     -25.1139480919701    0.430605138528851    55.1630847607304     
1.73697673221969     0.432932700879844    55.0618257498437     0.831598685522486    -25.2630611834364    0.831598685522486    -25.2630611834364    0.432932700879844    55.0618257498437     
1.74900650961012     0.435267416062528    54.9596792342221     0.830444308919408    -25.4128070049381    0.830444308919408    -25.4128070049381    0.435267416062528    54.9596792342221     
1.76111960161345     0.437609207183536    54.8566480334979     0.829279797091183    -25.5631840818101    0.829279797091183    -25.5631840818101    0.437609207183536    54.8566480334979     
1.77331658524159     0.439957995737588    54.7527350373913     0.828105100812589    -25.7141908637512    0.828105100812589    -25.7141908637512    0.439957995737588    54.7527350373913     
1.78559804150264     0.442313701604077    54.6479432063722     0.826920171612257    -25.8658257241496    0.826920171612257    -25.8658257241496    0.442313701604077    54.6479432063722     
1.79796455542861     0.444676243044224    54.5422755723071     0.825724961797042    -26.0180869594248    0.825724961797042    -26.0180869594248    0.444676243044224    54.5422755723071     
1.81041671610324     0.447045536698754    54.4357352390966     0.824519424476529    -26.1709727883781    0.824519424476529    -26.1709727883781    0.447045536698754    54.4357352390966     
1.82295511669011     0.449421497586146    54.3283253832988     0.823303513587721    -26.3244813515602    0.823303513587721    -26.3244813515602    0.449421497586146    54.3283253832988     
1.83558035446086     0.451804039101466    54.2200492547383     0.822077183919856    -26.4786107106516    0.822077183919856    -26.4786107106516    0.451804039101466    54.2200492547383     
1.84829303082365     0.454193073015747    54.1109101771037     0.820840391139344    -26.6333588478572    0.820840391139344    -26.6333588478572    0.454193073015747    54.1109101771037     
1.86109375135183     0.456588509476003    54.000911548529      0.819593091814815    -26.7887236653165    0.819593091814815    -26.7887236653165    0.456588509476003    54.000911548529      
1.87398312581276     0.458990257005846    53.8900568421597     0.818335243442307    -26.9447029845312    0.818335243442307    -26.9447029845312    0.458990257005846    53.8900568421597     
1.88696176819684     0.461398222506694    53.7783496067041     0.817066804470521    -27.101294545806     0.817066804470521    -27.101294545806     0.461398222506694    53.7783496067041     
1.90003029674682     0.463812311259632    53.6657934669685     0.815787734326129    -27.2584960077087    0.815787734326129    -27.2584960077087    0.463812311259632    53.6657934669685     
1.9131893339872      0.466232426927936    53.5523921243737     0.814497993439233    -27.4163049465483    0.814497993439233    -27.4163049465483    0.466232426927936    53.5523921243737     
1.92643950675388     0.468658471560195    53.4381493574568     0.813197543268768    -27.5747188558683    0.813197543268768    -27.5747188558683    0.468658471560195    53.4381493574568     
1.93978144622406     0.471090345594138    53.3230690223537     0.811886346328062    -27.7337351459612    0.811886346328062    -27.7337351459612    0.471090345594138    53.3230690223537     
1.95321578794627     0.473527947861143    53.2071550532612     0.810564366210338    -27.8933511434025    0.810564366210338    -27.8933511434025    0.473527947861143    53.2071550532612     
1.96674317187066     0.475971175591372    53.0904114628848     0.80923156761426     -28.0535640906009    0.80923156761426     -28.0535640906009    0.475971175591372    53.0904114628848     
1.98036424237949     0.478419924419671    52.9728423428615     0.807887916369482    -28.2143711453734    0.807887916369482    -28.2143711453734    0.478419924419671    52.9728423428615     
1.9940796483178      0.480874088392133    52.8544518641649     0.80653337946219     -28.3757693805389    0.80653337946219     -28.3757693805389    0.480874088392133    52.8544518641649     
2.00789004302436     0.483333559973361    52.7352442774905     0.805167925060582    -28.5377557835319    0.805167925060582    -28.5377557835319    0.483333559973361    52.7352442774905     
2.02179608436274     0.485798230054507    52.6152239136161     0.803791522540336    -28.7003272560427    0.803791522540336    -28.7003272560427    0.485798230054507    52.6152239136161     
2.03579843475269     0.48826798796196     52.494395183745      0.802404142509986    -28.8634806136738    0.802404142509986    -28.8634806136738    0.48826798796196     52.494395183745      
2.04989776120168     0.490742721466862    52.3727625798208     0.801005756836259    -29.0272125856264    0.801005756836259    -29.0272125856264    0.490742721466862    52.3727625798208     
2.06409473533667     0.493222316795273    52.2503306748256     0.799596338669266    -29.1915198144038    0.799596338669266    -29.1915198144038    0.493222316795273    52.2503306748256     
2.07839003343611     0.495706658639181    52.1271041230484     0.798175862467634    -29.3563988555451    0.798175862467634    -29.3563988555451    0.495706658639181    52.1271041230484     
2.09278433646214     0.498195630168201    52.0030876603339     0.796744304023478    -29.5218461773788    0.796744304023478    -29.5218461773788    0.498195630168201    52.0030876603339     
2.10727833009304     0.500689113042067    51.8782861043041     0.795301640487233    -29.6878581608041    0.795301640487233    -29.6878581608041    0.500689113042067    51.8782861043041     
2.12187270475591     0.503186987423908    51.7527043545547     0.793847850392333    -29.8544310990981    0.793847850392333    -29.8544310990981    0.503186987423908    51.7527043545547     
2.13656815565952     0.505689131994258    51.6263473928276     0.792382913679713    -30.0215611977479    0.792382913679713    -30.0215611977479    0.505689131994258    51.6263473928276     
2.15136538282746     0.508195423965886    51.4992202831553     0.790906811722084    -30.1892445743098    0.790906811722084    -30.1892445743098    0.508195423965886    51.4992202831553     
2.16626509113145     0.510705739099407    51.371328171978      0.78941952734803     -30.3574772582979    0.78941952734803     -30.3574772582979    0.510705739099407    51.371328171978      
2.18126799032497     0.513219951719652    51.2426762882357     0.787921044865851    -30.526255191097     0.787921044865851    -30.526255191097     0.513219951719652    51.2426762882357     
2.19637479507702     0.515737934732856    51.1132699434311     0.786411350087155    -30.6955742259056    0.786411350087155    -30.6955742259056    0.515737934732856    51.1132699434311     
2.21158622500617     0.51825955964464     50.9831145316632     0.784890430350188    -30.8654301277085    0.784890430350188    -30.8654301277085    0.51825955964464     50.9831145316632     
2.22690300471489     0.520784696578781    50.8522155296342     0.783358274542854    -31.0358185732771    0.783358274542854    -31.0358185732771    0.520784696578781    50.8522155296342     
2.24232586382399     0.523313214296765    50.7205784966268     0.78181487312543     -31.2067351511986    0.78181487312543     -31.2067351511986    0.523313214296765    50.7205784966268     
2.25785553700743     0.52584498021818     50.58820907445       0.780260218153007    -31.378175361938     0.780260218153007    -31.378175361938     0.52584498021818     50.58820907445       
2.2734927640273      0.528379860441856    50.455112987358      0.778694303297481    -31.5501346179267    0.778694303297481    -31.5501346179267    0.528379860441856    50.455112987358      
2.28923828976906     0.530917719767854    50.3212960419353     0.777117123869278    -31.7226082436864    0.777117123869278    -31.7226082436864    0.530917719767854    50.3212960419353     
2.30509286427703     0.533458421720197    50.1867641269543     0.775528676838628    -31.8955914759794    0.775528676838628    -31.8955914759794    0.533458421720197    50.1867641269543     
2.32105724279009     0.536001828570455    50.0515232131985     0.773928960856466    -32.0690794639947    0.773928960856466    -32.0690794639947    0.536001828570455    50.0515232131985     
2.33713218577768     0.538547801362069    49.9155793532569     0.772317976274904    -32.243067269563     0.772317976274904    -32.243067269563     0.538547801362069    49.9155793532569     
2.35331845897606     0.541096199935495    49.7789386812851     0.770695725167242    -32.4175498674051    0.770695725167242    -32.4175498674051    0.541096199935495    49.7789386812851     
2.36961683342469     0.543646882954133    49.6416074127335     0.769062211347541    -32.592522145414     0.769062211347541    -32.592522145414     0.543646882954133    49.6416074127335     
2.38602808550306     0.546199707931001    49.5035918440458     0.767417440389702    -32.7679789049664    0.767417440389702    -32.7679789049664    0.546199707931001    49.5035918440458     
2.40255299696762     0.548754531256262    49.3648983523197     0.765761419646046    -32.9439148612729    0.765761419646046    -32.9439148612729    0.548754531256262    49.3648983523197     
2.41919235498901     0.551311208225408    49.2255333949412     0.764094158265363    -33.1203246437544    0.764094158265363    -33.1203246437544    0.551311208225408    49.2255333949412     
2.43594695218961     0.553869593068317    49.0855035091787     0.762415667210443    -33.2972027964596    0.762415667210443    -33.2972027964596    0.553869593068317    49.0855035091787     
2.45281758668124     0.556429538978999    48.9448153117486     0.76072595927503     -33.4745437785111    0.76072595927503     -33.4745437785111    0.556429538978999    48.9448153117486     
2.46980506210321     0.558990898146084    48.8034754983454     0.759025049100202    -33.6523419645862    0.759025049100202    -33.6523419645862    0.558990898146084    48.8034754983454     
2.48691018766059     0.561553521784106    48.6614908431362     0.75731295319017     -33.8305916454354    0.75731295319017     -33.8305916454354    0.561553521784106    48.6614908431362     
2.50413377816277     0.564117260165454    48.5188681982239     0.755589689927447    -34.0092870284315    0.755589689927447    -34.0092870284315    0.564117260165454    48.5188681982239     
2.52147665406224     0.566681962653054    48.3756144930755     0.753855279587394    -34.1884222381537    0.753855279587394    -34.1884222381537    0.566681962653054    48.3756144930755     
2.53893964149373     0.569247477733796    48.231736733913      0.75210974435211     -34.3679913170093    0.75210974435211     -34.3679913170093    0.569247477733796    48.231736733913      
2.55652357231351     0.571813653052581    48.0872420030755     0.750353108323648    -34.5479882258854    0.750353108323648    -34.5479882258854    0.571813653052581    48.0872420030755     
2.57422928413904     0.574380335447136    47.9421374583408     0.748585397536577    -34.7284068448405    0.748585397536577    -34.7284068448405    0.574380335447136    47.9421374583408     
2.59205762038886     0.576947370983419    47.7964303322168     0.746806639969811    -34.9092409738261    0.746806639969811    -34.9092409738261    0.576947370983419    47.7964303322168     
2.61000943032278     0.579514604991727    47.6501279311963     0.745016865557725    -35.0904843334466    0.745016865557725    -35.0904843334466    0.579514604991727    47.6501279311963     
2.62808556908233     0.582081882103425    47.5032376349766     0.743216106200547    -35.2721305657532    0.743216106200547    -35.2721305657532    0.582081882103425    47.5032376349766     
2.64628689773149     0.58464904628828     47.3557668956476     0.741404395773995    -35.45417323507      0.741404395773995    -35.45417323507      0.58464904628828     47.3557668956476     
2.6646142832977      0.587215940892438    47.2077232368421     0.739581770138144    -35.6366058288587    0.739581770138144    -35.6366058288587    0.587215940892438    47.2077232368421     
2.68306859881319     0.589782408676959    47.0591142528531     0.737748267145521    -35.8194217586152    0.737748267145521    -35.8194217586152    0.589782408676959    47.0591142528531     
2.70165072335652     0.592348291856934    46.9099476077169     0.735903926648395    -36.0026143608021    0.735903926648395    -36.0026143608021    0.592348291856934    46.9099476077169     
2.72036154209452     0.594913432141148    46.7602310342624     0.73404879050526     -36.186176897814     0.73404879050526     -36.186176897814     0.594913432141148    46.7602310342624     
2.73920194632439     0.597477670772303    46.6099723331241     0.732182902586506    -36.3701025589795    0.732182902586506    -36.3701025589795    0.597477670772303    46.6099723331241     
2.75817283351619     0.60004084856769     46.4591793717264     0.73030630877924     -36.5543844615929    0.73030630877924     -36.5543844615929    0.60004084856769     46.4591793717264     
2.7772751073556      0.602602805960424    46.3078600832283     0.728419056991254    -36.7390156519847    0.728419056991254    -36.7390156519847    0.602602805960424    46.3078600832283     
2.79650967778694     0.605163383041123    46.1560224654379     0.726521197154168    -36.9239891066226    0.726521197154168    -36.9239891066226    0.605163383041123    46.1560224654379     
2.81587746105654     0.607722419600007    46.0036745796951     0.724612781225646    -37.1092977332451    0.724612781225646    -37.1092977332451    0.607722419600007    46.0036745796951     
2.83537937975637     0.61027975516946     45.8508245497191     0.722693863190794    -37.2949343720298    0.722693863190794    -37.2949343720298    0.61027975516946     45.8508245497191     
2.855016362868       0.612835229066992    45.6974805604238     0.720764499062594    -37.4808917967939    0.720764499062594    -37.4808917967939    0.612835229066992    45.6974805604238     
2.87478934580684     0.615388680438554    45.5436508567031     0.718824746881509    -37.6671627162257    0.718824746881509    -37.6671627162257    0.615388680438554    45.5436508567031     
2.89469927046672     0.617939948302227    45.3893437421832     0.716874666714139    -37.8537397751483    0.716874666714139    -37.8537397751483    0.617939948302227    45.3893437421832     
2.91474708526471     0.620488871592265    45.2345675779416     0.714914320650941    -38.0406155558176    0.714914320650941    -38.0406155558176    0.620488871592265    45.2345675779416     
2.93493374518637     0.623035289203358    45.0793307812019     0.712943772803073    -38.2277825792436    0.712943772803073    -38.2277825792436    0.623035289203358    45.0793307812019     
2.95526021183117     0.625579040035302    44.9236418239879     0.710963089298274    -38.4152333065532    0.710963089298274    -38.4152333065532    0.625579040035302    44.9236418239879     
2.97572745345835     0.628119963037785    44.7675092317605     0.708972338275806    -38.6029601403712    0.708972338275806    -38.6029601403712    0.628119963037785    44.7675092317605     
2.99633644503302     0.630657897255507    44.6109415820136     0.706971589880476    -38.7909554262398    0.706971589880476    -38.7909554262398    0.630657897255507    44.6109415820136     
3.01708816827258     0.633192681873442    44.4539475028483     0.704960916255678    -38.9792114540627    0.704960916255678    -38.9792114540627    0.633192681873442    44.4539475028483     
3.03798361169355     0.635724156262272    44.2965356715181     0.702940391535538    -39.1677204595764    0.702940391535538    -39.1677204595764    0.635724156262272    44.2965356715181     
3.05902377065857     0.638252160023989    44.1387148129437     0.70091009183603     -39.3564746258535    0.70091009183603     -39.3564746258535    0.638252160023989    44.1387148129437     
3.08020964742391     0.640776533037606    43.9804936982027     0.698870095245214    -39.5454660848293    0.698870095245214    -39.5454660848293    0.640776533037606    43.9804936982027     
3.10154225118713     0.643297115504911    43.8218811429957     0.69682048181247     -39.7346869188546    0.69682048181247     -39.7346869188546    0.643297115504911    43.8218811429957     
3.1230225981352      0.645813747996352    43.6628860060802     0.694761333536811    -39.9241291622777    0.694761333536811    -39.9241291622777    0.645813747996352    43.6628860060802     
3.1446517114929      0.64832627149688     43.5035171876872     0.692692734354188    -40.1137848030469    0.692692734354188    -40.1137848030469    0.64832627149688     43.5035171876872     
3.16643062157154     0.650834527451833    43.3437836279077     0.690614770123929    -40.3036457843405    0.690614770123929    -40.3036457843405    0.650834527451833    43.3437836279077     
3.18836036581807     0.653338357812778    43.1836943050594     0.688527528614124    -40.4937040062191    0.688527528614124    -40.4937040062191    0.653338357812778    43.1836943050594     
3.21044198886449     0.655837605083283    43.023258234029      0.686431099486159    -40.6839513272999    0.686431099486159    -40.6839513272999    0.655837605083283    43.023258234029      
3.23267654257759     0.658332112364606    42.8624844645936     0.684325574278238    -40.874379566454     0.684325574278238    -40.874379566454     0.658332112364606    42.8624844645936     
3.25506508610907     0.660821723401262    42.7013820797208     0.682211046387992    -41.0649805045238    0.682211046387992    -41.0649805045238    0.660821723401262    42.7013820797208     
3.27760868594603     0.663306282626462    42.539960193847      0.680087611054171    -41.2557458860633    0.680087611054171    -41.2557458860633    0.663306282626462    42.539960193847      
3.3003084159617      0.665785635207314    42.3782279511408     0.677955365337396    -41.4466674210917    0.677955365337396    -41.4466674210917    0.665785635207314    42.3782279511408     
3.32316535746664     0.668259627089862    42.2161945237436     0.67581440809997     -41.6377367868719    0.67581440809997     -41.6377367868719    0.668259627089862    42.2161945237436     
3.34618059926026     0.670728105043899    42.0538691099935     0.673664839984832    -41.8289456297044    0.673664839984832    -41.8289456297044    0.670728105043899    42.0538691099935     
3.36935523768264     0.673190916707441    41.8912609326347     0.671506763393578    -42.0202855667354    0.671506763393578    -42.0202855667354    0.673190916707441    41.8912609326347     
3.39269037666681     0.675647910630983    41.7283792370087     0.669340282463577    -42.211748187785     0.669340282463577    -42.211748187785     0.675647910630983    41.7283792370087     
3.41618712779128     0.678098936321359    41.5652332892331     0.667165503044244    -42.4033250571854    0.667165503044244    -42.4033250571854    0.678098936321359    41.5652332892331     
3.43984661033304     0.680543844285288    41.4018323743642     0.664982532672433    -42.5950077156377    0.664982532672433    -42.5950077156377    0.680543844285288    41.4018323743642     
3.46366995132084     0.682982486072505    41.2381857945488     0.662791480546975    -42.786787682077     0.662791480546975    -42.786787682077     0.682982486072505    41.2381857945488     
3.4876582855889      0.685414714318512    41.0743028671622     0.660592457502343    -42.9786564555543    0.660592457502343    -42.9786564555543    0.685414714318512    41.0743028671622     
3.51181275583095     0.687840382786821    40.9101929229382     0.65838557598158     -43.1706055171229    0.65838557598158     -43.1706055171229    0.687840382786821    40.9101929229382     
3.53613451265468     0.690259346410804    40.7458653040859     0.656170950008295    -43.3626263317419    0.656170950008295    -43.3626263317419    0.690259346410804    40.7458653040859     
3.56062471463655     0.69267146133496     40.5813293624016     0.653948695157963    -43.554710350181     0.653948695157963    -43.554710350181     0.69267146133496     40.5813293624016     
3.58528452837695     0.69507658495575     40.4165944573671     0.6517189285284      -43.7468490109412    0.6517189285284      -43.7468490109412    0.69507658495575     40.4165944573671     
3.61011512855582     0.697474575961764    40.2516699542494     0.649481768709477    -43.9390337421738    0.649481768709477    -43.9390337421738    0.697474575961764    40.2516699542494     
3.63511769798855     0.699865294373401    40.0865652221871     0.647237335752113    -44.1312559636115    0.647237335752113    -44.1312559636115    0.699865294373401    40.0865652221871     
3.66029342768237     0.702248601581901    39.9212896322761     0.644985751136512    -44.3235070885011    0.644985751136512    -44.3235070885011    0.702248601581901    39.9212896322761     
3.68564351689307     0.704624360387753    39.7558525556506     0.642727137739714    -44.515778525542     0.642727137739714    -44.515778525542     0.704624360387753    39.7558525556506     
3.71116917318213     0.706992435038425    39.590263361563      0.640461619802473    -44.7080616808229    0.640461619802473    -44.7080616808229    0.706992435038425    39.590263361563      
3.7368716124742      0.709352691265439    39.4245314154604     0.638189322895437    -44.9003479597645    0.638189322895437    -44.9003479597645    0.709352691265439    39.4245314154604     
3.7627520591151      0.711704996320741    39.2586660770608     0.635910373884712    -45.0926287690617    0.635910373884712    -45.0926287690617    0.711704996320741    39.2586660770608     
3.78881174593007     0.714049219012305    39.0926766984326     0.633624900896782    -45.284895518622     0.633624900896782    -45.284895518622     0.714049219012305    39.0926766984326     
3.81505191428256     0.716385229739036    38.926572622072      0.631333033282867    -45.4771396235063    0.631333033282867    -45.4771396235063    0.716385229739036    38.926572622072      
3.8414738141333      0.718712900524865    38.7603631789854     0.629034901582658    -45.6693525058647    0.629034901582658    -45.6693525058647    0.718712900524865    38.7603631789854     
3.86807870409987     0.721032105052056    38.5940576867767     0.626730637487535    -45.8615255968679    0.626730637487535    -45.8615255968679    0.721032105052056    38.5940576867767     
3.89486785151668     0.723342718693714    38.4276654477361     0.624420373803236    -46.0536503386357    0.624420373803236    -46.0536503386357    0.723342718693714    38.4276654477361     
3.92184253249529     0.725644618545432    38.2611957469393     0.622104244412049    -46.2457181861569    0.622104244412049    -46.2457181861569    0.725644618545432    38.2611957469393     
3.94900403198525     0.727937683456129    38.0946578503478     0.619782384234486    -46.4377206092058    0.619782384234486    -46.4377206092058    0.727937683456129    38.0946578503478     
3.97635364383525     0.730221794057967    37.9280610029236     0.617454929190518    -46.6296490942471    0.617454929190518    -46.6296490942471    0.730221794057967    37.9280610029236     
4.00389267085483     0.732496832795395    37.7614144267498     0.615122016160424    -46.8214951463317    0.615122016160424    -46.8214951463317    0.732496832795395    37.7614144267498     
4.03162242487636     0.734762683953338    37.594727319159      0.612783782945165    -47.0132502909879    0.612783782945165    -47.0132502909879    0.734762683953338    37.594727319159      
4.05954422681758     0.737019233684386    37.428008850878      0.610440368226436    -47.2049060760928    0.610440368226436    -47.2049060760928    0.737019233684386    37.428008850878      
4.0876594067445      0.739266370035113    37.2612681641802     0.60809191152634     -47.3964540737398    0.60809191152634     -47.3964540737398    0.739266370035113    37.2612681641802     
4.11596930393478     0.741503982971411    37.0945143710534     0.605738553166767    -47.5878858820867    0.605738553166767    -47.5878858820867    0.741503982971411    37.0945143710534     
4.1444752669415      0.743731964402902    36.9277565513799     0.603380434228454    -47.7791931271949    0.603380434228454    -47.7791931271949    0.743731964402902    36.9277565513799     
4.17317865365743     0.745950208206322    36.7610037511338     0.601017696509776    -47.9703674648489    0.601017696509776    -47.9703674648489    0.745950208206322    36.7610037511338     
4.20208083137966     0.74815861024798     36.5942649805922     0.598650482485321    -48.1614005823631    0.598650482485321    -48.1614005823631    0.74815861024798     36.5942649805922     
4.23118317687482     0.750357068405185    36.4275492125644     0.596278935264215    -48.3522842003702    0.596278935264215    -48.3522842003702    0.750357068405185    36.4275492125644     
4.26048707644456     0.752545482586691    36.2608653806379     0.593903198548311    -48.5430100745925    0.593903198548311    -48.5430100745925    0.752545482586691    36.2608653806379     
4.28999392599168     0.75472375475213     36.094222377444      0.591523416590146    -48.7335699975946    0.591523416590146    -48.7335699975946    0.75472375475213     36.094222377444      
4.31970513108655     0.756891788930402    35.927629052943      0.589139734150864    -48.9239558005142    0.589139734150864    -48.9239558005142    0.756891788930402    35.927629052943      
4.3496221070341      0.759049491237082    35.7610942127292     0.586752296457939    -49.1141593547761    0.586752296457939    -49.1141593547761    0.759049491237082    35.7610942127292     
4.37974627894126     0.761196769890778    35.5946266163561     0.584361249162893    -49.3041725737832    0.584361249162893    -49.3041725737832    0.761196769890778    35.5946266163561     
4.41007908178481     0.763333535228442    35.4282349756864     0.581966738298925    -49.4939874145838    0.581966738298925    -49.4939874145838    0.763333535228442    35.4282349756864     
4.44062196047972     0.765459699719664    35.2619279532624     0.579568910238555    -49.6835958795188    0.579568910238555    -49.6835958795188    0.765459699719664    35.2619279532624     
4.47137636994805     0.767575177979931    35.095714160701      0.577167911651215    -49.8729900178438    0.577167911651215    -49.8729900178438    0.767575177979931    35.095714160701      
4.50234377518818     0.769679886782816    34.9296021571125     0.574763889460964    -50.0621619273267    0.574763889460964    -50.0621619273267    0.769679886782816    34.9296021571125     
4.53352565134463     0.771773745071149    34.763600447546      0.572356990804165    -50.2511037558195    0.572356990804165    -50.2511037558195    0.771773745071149    34.763600447546      
4.56492348377834     0.773856673967149    34.597717481458      0.569947362987332    -50.4398077028068    0.569947362987332    -50.4398077028068    0.773856673967149    34.597717481458      
4.59653876813741     0.775928596781505    34.4319616512095     0.567535153445034    -50.6282660209256    0.567535153445034    -50.6282660209256    0.775928596781505    34.4319616512095     
4.62837301042835     0.777989439021418    34.2663412905896     0.565120509697955    -50.8164710174576    0.565120509697955    -50.8164710174576    0.777989439021418    34.2663412905896     
4.66042772708778     0.780039128397601    34.1008646733671     0.562703579311153    -51.0044150557948    0.562703579311153    -51.0044150557948    0.780039128397601    34.1008646733671     
4.69270444505477     0.782077594830288    33.935540011869      0.560284509852446    -51.1920905568776    0.560284509852446    -51.1920905568776    0.782077594830288    33.935540011869      
4.72520470184345     0.784104770454157    33.7703754555901     0.557863448851074    -51.3794900006012    0.557863448851074    -51.3794900006012    0.784104770454157    33.7703754555901     
4.75793004561634     0.786120589622268    33.6053790898311     0.555440543756564    -51.5666059271938    0.555440543756564    -51.5666059271938    0.786120589622268    33.6053790898311     
4.79088203525807     0.788124988908989    33.4405589343656     0.553015941897876    -51.7534309385668    0.553015941897876    -51.7534309385668    0.788124988908989    33.4405589343656     
4.82406224044961     0.790117907111892    33.2759229421392     0.550589790442838    -51.9399576996301    0.550589790442838    -51.9399576996301    0.790117907111892    33.2759229421392     
4.85747224174309     0.792099285252677    33.1114789979986     0.548162236357878    -52.1261789395807    0.548162236357878    -52.1261789395807    0.792099285252677    33.1114789979986     
4.89111363063706     0.794069066577066    32.9472349174529     0.545733426368121    -52.3120874531567    0.545733426368121    -52.3120874531567    0.794069066577066    32.9472349174529     
4.9249880096523      0.796027196553771    32.7831984454648     0.543303506917808    -52.4976761018615    0.543303506917808    -52.4976761018615    0.796027196553771    32.7831984454648     
4.9590969924082      0.797973622872423    32.6193772552777     0.540872624131125    -52.6829378151534    0.540872624131125    -52.6829378151534    0.797973622872423    32.6193772552777     
4.99344220369954     0.799908295440608    32.4557789472706     0.538440923773411    -52.8678655916052    0.538440923773411    -52.8678655916052    0.799908295440608    32.4557789472706     
5.02802527957399     0.801831166379919    32.2924110478489     0.536008551212795    -53.0524525000299    0.536008551212795    -53.0524525000299    0.801831166379919    32.2924110478489     
5.06284786740995     0.803742190021055    32.1292810083692     0.53357565138229     -53.236691680571     0.53357565138229     -53.236691680571     0.803742190021055    32.1292810083692     
5.0979116259951      0.805641322898045    31.9663962040942     0.531142368742318    -53.4205763457628    0.531142368742318    -53.4205763457628    0.805641322898045    31.9663962040942     
5.13321822560536     0.80752852374153     31.8037639331838     0.528708847243741    -53.6040997815545    0.528708847243741    -53.6040997815545    0.80752852374153     31.8037639331838     
5.1687693480845      0.809403753471146    31.6413914157198     0.526275230291381    -53.7872553483007    0.526275230291381    -53.7872553483007    0.809403753471146    31.6413914157198     
5.2045666869242      0.811266975187055    31.4792857927643     0.523841660708052    -53.970036481718     0.523841660708052    -53.970036481718     0.811266975187055    31.4792857927643     
5.24061194734479     0.813118154160575    31.3174541254529     0.521408280699143    -54.1524366938065    0.521408280699143    -54.1524366938065    0.813118154160575    31.3174541254529     
5.27690684637642     0.814957257824002    31.1559033941207     0.518975231817728    -54.3344495737389    0.518975231817728    -54.3344495737389    0.814957257824002    31.1559033941207     
5.31345311294088     0.816784255759563    30.9946404974651     0.516542654930265    -54.5160687887117    0.516542654930265    -54.5160687887117    0.816784255759563    30.9946404974651     
5.35025248793394     0.818599119687581    30.8336722517412     0.514110690182848    -54.697288084765     0.514110690182848    -54.697288084765     0.818599119687581    30.8336722517412     
5.38730672430832     0.82040182345381     30.6730053899952     0.511679476968097    -54.878101287563     0.511679476968097    -54.878101287563     0.82040182345381     30.6730053899952     
5.42461758715712     0.822192343016037    30.5126465613267     0.509249153892612    -55.0585023031458    0.509249153892612    -55.0585023031458    0.822192343016037    30.5126465613267     
5.46218685379798     0.823970656429881    30.3526023301915     0.506819858745078    -55.2384851186416    0.506819858745078    -55.2384851186416    0.823970656429881    30.3526023301915     
5.50001631385768     0.825736743833864    30.1928791757361     0.50439172846499     -55.4180438029452    0.50439172846499     -55.4180438029452    0.825736743833864    30.1928791757361     
5.53810776935744     0.827490587433756    30.0334834911681     0.501964899112053    -55.597172507362     0.501964899112053    -55.597172507362     0.827490587433756    30.0334834911681     
5.57646303479871     0.829232171486231    29.8744215831586     0.499539505836195    -55.7758654662191    0.499539505836195    -55.7758654662191    0.829232171486231    29.8744215831586     
5.61508393724965     0.830961482281802    29.7156996712842     0.497115682848285    -55.9541169974373    0.497115682848285    -55.9541169974373    0.830961482281802    29.7156996712842     
5.65397231643214     0.832678508127133    29.5573238874969     0.494693563391513    -56.1319215030737    0.494693563391513    -56.1319215030737    0.832678508127133    29.5573238874969     
5.6931300248094      0.834383239326666    29.399300275635      0.492273279713464    -56.3092734698256    0.492273279713464    -56.3092734698256    0.834383239326666    29.399300275635      
5.73255892767428     0.836075668163661    29.2416347909614     0.489854963038874    -56.4861674695037    0.489854963038874    -56.4861674695037    0.836075668163661    29.2416347909614     
5.77226090323807     0.837755788880597    29.0843332997417     0.487438743543106    -56.6625981594686    0.487438743543106    -56.6625981594686    0.837755788880597    29.0843332997417     
5.81223784271999     0.839423597659018    28.9274015788521     0.485024750326322    -56.8385602830348    0.485024750326322    -56.8385602830348    0.839423597659018    28.9274015788521     
5.85249165043728     0.841079092598789    28.7708453154224     0.482613111388377    -57.0140486698405    0.482613111388377    -57.0140486698405    0.841079092598789    28.7708453154224     
5.89302424389589     0.842722273696844    28.6146701065113     0.480203953604437    -57.1890582361853    0.480203953604437    -57.1890582361853    0.842722273696844    28.6146701065113     
5.93383755388186     0.844353142825371    28.4588814588167     0.477797402701308    -57.3635839853323    0.477797402701308    -57.3635839853323    0.844353142825371    28.4588814588167     
5.97493352455325     0.845971703709541    28.3034847884159     0.475393583234518    -57.5376210077797    0.475393583234518    -57.5376210077797    0.845971703709541    28.3034847884159     
6.01631411353279     0.847577961904724    28.1484854205398     0.472992618566104    -57.7111644814996    0.472992618566104    -57.7111644814996    0.847577961904724    28.1484854205398     
6.05798129200112     0.849171924773265    27.9938885893795     0.470594630843172    -57.8842096721423    0.470594630843172    -57.8842096721423    0.849171924773265    27.9938885893795     
6.09993704479065     0.850753601460824    27.839699437923      0.468199740977156    -58.0567519332123    0.468199740977156    -58.0567519332123    0.850753601460824    27.839699437923      
6.14218337048018     0.85232300287229     27.685923017825      0.465808068623852    -58.2287867062097    0.465808068623852    -58.2287867062097    0.85232300287229     27.685923017825      
6.18472228149005     0.853880141647317    27.5325642893069     0.463419732164161    -58.4003095207423    0.463419732164161    -58.4003095207423    0.853880141647317    27.5325642893069     
6.227555804178       0.855425032135465    27.3796281210871     0.461034848685606    -58.5713159946054    0.461034848685606    -58.5713159946054    0.855425032135465    27.3796281210871     
6.27068597893574     0.856957690371017    27.2271192903421     0.458653533964565    -58.7418018338333    0.458653533964565    -58.7418018338333    0.856957690371017    27.2271192903421     
6.3141148602861      0.858478134047442    27.0750424826968     0.456275902449252    -58.9117628327192    0.456275902449252    -58.9117628327192    0.858478134047442    27.0750424826968     
6.35784451698092     0.85998638249155     26.9234022922453     0.453902067243456    -59.0811948738052    0.453902067243456    -59.0811948738052    0.85998638249155     26.9234022922453     
6.40187703209961     0.861482456637379    26.772203221599      0.451532140090971    -59.2500939278452    0.451532140090971    -59.2500939278452    0.861482456637379    26.772203221599      
6.44621450314833     0.862966378999784    26.6214496819642     0.449166231360817    -59.4184560537374    0.449166231360817    -59.4184560537374    0.862966378999784    26.6214496819642     
6.49085904215995     0.86443817364779     26.4711459932477     0.446804450033147    -59.5862773984291    0.446804450033147    -59.5862773984291    0.86443817364779     26.4711459932477     
6.53581277579464     0.865897866177718    26.3212963841899     0.444446903685908    -59.7535541967946    0.444446903685908    -59.7535541967946    0.865897866177718    26.3212963841899     
6.58107784544119     0.867345483686097    26.1719049925239     0.442093698482221    -59.9202827714839    0.442093698482221    -59.9202827714839    0.867345483686097    26.1719049925239     
6.62665640731898     0.868781054742392    26.0229758651629     0.439744939158462    -60.0864595327476    0.439744939158462    -60.0864595327476    0.868781054742392    26.0229758651629     
6.67255063258075     0.870204609361549    25.8745129584123     0.437400729013097    -60.2520809782322    0.437400729013097    -60.2520809782322    0.870204609361549    25.8745129584123     
6.71876270741595     0.871616178976399    25.726520138208      0.435061169896176    -60.4171436927527    0.435061169896176    -60.4171436927527    0.871616178976399    25.726520138208      
6.76529483315495     0.873015796409932    25.579001180379      0.432726362199578    -60.5816443480381    0.432726362199578    -60.5816443480381    0.873015796409932    25.579001180379      
6.81214922637385     0.874403495847441    25.4319597709355     0.430396404847914    -60.7455797024528    0.430396404847914    -60.7455797024528    0.874403495847441    25.4319597709355     
6.8593281190001      0.875779312808592    25.2853995063799     0.428071395290144    -60.9089466006946    0.428071395290144    -60.9089466006946    0.875779312808592    25.2853995063799     
6.9068337584188      0.877143284119399    25.1393238940418     0.425751429491864    -61.0717419734674    0.425751429491864    -61.0717419734674    0.877143284119399    25.1393238940418     
6.95466840757978     0.878495447884135    24.9937363524363     0.423436601928276    -61.233962837132     0.423436601928276    -61.233962837132     0.878495447884135    24.9937363524363     
7.00283434510535     0.879835843457221    24.8486402116429     0.421127005577826    -61.3956062933353    0.421127005577826    -61.3956062933353    0.879835843457221    24.8486402116429     
7.05133386539889     0.881164511415066    24.7040387137084     0.418822731916491    -61.5566695286151    0.418822731916491    -61.5566695286151    0.881164511415066    24.7040387137084     
7.10016927875412     0.882481493527908    24.5599350130694     0.41652387091272     -61.7171498139849    0.41652387091272     -61.7171498139849    0.882481493527908    24.5599350130694     
7.14934291146517     0.883786832731667    24.4163321769954     0.414230511023032    -61.8770445044995    0.414230511023032    -61.8770445044995    0.883786832731667    24.4163321769954     
7.19885710593736     0.885080573099795    24.273233186054      0.411942739188215    -62.0363510387958    0.411942739188215    -62.0363510387958    0.885080573099795    24.273233186054      
7.24871422079882     0.886362759815196    24.1306409345924     0.409660640830192    -62.1950669386193    0.409660640830192    -62.1950669386193    0.886362759815196    24.1306409345924     
7.29891663101283     0.887633439142176    23.9885582312409     0.407384299849448    -62.3531898083268    0.407384299849448    -62.3531898083268    0.887633439142176    23.9885582312409     
7.34946672799093     0.888892658398466    23.8469877994323     0.405113798623103    -62.5107173343737    0.405113798623103    -62.5107173343737    0.888892658398466    23.8469877994323     
7.40036691970689     0.890140465927326    23.7059322779415     0.402849218003563    -62.6676472847815    0.402849218003563    -62.6676472847815    0.890140465927326    23.7059322779415     
7.45161963081133     0.891376911069757    23.5653942214394     0.400590637317743    -62.8239775085887    0.400590637317743    -62.8239775085887    0.891376911069757    23.5653942214394     
7.50322730274732     0.892602044136788    23.4253761010671     0.398338134366882    -62.9797059352834    0.398338134366882    -62.9797059352834    0.892602044136788    23.4253761010671     
7.55519239386661     0.893815916381926    23.2858803050233     0.396091785426904    -63.1348305742219    0.396091785426904    -63.1348305742219    0.893815916381926    23.2858803050233     
7.60751737954673     0.895018579973709    23.146909139168      0.393851665249335    -63.2893495140287    0.393851665249335    -63.2893495140287    0.895018579973709    23.146909139168      
7.66020475230897     0.896210087968423    23.0084648276422     0.391617847062763    -63.4432609219836    0.391617847062763    -63.4432609219836    0.896210087968423    23.0084648276422     
7.71325702193705     0.897390494282977    22.8705495135006     0.389390402574812    -63.5965630433939    0.389390402574812    -63.5965630433939    0.897390494282977    22.8705495135006     
7.76667671559669     0.898559853667934    22.733165259359      0.38716940197465     -63.7492542009498    0.38716940197465     -63.7492542009498    0.898559853667934    22.733165259359      
7.82046637795601     0.899718221680734    22.596314048056      0.384954913935994    -63.9013327940692    0.384954913935994    -63.9013327940692    0.899718221680734    22.596314048056      
7.87462857130672     0.900865654659114    22.4599977833248     0.382747005620602    -64.0527972982284    0.382747005620602    -64.0527972982284    0.900865654659114    22.4599977833248     
7.92916587568622     0.90200220969472     22.3242182904799     0.380545742682262    -64.2036462642802    0.380545742682262    -64.2036462642802    0.90200220969472     22.3242182904799     
7.98408088900043     0.903127944606933    22.1889773171142     0.37835118927123     -64.3538783177597    0.37835118927123     -64.3538783177597    0.903127944606933    22.1889773171142     
8.03937622714762     0.904242917916924    22.0542765338075     0.376163408039145    -64.5034921581793    0.376163408039145    -64.5034921581793    0.904242917916924    22.0542765338075     
8.09505452414296     0.905347188821927    21.920117534845      0.373982460144386    -64.6524865583131    0.373982460144386    -64.6524865583131    0.905347188821927    21.920117534845      
8.15111843224403     0.906440817169759    21.7865018389485     0.37180840525785     -64.8008603634681    0.37180840525785     -64.8008603634681    0.906440817169759    21.7865018389485     
8.20757062207714     0.907523863433595    21.6534308900134     0.369641301569174    -64.94861249075      0.369641301569174    -64.94861249075      0.907523863433595    21.6534308900134     
8.26441378276454     0.908596388686978    21.5209060578573     0.367481205793338    -65.0957419283164    0.367481205793338    -65.0957419283164    0.908596388686978    21.5209060578573     
8.32165062205256     0.909658454579114    21.388928638977      0.365328173177711    -65.2422477346215    0.365328173177711    -65.2422477346215    0.909658454579114    21.388928638977      
8.37928386644054     0.91071012331042     21.2574998573126     0.363182257509426    -65.3881290376534    0.363182257509426    -65.3881290376534    0.91071012331042     21.2574998573126     
8.43731626131074     0.911751457608359    21.1266208650201     0.361043511123184    -65.5333850341627    0.361043511123184    -65.5333850341627    0.911751457608359    21.1266208650201     
8.49575057105912     0.912782520703558    20.9962927432509     0.358911984909384    -65.6780149888838    0.358911984909384    -65.6780149888838    0.912782520703558    20.9962927432509     
8.554589579227       0.913803376306208    20.8665165029371     0.356787728322618    -65.8220182337498    0.356787728322618    -65.8220182337498    0.913803376306208    20.8665165029371     
8.61383608863367     0.914814088582762    20.7372930855845     0.354670789390508    -65.9653941671       0.354670789390508    -65.9653941671       0.914814088582762    20.7372930855845     
8.67349292150991     0.91581472213294     20.60862336407       0.35256121472286     -66.1081422528813    0.35256121472286     -66.1081422528813    0.91581472213294     20.60862336407       
8.7335629196324      0.91680534196703     20.4805081434447     0.350459049521149    -66.2502620198463    0.350459049521149    -66.2502620198463    0.91680534196703     20.4805081434447     
8.79404894445915     0.917786013483504    20.3529481617419     0.348364337588279    -66.3917530607428    0.348364337588279    -66.3917530607428    0.917786013483504    20.3529481617419     
8.85495387726572     0.918756802446945    20.2259440907893     0.346277121338677    -66.5326150315002    0.346277121338677    -66.5326150315002    0.918756802446945    20.2259440907893     
8.91628061928254     0.919717774966291    20.0994965370255     0.344197441808637    -66.6728476504128    0.344197441808637    -66.6728476504128    0.919717774966291    20.0994965370255     
8.97803209183309     0.920668997473411    19.9736060423186     0.342125338666937    -66.8124506973176    0.342125338666937    -66.8124506973176    0.920668997473411    19.9736060423186     
9.04021123647304     0.921610536701986    19.8482730847906     0.340060850225731    -66.9514240127683    0.340060850225731    -66.9514240127683    0.921610536701986    19.8482730847906     
9.1028210151304      0.922542459666741    19.7234980796409     0.338004013451674    -67.0897674972085    0.338004013451674    -67.0897674972085    0.922542459666741    19.7234980796409     
9.16586441024661     0.923464833642987    19.5992813799756     0.335954863977284    -67.2274811101396    0.335954863977284    -67.2274811101396    0.923464833642987    19.5992813799756     
9.22934442491857     0.924377726146509    19.4756232776359     0.333913436112541    -67.3645648692886    0.333913436112541    -67.3645648692886    0.924377726146509    19.4756232776359     
9.29326408304175     0.925281204913786    19.3525240040301     0.331879762856687    -67.5010188497717    0.331879762856687    -67.5010188497717    0.925281204913786    19.3525240040301     
9.3576264294542      0.926175337882539    19.2299837309651     0.329853875910245    -67.6368431832589    0.329853875910245    -67.6368431832589    0.926175337882539    19.2299837309651     
9.42243453008162     0.927060193172634    19.1080025714796     0.32783580568722     -67.7720380571353    0.32783580568722     -67.7720380571353    0.927060193172634    19.1080025714796     
9.48769147208335     0.92793583906731     18.9865805806775     0.325825581327481    -67.9066037136629    0.325825581327481    -67.9066037136629    0.92793583906731     18.9865805806775     
9.55340036399949     0.92880234399475     18.8657177565614     0.323823230709345    -68.040540449141     0.323823230709345    -68.040540449141     0.92880234399475     18.8657177565614     
9.61956433589894     0.929659776510003    18.7454140408653     0.321828780462282    -68.173848613067     0.321828780462282    -68.173848613067     0.929659776510003    18.7454140408653     
9.68618653952855     0.930508205277233    18.6256693198878     0.319842255979807    -68.3065286072973    0.319842255979807    -68.3065286072973    0.930508205277233    18.6256693198878     
9.75327014846315     0.931347699052324    18.5064834253231     0.317863681432504    -68.4385808852078    0.317863681432504    -68.4385808852078    0.931347699052324    18.5064834253231     
9.82081835825686     0.932178326665807    18.387856135092      0.31589307978119     -68.5700059508566    0.31589307978119     -68.5700059508566    0.932178326665807    18.387856135092      
9.88883438659521     0.933000157006159    18.26978717417       0.313930472790191    -68.7008043581466    0.313930472790191    -68.7008043581466    0.933000157006159    18.26978717417       
9.95732147344846     0.933813259003418    18.1522762154149     0.311975881040752    -68.8309767099902    0.311975881040752    -68.8309767099902    0.933813259003418    18.1522762154149     
10.0262828812259     0.934617701613141    18.0353228803914     0.310029323944548    -68.9605236574745    0.310029323944548    -68.9605236574745    0.934617701613141    18.0353228803914     
10.0957218949314     0.935413553800714    17.9189267401935     0.308090819757287    -69.0894458990298    0.308090819757287    -69.0894458990298    0.935413553800714    17.9189267401935     
10.1656418223196     0.936200884525995    17.8030873162648     0.306160385592412    -69.2177441795988    0.306160385592412    -69.2177441795988    0.936200884525995    17.8030873162648     
10.2360459940537     0.936979762728288    17.6878040812144     0.304238037434881    -69.3454192898103    0.304238037434881    -69.3454192898103    0.936979762728288    17.6878040812144     
10.3069377638642     0.937750257311662    17.5730764596315     0.302323790155022    -69.4724720651523    0.302323790155022    -69.4724720651523    0.937750257311662    17.5730764596315     
10.3783205087084     0.9385124371306      17.4589038288953     0.300417657522449    -69.598903385151     0.300417657522449    -69.598903385151     0.9385124371306      17.4589038288953     
10.4501976289314     0.939266370975979    17.3452855199816     0.298519652220047    -69.7247141725509    0.298519652220047    -69.7247141725509    0.939266370975979    17.3452855199816     
10.5225725484281     0.940012127561389    17.2322208182656     0.296629785857983    -69.8499053924997    0.296629785857983    -69.8499053924997    0.940012127561389    17.2322208182656     
10.5954487148063     0.940749775509771    17.1197089643201     0.294748068987794    -69.9744780517358    0.294748068987794    -69.9744780517358    0.940749775509771    17.1197089643201     
10.6688295995508     0.941479383340383    17.0077491547104     0.292874511116476    -70.0984331977788    0.292874511116476    -70.0984331977788    0.941479383340383    17.0077491547104     
10.7427186981889     0.942201019456095    16.8963405427835     0.291009120720623    -70.2217719181259    0.291009120720623    -70.2217719181259    0.942201019456095    16.8963405427835     
10.8171195304568     0.942914752131008    16.7854822394534     0.289151905260578    -70.34449533945      0.289151905260578    -70.34449533945      0.942914752131008    16.7854822394534     
10.8920356404676     0.943620649498376    16.6751733139815     0.2873028711946      -70.4666046268041    0.2873028711946      -70.4666046268041    0.943620649498376    16.6751733139815     
10.9674705968795     0.944318779538864    16.5654127947509     0.285462023993038    -70.5881009828291    0.285462023993038    -70.5881009828291    0.944318779538864    16.5654127947509     
11.0434279930664     0.945009210069107    16.4561996700366     0.283629368152506    -70.7089856469655    0.283629368152506    -70.7089856469655    0.945009210069107    16.4561996700366     
11.1199114472886     0.945692008730579    16.3475328887704     0.281804907210055    -70.8292598946715    0.281804907210055    -70.8292598946715    0.945692008730579    16.3475328887704     
11.1969246028657     0.946367242978785    16.2394113612983     0.27998864375733     -70.9489250366446    0.27998864375733     -70.9489250366446    0.946367242978785    16.2394113612983     
11.2744711283496     0.94703498007273     16.1318339601348     0.278180579454708    -71.0679824180488    0.278180579454708    -71.0679824180488    0.94703498007273     16.1318339601348     
11.3525547176995     0.947695287064714    16.0247995207092     0.276380715045428    -71.1864334177464    0.276380715045428    -71.1864334177464    0.947695287064714    16.0247995207092     
11.4311790904578     0.94834823079041     15.9183068421076     0.274589050369671    -71.3042794475356    0.274589050369671    -71.3042794475356    0.94834823079041     15.9183068421076     
11.5103479919276     0.948993877859245    15.8123546878071     0.272805584378624    -71.4215219513929    0.272805584378624    -71.4215219513929    0.948993877859245    15.8123546878071     
11.5900651933505     0.949632294645062    15.7069417864043     0.271030315148494    -71.5381624047222    0.271030315148494    -71.5381624047222    0.949632294645062    15.7069417864043     
11.6703344920869     0.950263547277074    15.6020668323391     0.269263239894483    -71.6542023136066    0.269263239894483    -71.6542023136066    0.950263547277074    15.6020668323391     
11.7511597117962     0.950887701631108    15.4977284866086     0.26750435498472     -71.7696432140698    0.26750435498472     -71.7696432140698    0.950887701631108    15.4977284866086     
11.8325447026197     0.951504823321114    15.3939253774777     0.265753655954125    -71.8844866713396    0.265753655954125    -71.8844866713396    0.951504823321114    15.3939253774777     
11.9144933413634     0.952114977690963    15.290656101181      0.264011137518225    -71.9987342791194    0.264011137518225    -71.9987342791194    0.952114977690963    15.290656101181      
11.9970095316829     0.952718229806512    15.1879192226186     0.262276793586915    -72.112387658865     0.262276793586915    -72.112387658865     0.952718229806512    15.1879192226186     
12.0800972042694     0.953314644447932    15.0857132760452     0.260550617278134    -72.2254484590664    0.260550617278134    -72.2254484590664    0.953314644447932    15.0857132760452     
12.1637603170369     0.95390428610231     14.9840367657517     0.258832600931485    -72.3379183545372    0.258832600931485    -72.3379183545372    0.95390428610231     14.9840367657517     
12.2480028553106     0.954487218956512    14.8828881667398     0.257122736121779    -72.4497990457094    0.257122736121779    -72.4497990457094    0.954487218956512    14.8828881667398     
12.332828832017      0.955063506890286    14.7822659253906     0.255421013672495    -72.5610922579326    0.255421013672495    -72.5610922579326    0.955063506890286    14.7822659253906     
12.4182422878748     0.955633213469638    14.6821684601245     0.253727423669164    -72.6717997407826    0.253727423669164    -72.6717997407826    0.955633213469638    14.6821684601245     
12.5042472915876     0.956196401940444    14.5825941620543     0.252041955472666    -72.7819232673732    0.252041955472666    -72.7819232673732    0.956196401940444    14.5825941620543     
12.5908479400375     0.956753135222312    14.483541395632      0.250364597732438    -72.891464633676     0.250364597732438    -72.891464633676     0.956753135222312    14.483541395632      
12.6780483584806     0.957303475902682    14.3850084992869     0.248695338399597    -73.0004256578452    0.248695338399597    -73.0004256578452    0.957303475902682    14.3850084992869     
12.765852700743      0.957847486231158    14.2869937860575     0.247034164739959    -73.1088081795493    0.247034164739959    -73.1088081795493    0.957847486231158    14.2869937860575     
12.8542651494191     0.958385228114087    14.189495544215      0.245381063346963    -73.2166140593089    0.245381063346963    -73.2166140593089    0.958385228114087    14.189495544215      
12.9432899160707     0.958916763109348    14.0925120378799     0.243736020154508    -73.3238451778407    0.243736020154508    -73.3238451778407    0.958916763109348    14.0925120378799     
13.0329312414276     0.959442152421377    13.996041507631      0.24209902044967     -73.4305034354076    0.24209902044967     -73.4305034354076    0.959442152421377    13.996041507631      
13.1231933955895     0.959961456896411    13.900082171107      0.240470048885321    -73.5365907511751    0.240470048885321    -73.5365907511751    0.959961456896411    13.900082171107      
13.2140806782296     0.960474737017938    13.8046322236003     0.238849089492649    -73.642109062574     0.238849089492649    -73.642109062574     0.960474737017938    13.8046322236003     
13.3055974187994     0.960982052902376    13.709689838644      0.237236125693553    -73.7470603246687    0.237236125693553    -73.7470603246687    0.960982052902376    13.709689838644      
13.3977479767348     0.961483464294944    13.6152531685899     0.235631140312943    -73.8514465095328    0.235631140312943    -73.8514465095328    0.961483464294944    13.6152531685899     
13.4905367416639     0.961979030565747    13.5213203451804     0.234034115590918    -73.9552696056297    0.234034115590918    -73.9552696056297    0.961979030565747    13.5213203451804     
13.583968133616      0.962468810706058    13.427889480112      0.232445033194821    -74.0585316172001    0.232445033194821    -74.0585316172001    0.962468810706058    13.427889480112      
13.6780466032321     0.96295286332479     13.3349586655916     0.230863874231202    -74.1612345636547    0.230863874231202    -74.1612345636547    0.96295286332479     13.3349586655916     
13.7727766319773     0.963431246645169    13.2425259748851     0.229290619257634    -74.2633804789739    0.229290619257634    -74.2633804789739    0.963431246645169    13.2425259748851     
13.8681627323536     0.963904018501592    13.1505894628584     0.227725248294428    -74.3649714111127    0.227725248294428    -74.3649714111127    0.963904018501592    13.1505894628584     
13.9642094481155     0.964371236336664    13.0591471665106     0.226167740836221    -74.4660094214122    0.226167740836221    -74.4660094214122    0.964371236336664    13.0591471665106     
14.060921354486      0.96483295719842     12.9681971055005     0.224618075863443    -74.5664965840157    0.224618075863443    -74.5664965840157    0.96483295719842     12.9681971055005     
14.1583030583749     0.965289237737723    12.8777372826642     0.223076231853649    -74.6664349852928    0.223076231853649    -74.6664349852928    0.965289237737723    12.8777372826642     
14.2563591985978     0.965740134205832    12.7877656845268     0.221542186792753    -74.7658267232663    0.221542186792753    -74.7658267232663    0.965740134205832    12.7877656845268     
14.3550944460977     0.96618570245214     12.6982802818049     0.220015918186106    -74.8646739070479    0.220015918186106    -74.8646739070479    0.96618570245214     12.6982802818049     
14.4545135041668     0.966625997922071    12.6092790299035     0.21849740306947     -74.962978656277     0.21849740306947     -74.962978656277     0.966625997922071    12.6092790299035     
14.554621108671      0.967061075655152    12.520759869403      0.216986618019845    -75.0607431005664    0.216986618019845    -75.0607431005664    0.967061075655152    12.520759869403      
14.6554220282756     0.967490990283224    12.4327207265416     0.215483539166189    -75.1579693789527    0.215483539166189    -75.1579693789527    0.967490990283224    12.4327207265416     
14.7569210646718     0.967915796028818    12.3451595136885     0.213988142199995    -75.254659639352     0.213988142199995    -75.254659639352     0.967915796028818    12.3451595136885     
14.8591230528063     0.968335546703676    12.2580741298096     0.212500402385741    -75.3508160380225    0.212500402385741    -75.3508160380225    0.968335546703676    12.2580741298096     
14.9620328611109     0.968750295707425    12.171462460927      0.211020294571214    -75.4464407390292    0.211020294571214    -75.4464407390292    0.968750295707425    12.171462460927      
15.0656553917349     0.96916009602638     12.0853223805705     0.209547793197699    -75.541535913717     0.209547793197699    -75.541535913717     0.96916009602638     12.0853223805705     
15.1699955807781     0.969565000232496    11.9996517502222     0.208082872310047    -75.6361037401857    0.208082872310047    -75.6361037401857    0.969565000232496    11.9996517502222     
15.2750583985266     0.96996506048246     11.9144484197526     0.206625505566594    -75.7301464027725    0.206625505566594    -75.7301464027725    0.96996506048246     11.9144484197526     
15.3808488496891     0.970360328516899    11.8297102278524     0.205175666248977    -75.8236660915369    0.205175666248977    -75.8236660915369    0.970360328516899    11.8297102278524     
15.4873719736351     0.970750855659725    11.745435002454      0.203733327271785    -75.9166650017522    0.203733327271785    -75.9166650017522    0.970750855659725    11.745435002454      
15.5946328446357     0.971136692817616    11.6616205611478     0.202298461192113    -76.0091453334001    0.202298461192113    -76.0091453334001    0.971136692817616    11.6616205611478     
15.7026365721046     0.971517890479598    11.5782647115909     0.20087104021896     -76.1011092906706    0.20087104021896     -76.1011092906706    0.971517890479598    11.5782647115909     
15.8113883008419     0.971894498716755    11.4953652519089     0.199451036222507    -76.1925590814649    0.199451036222507    -76.1925590814649    0.971894498716755    11.4953652519089     
15.9208932112789     0.972266567182065    11.4129199710909     0.198038420743264    -76.2834969169041    0.198038420743264    -76.2834969169041    0.972266567182065    11.4129199710909     
16.031156519725      0.972634145110325    11.3309266493774     0.196633165001087    -76.3739250108405    0.196633165001087    -76.3739250108405    0.972634145110325    11.3309266493774     
16.1421834786164     0.972997281318207    11.2493830586413     0.195235239904058    -76.4638455793733    0.195235239904058    -76.4638455793733    0.972997281318207    11.2493830586413     
16.2539793767659     0.973356024204405    11.1682869627629     0.193844616057244    -76.5532608403677    0.193844616057244    -76.5532608403677    0.973356024204405    11.1682869627629     
16.3665495396151     0.97371042174989     11.0876361179968     0.192461263771325    -76.6421730129779    0.192461263771325    -76.6421730129779    0.97371042174989     11.0876361179968     
16.4798993294879     0.974060521518268    11.0074282733333     0.191085153071085    -76.7305843171735    0.191085153071085    -76.7305843171735    0.974060521518268    11.0074282733333     
16.5940341458462     0.974406370656225    10.9276611708534     0.189716253703783    -76.8184969732679    0.189716253703783    -76.8184969732679    0.974406370656225    10.9276611708534     
16.7089594255468     0.974748015894076    10.8483325460755     0.188354535147394    -76.9059132014522    0.188354535147394    -76.9059132014522    0.974748015894076    10.8483325460755     
16.8246806431006     0.975085503546402    10.769440128298      0.18699996661872     -76.992835221329     0.18699996661872     -76.992835221329     0.975085503546402    10.769440128298      
16.9412033109334     0.975418879512768    10.6909816409335     0.185652517081375    -77.0792652514516    0.185652517081375    -77.0792652514516    0.975418879512768    10.6909816409335     
17.0585329796481     0.975748189278533    10.6129548018381     0.184312155253648    -77.1652055088636    0.184312155253648    -77.1652055088636    0.975748189278533    10.6129548018381     
17.1766752382898     0.976073477915747    10.5353573236331     0.182978849616233    -77.2506582086424    0.182978849616233    -77.2506582086424    0.976073477915747    10.5353573236331     
17.2956357146114     0.976394790084114    10.4581869140218     0.181652568419831    -77.3356255634438    0.181652568419831    -77.3356255634438    0.976394790084114    10.4581869140218     
17.415420075342      0.976712170032045    10.3814412760986     0.18033327969265     -77.4201097830495    0.18033327969265     -77.4201097830495    0.976712170032045    10.3814412760986     
17.5360340264567     0.97702566159778     10.3051181086539     0.179020951247755    -77.504113073915     0.179020951247755    -77.504113073915     0.97702566159778     10.3051181086539     
17.6574833134484     0.977335308210579    10.2292151064712     0.177715550690308    -77.5876376387205    0.177715550690308    -77.5876376387205    0.977335308210579    10.2292151064712     
17.7797737216018     0.977641152891993    10.1537299606189     0.176417045424681    -77.6706856759227    0.176417045424681    -77.6706856759227    0.977641152891993    10.1537299606189     
17.9029110762685     0.977943238257191    10.0786603587367     0.175125402661462    -77.7532593793067    0.175125402661462    -77.7532593793067    0.977943238257191    10.0786603587367     
18.0269012431448     0.978241606516352    10.0040039853152     0.173840589424319    -77.8353609375404    0.173840589424319    -77.8353609375404    0.978241606516352    10.0040039853152     
18.1517501285511     0.978536299476134    9.92975852197068     0.172562572556762    -77.9169925337285    0.172562572556762    -77.9169925337285    0.978536299476134    9.92975852197068     
18.2774636797132     0.978827358541181    9.85592164771337     0.171291318728782    -77.9981563449672    0.171291318728782    -77.9981563449672    0.978827358541181    9.85592164771337     
18.4040478850455     0.979114824715707    9.78249103921013     0.170026794443365    -78.0788545418996    0.170026794443365    -78.0788545418996    0.979114824715707    9.78249103921013     
18.5315087744364     0.979398738605124    9.7094643710428      0.168768966042908    -78.1590892882697    0.168768966042908    -78.1590892882697    0.979398738605124    9.7094643710428      
18.6598524195354     0.979679140417728    9.63683931595861     0.167517799715495    -78.2388627404778    0.167517799715495    -78.2388627404778    0.979679140417728    9.63683931595861     
18.7890849340427     0.979956069966434    9.56461354511792     0.166273261501083    -78.3181770471341    0.166273261501083    -78.3181770471341    0.979956069966434    9.56461354511792     
18.9192124739998     0.980229566670563    9.49278472833451     0.165035317297554    -78.3970343486121    0.165035317297554    -78.3970343486121    0.980229566670563    9.49278472833451     
19.0502412380833     0.980499669557673    9.42135053431139     0.163803932866673    -78.4754367766002    0.163803932866673    -78.4754367766002    0.980499669557673    9.42135053431139     
19.1821774678999     0.980766417265435    9.35030863087169     0.162579073839922    -78.5533864536526    0.162579073839922    -78.5533864536526    0.980766417265435    9.35030863087169     
19.3150274482837     0.981029848043558    9.27965668518302     0.161360705724228    -78.6308854927385    0.161360705724228    -78.6308854927385    0.981029848043558    9.27965668518302     
19.4487975075959     0.98128999975575     9.20939236397854     0.160148793907584    -78.7079359967881    0.160148793907584    -78.7079359967881    0.98128999975575     9.20939236397854     
19.5834940180259     0.981546909881714    9.13951333377196     0.15894330366456     -78.7845400582381    0.15894330366456     -78.7845400582381    0.981546909881714    9.13951333377196     
19.7191233958948     0.981800615519195    9.07001726106711     0.157744200161706    -78.8606997585728    0.157744200161706    -78.8606997585728    0.981800615519195    9.07001726106711     
19.8556921019614     0.982051153386045    9.00090181256378     0.156551448462856    -78.9364171678635    0.156551448462856    -78.9364171678635    0.982051153386045    9.00090181256378     
19.9932066417298     0.982298559822342    8.93216465535763     0.155365013534313    -79.0116943443039    0.155365013534313    -79.0116943443039    0.982298559822342    8.93216465535763     
20.1316735657591     0.982542870792521    8.86380345713637     0.154184860249952    -79.0865333337417    0.154184860249952    -79.0865333337417    0.982542870792521    8.86380345713637     
20.2710994699757     0.982784121887555    8.79581588637007     0.153010953396202    -79.1609361692067    0.153010953396202    -79.1609361692067    0.982784121887555    8.79581588637007     
20.4114909959874     0.98302234832715     8.72819961249757     0.151843257676935    -79.2349048704342    0.151843257676935    -79.2349048704342    0.98302234832715     8.72819961249757     
20.5528548313998     0.983257584961968    8.66095230610841     0.150681737718252    -79.3084414433827    0.150681737718252    -79.3084414433827    0.983257584961968    8.66095230610841     
20.6951977101346     0.983489866275897    8.59407163911962     0.149526358073181    -79.3815478797483    0.149526358073181    -79.3815478797483    0.983489866275897    8.59407163911962     
20.838526412751      0.983719226388312    8.52755528494832     0.148377083226255    -79.4542261564712    0.148377083226255    -79.4542261564712    0.983719226388312    8.52755528494832     
20.9828477667681     0.983945699056385    8.46140091868042     0.14723387759802     -79.526478235238     0.14723387759802     -79.526478235238     0.983945699056385    8.46140091868042     
21.1281686469902     0.98416931767741     8.39560621723418     0.146096705549427    -79.5983060619757    0.146096705549427    -79.5983060619757    0.98416931767741     8.39560621723418     
21.2744959758348     0.984390115291136    8.33016885952012     0.144965531386144    -79.6697115663404    0.144965531386144    -79.6697115663404    0.984390115291136    8.33016885952012     
21.4218367236615     0.984608124582137    8.26508652659637     0.143840319362764    -79.740696661197     0.143840319362764    -79.740696661197     0.984608124582137    8.26508652659637     
21.570197909105      0.984823377882194    8.20035690182009     0.142721033686929    -79.8112632420919    0.142721033686929    -79.8112632420919    0.984823377882194    8.20035690182009     
21.7195865994086     0.985035907172676    8.13597767099442     0.14160763852336     -79.8814131867166    0.14160763852336     -79.8814131867166    0.985035907172676    8.13597767099442     
21.8700099107613     0.985245744086963    8.07194652251244     0.140500097997802    -79.9511483543624    0.140500097997802    -79.9511483543624    0.985245744086963    8.07194652251244     
22.0214750086368     0.985452919912865    8.0082611474957      0.139398376200867    -80.0204705853655    0.139398376200867    -80.0204705853655    0.985452919912865    8.0082611474957      
22.1739891081345     0.985657465595054    7.94491923992997     0.138302437191819    -80.0893817005418    0.138302437191819    -80.0893817005418    0.985657465595054    7.94491923992997     
22.3275594743234     0.985859411737518    7.88191849679662     0.137212245002229    -80.1578835006112    0.137212245002229    -80.1578835006112    0.985859411737518    7.88191849679662     
22.4821934225886     0.986058788606015    7.81925661820092     0.136127763639598    -80.2259777656096    0.136127763639598    -80.2259777656096    0.986058788606015    7.81925661820092     
22.6378983189787     0.986255626130538    7.75693130749513     0.135048957090844    -80.2936662542897    0.135048957090844    -80.2936662542897    0.986255626130538    7.75693130749513     
22.7946815805579     0.986449953907787    7.69494027140014     0.133975789325755    -80.3609507035086    0.133975789325755    -80.3609507035086    0.986449953907787    7.69494027140014     
22.9525506757585     0.986641801203659    7.63328122012096     0.132908224300315    -80.427832827602     0.132908224300315    -80.427832827602     0.986641801203659    7.63328122012096     
23.1115131247368     0.986831196955724    7.57195186746119     0.131846225959992    -80.494314317744     0.131846225959992    -80.494314317744     0.986831196955724    7.57195186746119     
23.2715764997317     0.987018169775724    7.51094993093205     0.130789758242915    -80.5603968412923    0.130789758242915    -80.5603968412923    0.987018169775724    7.51094993093205     
23.4327484254249     0.987202747952068    7.45027313185889     0.129738785082988    -80.6260820411169    0.129738785082988    -80.6260820411169    0.987202747952068    7.45027313185889     
23.5950365793046     0.987384959452325    7.38991919548428     0.128693270412932    -80.6913715349128    0.128693270412932    -80.6913715349128    0.987384959452325    7.38991919548428     
23.7584486920308     0.987564831925735    7.32988585106775     0.127653178167235    -80.7562669144952    0.127653178167235    -80.7562669144952    0.987564831925735    7.32988585106775     
23.9229925478036     0.987742392705701    7.27017083198188     0.126618472285041    -80.8207697450759    0.126618472285041    -80.8207697450759    0.987742392705701    7.27017083198188     
24.0886759847344     0.987917668812299    7.21077187580592     0.125589116712966    -80.8848815645205    0.125589116712966    -80.8848815645205    0.987917668812299    7.21077187580592     
24.255506895219      0.988090686954774    7.15168672441534     0.124565075407826    -80.9486038825853    0.124565075407826    -80.9486038825853    0.988090686954774    7.15168672441534     
24.4234932263132     0.988261473534047    7.09291312406934     0.123546312339322    -81.0119381801332    0.123546312339322    -81.0119381801332    0.988261473534047    7.09291312406934     
24.592642980112      0.988430054645211    7.03444882549425     0.122532791492623    -81.0748859083264    0.122532791492623    -81.0748859083264    0.988430054645211    7.03444882549425     
24.7629642141306     0.988596456080026    6.97629158396448     0.121524476870899    -81.1374484877961    0.121524476870899    -81.1374484877961    0.988596456080026    6.97629158396448     
24.9344650416877     0.988760703329416    6.91843915938106     0.120521332497795    -81.1996273077875    0.120521332497795    -81.1996273077875    0.988760703329416    6.91843915938106     
25.1071536322929     0.988922821585951    6.86088931634595     0.119523322419807    -81.2614237252783    0.119523322419807    -81.2614237252783    0.988922821585951    6.86088931634595     
25.2810382120351     0.989082835746341    6.80363982423446     0.118530410708622    -81.3228390640708    0.118530410708622    -81.3228390640708    0.989082835746341    6.80363982423446     
25.4561270639745     0.9892407704139      6.74668845726506     0.117542561463383    -81.3838746138541    0.117542561463383    -81.3838746138541    0.9892407704139      6.74668845726506     
25.6324285285375     0.989396649901036    6.69003299456558     0.116559738812886    -81.444531629238     0.116559738812886    -81.444531629238     0.989396649901036    6.69003299456558     
25.8099510039137     0.989550498231699    6.63367122023746     0.115581906917717    -81.504811328754     0.115581906917717    -81.504811328754     0.989550498231699    6.63367122023746     
25.988702946456      0.989702339143853    6.57760092341705     0.114609029972337    -81.5647148938235    0.114609029972337    -81.5647148938235    0.989702339143853    6.57760092341705     
26.1686928710835     0.989852196091917    6.52181989833413     0.113641072207083    -81.6242434676922    0.113641072207083    -81.6242434676922    0.989852196091917    6.52181989833413     
26.3499293516871     0.990000092249213    6.46632594436833     0.112677997890141    -81.6833981543274    0.112677997890141    -81.6833981543274    0.990000092249213    6.46632594436833     
26.5324210215377     0.990146050510397    6.41111686610282     0.111719771329434    -81.7421800172766    0.111719771329434    -81.7421800172766    0.990146050510397    6.41111686610282     
26.7161765736978     0.99029009349388     6.35619047337508     0.110766356874467    -81.8005900784876    0.110766356874467    -81.8005900784876    0.99029009349388     6.35619047337508     
26.9012047614355     0.990432243544243    6.30154458132631     0.109817718918104    -81.8586293170853    0.109817718918104    -81.8586293170853    0.990432243544243    6.30154458132631     
27.0875143986412     0.990572522734645    6.24717701044741     0.108873821898306    -81.9162986681047    0.108873821898306    -81.9162986681047    0.990572522734645    6.24717701044741     
27.2751143602477     0.990710952869205    6.19308558662321     0.1079346302998      -81.973599021178     0.1079346302998      -81.973599021178     0.990710952869205    6.19308558662321     
27.464013582653      0.990847555485392    6.13926814117402     0.107000108655697    -82.0305312191735    0.107000108655697    -82.0305312191735    0.990847555485392    6.13926814117402     
27.6542210641458     0.990982351856389    6.08572251089569     0.106070221549064    -82.0870960567817    0.106070221549064    -82.0870960567817    0.990982351856389    6.08572251089569     
27.8457458653343     0.99111536299345     6.0324465380962      0.105144933614433    -82.1432942790504    0.105144933614433    -82.1432942790504    0.99111536299345     6.0324465380962      
28.0385971095778     0.991246609648247    5.97943807063172     0.104224209539276    -82.1991265798616    0.104224209539276    -82.1991265798616    0.991246609648247    5.97943807063172     
28.2327839834211     0.991376112315198    5.9266949619389      0.103308014065411    -82.2545936003513    0.103308014065411    -82.2545936003513    0.991376112315198    5.9266949619389      
28.4283157370323     0.991503891233784    5.87421507106615     0.10239631199037     -82.3096959272651    0.10239631199037     -82.3096959272651    0.991503891233784    5.87421507106615     
28.6252016846433     0.991629966390859    5.82199626270272     0.101489068168721    -82.3644340912512    0.101489068168721    -82.3644340912512    0.991629966390859    5.82199626270272     
28.8234512049938     0.991754357522934    5.77003640720517     0.10058624751333     -82.4188085650828    0.10058624751333     -82.4188085650828    0.991754357522934    5.77003640720517     
29.0230737417776     0.991877084118453    5.71833338062301     0.099687814996599    -82.4728197618108    0.099687814996599    -82.4728197618108    0.991877084118453    5.71833338062301     
29.2240788040927     0.991998165420059    5.66688506472107     0.098793735651632    -82.5264680328392    0.098793735651632    -82.5264680328392    0.991998165420059    5.66688506472107     
29.4264759668943     0.992117620426833    5.61568934700099     0.097903974573373    -82.5797536659222    0.097903974573373    -82.5797536659222    0.992117620426833    5.61568934700099     
29.6302748714509     0.992235467896534    5.56474412072061     0.097018496919705    -82.6326768830775    0.097018496919705    -82.6326768830775    0.992235467896534    5.56474412072061     
29.8354852258035     0.992351726347803    5.51404728491105     0.096137267912485    -82.6852378384125    0.096137267912485    -82.6852378384125    0.992351726347803    5.51404728491105     
30.0421168052279     0.992466414062373    5.46359674439272     0.095260252838561    -82.7374366158568    0.095260252838561    -82.7374366158568    0.992466414062373    5.46359674439272     
30.2501794527007     0.992579549087246    5.41339040978937     0.09438741705073     -82.789273226799     0.09438741705073     -82.789273226799     0.992579549087246    5.41339040978937     
30.4596830793679     0.992691149236863    5.36342619753984     0.093518725968666    -82.8407476076204    0.093518725968666    -82.8407476076204    0.992691149236863    5.36342619753984     
30.6706376650172     0.992801232095254    5.31370202990919     0.092654145079806    -82.8918596171212    0.092654145079806    -82.8918596171212    0.992801232095254    5.31370202990919     
30.8830532585533     0.992909815018171    5.26421583499736     0.091793639940197    -82.9426090338336    0.091793639940197    -82.9426090338336    0.992909815018171    5.26421583499736     
31.0969399784765     0.993016915135208    5.21496554674639     0.090937176175299    -82.9929955532152    0.090937176175299    -82.9929955532152    0.993016915135208    5.21496554674639     
31.3123080133647     0.993122549351901    5.16594910494628     0.090084719480767    -83.0430187847162    0.090084719480767    -83.0430187847162    0.993122549351901    5.16594910494628     
31.529167622359      0.993226734351805    5.11716445523925     0.089236235623177    -83.0926782487148    0.089236235623177    -83.0926782487148    0.993226734351805    5.11716445523925     
31.7475291356523     0.993329486598569    5.06860954912214     0.088391690440736    -83.1419733733116    0.088391690440736    -83.1419733733116    0.993329486598569    5.06860954912214     
31.967402954981      0.993430822337976    5.02028234394803     0.087551049843941    -83.1909034909768    0.087551049843941    -83.1909034909768    0.993430822337976    5.02028234394803     
32.1887995541209     0.993530757599976    4.97218080292563     0.086714279816214    -83.239467835042     0.086714279816214    -83.239467835042     0.993530757599976    4.97218080292563     
32.4117294793863     0.9936293082007      4.92430289511753     0.085881346414501    -83.2876655360273    0.085881346414501    -83.2876655360273    0.9936293082007      4.92430289511753     
32.6362033501316     0.993726489744448    4.87664659543756     0.085052215769842    -83.3354956177937    0.085052215769842    -83.3354956177937    0.993726489744448    4.87664659543756     
32.8622318592581     0.993822317625673    4.82920988464603     0.084226854087902    -83.3829569935139    0.084226854087902    -83.3829569935139    0.993822317625673    4.82920988464603     
33.0898257737226     0.993916807030935    4.78199074934378     0.083405227649479    -83.4300484614481    0.083405227649479    -83.4300484614481    0.993916807030935    4.78199074934378     
33.3189959350508     0.994009972940837    4.73498718196568     0.082587302810981    -83.4767687005143    0.082587302810981    -83.4767687005143    0.994009972940837    4.73498718196568     
33.5497532598534     0.994101830131949    4.68819718077176     0.081773046004874    -83.523116265643     0.081773046004874    -83.523116265643     0.994101830131949    4.68819718077176     
33.7821087403464     0.994192393178715    4.64161874983769     0.080962423740092    -83.569089582902     0.080962423740092    -83.569089582902     0.994192393178715    4.64161874983769     
34.0160734448744     0.994281676455324    4.59524989904408     0.080155402602439    -83.6146869443775    0.080155402602439    -83.6146869443775    0.994281676455324    4.59524989904408     
34.2516585184381     0.994369694137588    4.54908864406448     0.079351949254947    -83.6599065027997    0.079351949254947    -83.6599065027997    0.994369694137588    4.54908864406448     
34.4888751832252     0.994456460204778    4.50313300635207     0.078552030438218    -83.7047462658938    0.078552030438218    -83.7047462658938    0.994456460204778    4.50313300635207     
34.7277347391448     0.994541988441456    4.45738101312503     0.077755612970735    -83.7492040904447    0.077755612970735    -83.7492040904447    0.994541988441456    4.45738101312503     
34.9682485643657     0.994626292439282    4.41183069735181     0.076962663749156    -83.7932776760529    0.076962663749156    -83.7932776760529    0.994626292439282    4.41183069735181     
35.2104281158587     0.994709385598801    4.36648009773358     0.076173149748571    -83.8369645585673    0.076173149748571    -83.8369645585673    0.994709385598801    4.36648009773358     
35.4542849299418     0.994791281131214    4.32132725868747     0.07538703802276     -83.880262103172     0.07538703802276     -83.880262103172     0.994791281131214    4.32132725868747     
35.6998306228304     0.99487199206013     4.27637023032733     0.074604295704402    -83.9231674971074    0.074604295704402    -83.9231674971074    0.99487199206013     4.27637023032733     
35.94707689119       0.994951531223292    4.23160706844428     0.073824890005288    -83.9656777420018    0.073824890005288    -83.9656777420018    0.994951531223292    4.23160706844428     
36.1960355126939     0.995029911274294    4.18703583448564     0.073048788216488    -84.0077896457899    0.073048788216488    -84.0077896457899    0.995029911274294    4.18703583448564     
36.446718346584      0.995107144684272    4.14265459553366     0.072275957708526    -84.0494998141901    0.072275957708526    -84.0494998141901    0.995107144684272    4.14265459553366     
36.6991373342355     0.995183243743579    4.09846142428255     0.07150636593152     -84.0908046417149    0.07150636593152     -84.0908046417149    0.995183243743579    4.09846142428255     
36.9533044997263     0.995258220563434    4.05445439901497     0.070739980415306    -84.1317003021818    0.070739980415306    -84.1317003021818    0.995258220563434    4.05445439901497     
37.2092319504093     0.995332087077564    4.01063160357756     0.069976768769554    -84.1721827386936    0.069976768769554    -84.1721827386936    0.995332087077564    4.01063160357756     
37.4669318774892     0.995404855043811    3.96699112735536     0.069216698683855    -84.2122476530526    0.069216698683855    -84.2122476530526    0.995404855043811    3.96699112735536     
37.7264165566033     0.995476536045734    3.92353106524569     0.068459737927808    -84.2518904945707    0.068459737927808    -84.2518904945707    0.995476536045734    3.92353106524569     
37.9876983484064     0.995547141494185    3.88024951763105     0.067705854351088    -84.2911064482351    0.067705854351088    -84.2911064482351    0.995547141494185    3.88024951763105     
38.2507896991594     0.99561668262886     3.83714459035077     0.066955015883496    -84.3298904221872    0.066955015883496    -84.3298904221872    0.99561668262886     3.83714459035077     
38.5157031413223     0.995685170519847    3.79421439467277     0.066207190535005    -84.3682370344648    0.066207190535005    -84.3682370344648    0.995685170519847    3.79421439467277     
38.7824512941511     0.995752616069133    3.7514570472636      0.065462346395797    -84.4061405989594    0.065462346395797    -84.4061405989594    0.995752616069133    3.7514570472636      
39.0510468642988     0.995819030012108    3.70887067015811     0.06472045163628     -84.4435951105334    0.06472045163628     -84.4435951105334    0.995819030012108    3.70887067015811     
39.3215026464212     0.99588442291905     3.66645339072854     0.063981474507116    -84.4805942292358    0.063981474507116    -84.4805942292358    0.99588442291905     3.66645339072854     
39.5938315237858     0.995948805196571    3.62420334165235     0.063245383339218    -84.5171312635555    0.063245383339218    -84.5171312635555    0.995948805196571    3.62420334165235     
39.8680464688857     0.996012187089071    3.58211866088007     0.06251214654377     -84.5531991526405    0.06251214654377     -84.5531991526405    0.996012187089071    3.58211866088007     
40.1441605440577     0.996074578680152    3.54019749160151     0.061781732612216    -84.5887904474097    0.061781732612216    -84.5887904474097    0.996074578680152    3.54019749160151     
40.4221869021044     0.996135989894021    3.49843798221229     0.061054110116273    -84.6238972904738    0.061054110116273    -84.6238972904738    0.996135989894021    3.49843798221229     
40.7021387869206     0.996196430496875    3.4568382862788      0.060329247707918    -84.6585113947798    0.060329247707918    -84.6585113947798    0.996196430496875    3.4568382862788      
40.9840295341245     0.996255910098261    3.41539656250316     0.059607114119395    -84.692624020881     0.059607114119395    -84.692624020881     0.996255910098261    3.41539656250316     
41.2678725716927     0.996314438152419    3.37411097468732     0.058887678163221    -84.7262259527299    0.058887678163221    -84.7262259527299    0.996314438152419    3.37411097468732     
41.5536814205998     0.996372023959614    3.33297969169624     0.058170908732188    -84.7593074718805    0.058170908732188    -84.7593074718805    0.996372023959614    3.33297969169624     
41.8414696954629     0.99642867666743     3.29200088742113     0.057456774799384    -84.7918583299762    0.057456774799384    -84.7918583299762    0.99642867666743     3.29200088742113     
42.1312511051895     0.996484405272064    3.25117274074136     0.056745245418212    -84.8238677193906    0.056745245418212    -84.8238677193906    0.996484405272064    3.25117274074136     
42.4230394536311     0.996539218619595    3.21049343548649     0.056036289722433    -84.8553242418737    0.056036289722433    -84.8553242418737    0.996539218619595    3.21049343548649     
42.7168486402404     0.996593125407222    3.16996116039711     0.055329876926208    -84.886215875044     0.055329876926208    -84.886215875044     0.996593125407222    3.16996116039711     
43.0126926607335     0.996646134184504    3.12957410908547     0.054625976324169    -84.9165299365536    0.054625976324169    -84.9165299365536    0.996646134184504    3.12957410908547     
43.3105856077568     0.996698253354562    3.08933047999593     0.053924557291504    -84.946253045733     0.053924557291504    -84.946253045733     0.996698253354562    3.08933047999593     
43.6105416715579     0.996749491175272    3.04922847636397     0.053225589284066    -84.9753710825094    0.053225589284066    -84.9753710825094    0.996749491175272    3.04922847636397     
43.9125751406618     0.996799855760438    3.00926630617551     0.052529041838503    -85.003869143369     0.052529041838503    -85.003869143369     0.996799855760438    3.00926630617551     
44.2167004025516     0.996849355080941    2.96944218212552     0.051834884572431    -85.0317314941112    0.051834884572431    -85.0317314941112    0.996849355080941    2.96944218212552     
44.5229319443538     0.996897996965877    2.92975432157605     0.051143087184624    -85.0589415191211    0.051143087184624    -85.0589415191211    0.996897996965877    2.92975432157605     
44.8312843535283     0.996945789103672    2.89020094651369     0.050453619455253    -85.0854816668565    0.050453619455253    -85.0854816668565    0.996945789103672    2.89020094651369     
45.1417723185633     0.996992739043172    2.85078028350719     0.049766451246168    -85.1113333912154    0.049766451246168    -85.1113333912154    0.996992739043172    2.85078028350719     
45.4544106296753     0.99703885419473     2.8114905636636      0.04908155250122     -85.1364770884188    0.04908155250122     -85.1364770884188    0.99703885419473     2.8114905636636      
45.769214179513      0.997084141831254    2.77233002258519     0.048398893246648    -85.1608920290011    0.048398893246648    -85.1608920290011    0.997084141831254    2.77233002258519     
46.0861979638675     0.997128609089254    2.73329690032501     0.047718443591517    -85.184556284463     0.047718443591517    -85.184556284463     0.997128609089254    2.73329690032501     
46.4053770823858     0.997172262969862    2.69438944134249     0.047040173728229    -85.2074466480903    0.047040173728229    -85.2074466480903    0.997172262969862    2.69438944134249     
46.7267667392909     0.997215110339832    2.65560589445859     0.046364053933106    -85.2295385493915    0.046364053933106    -85.2295385493915    0.997215110339832    2.65560589445859     
47.0503822441054     0.997257157932528    2.61694451281058     0.045690054567057    -85.2508059615463    0.045690054567057    -85.2508059615463    0.997257157932528    2.61694451281058     
47.3762390123812     0.997298412348884    2.57840355380644     0.04501814607634     -85.2712213011904    0.04501814607634     -85.2712213011904    0.997298412348884    2.57840355380644     
47.7043525664336     0.997338880058358    2.53998127907884     0.044348298993421    -85.2907553197879    0.044348298993421    -85.2907553197879    0.997338880058358    2.53998127907884     
48.0347385360808     0.997378567399852    2.50167595443899     0.043680483937958    -85.3093769857536    0.043680483937958    -85.3093769857536    0.997378567399852    2.50167595443899     
48.3674126593883     0.997417480582634    2.46348584982981     0.043014671617899    -85.3270533563978    0.043014671617899    -85.3270533563978    0.997417480582634    2.46348584982981     
48.7023907834188     0.997455625687216    2.42540923927922     0.042350832830734    -85.3437494386501    0.042350832830734    -85.3437494386501    0.997455625687216    2.42540923927922     
49.0396888649871     0.997493008666235    2.38744440085278     0.0416889384649      -85.3594280374036    0.0416889384649      -85.3594280374036    0.997493008666235    2.38744440085278     
49.3793229714198     0.997529635345314    2.34958961660609     0.041028959501355    -85.374049590174     0.041028959501355    -85.374049590174     0.997529635345314    2.34958961660609     
49.7213092813213     0.997565511423886    2.31184317253713     0.040370867015357    -85.3875719866139    0.040370867015357    -85.3875719866139    0.997565511423886    2.31184317253713     
50.0656640853438     0.997600642476022    2.27420335853795     0.039714632178459    -85.3999503712401    0.039714632178459    -85.3999503712401    0.997600642476022    2.27420335853795     
50.4124037869639     0.997635033951229    2.23666846834654     0.039060226260739    -85.4111369275243    0.039060226260739    -85.4111369275243    0.997635033951229    2.23666846834654     
50.7615449032636     0.997668691175235    2.19923679949795     0.038407620633311    -85.4210806412641    0.038407620633311    -85.4210806412641    0.997668691175235    2.19923679949795     
51.1131040657173     0.997701619350749    2.16190665327564     0.037756786771134    -85.4297270408763    0.037756786771134    -85.4297270408763    0.997701619350749    2.16190665327564     
51.467098020984      0.997733823558213    2.12467633466217     0.037107696256158    -85.4370179119475    0.037107696256158    -85.4370179119475    0.997733823558213    2.12467633466217     
51.8235436317049     0.997765308756528    2.08754415229        0.03646032078086     -85.4428909830168    0.03646032078086     -85.4428909830168    0.997765308756528    2.08754415229        
52.1824578773068     0.997796079783762    2.05050841839191     0.035814632152193    -85.4472795791538    0.035814632152193    -85.4472795791538    0.997796079783762    2.05050841839191     
52.5438578548111     0.997826141357851    2.01356744875122     0.03517060229603     -85.4501122394167    0.03517060229603     -85.4501122394167    0.997826141357851    2.01356744875122     
52.9077607796478     0.997855498077266    1.97671956265167     0.034528203262131    -85.4513122937246    0.034528203262131    -85.4513122937246    0.997855498077266    1.97671956265167     
53.2741839864757     0.997884154421676    1.93996308282755     0.033887407229741    -85.4507973940324    0.033887407229741    -85.4507973940324    0.997884154421676    1.93996308282755     
53.6431449300085     0.997912114752582    1.90329633541312     0.033248186513855    -85.4484789939516    0.033248186513855    -85.4484789939516    0.997912114752582    1.90329633541312     
54.0146611858458     0.997939383313947    1.86671764989211     0.032610513572278    -85.4442617700865    0.032610513572278    -85.4442617700865    0.997939383313947    1.86671764989211     
54.3887504513105     0.997965964232793    1.83022535904718     0.031974361013564    -85.4380429773292    0.031974361013564    -85.4380429773292    0.997965964232793    1.83022535904718     
54.765430546292      0.997991861519788    1.79381779890894     0.031339701605962    -85.4297117291616    0.031339701605962    -85.4297117291616    0.997991861519788    1.79381779890894     
55.1447194140946     0.998017079069822    1.75749330870492     0.030706508287506    -85.4191481925945    0.030706508287506    -85.4191481925945    0.998017079069822    1.75749330870492     
55.5266351222928     0.99804162066255     1.72125023080856     0.030074754177419    -85.4062226857041    0.030074754177419    -85.4062226857041    0.99804162066255     1.72125023080856     
55.9111958635915     0.998065489962934    1.68508691068786     0.029444412589009    -85.3907946637528    0.029444412589009    -85.3907946637528    0.998065489962934    1.68508691068786     
56.2984199566928     0.998088690521751    1.64900169685393     0.028815457044292    -85.3727115775229    0.028815457044292    -85.3727115775229    0.998088690521751    1.64900169685393     
56.6883258471688     0.998111225776097    1.61299294080958     0.028187861290589    -85.3518075846939    0.028187861290589    -85.3518075846939    0.998111225776097    1.61299294080958     
57.0809321083398     0.998133099049871    1.57705899699765     0.027561599319412    -85.3279020917346    0.027561599319412    -85.3279020917346    0.998133099049871    1.57705899699765     
57.4762574421595     0.998154313554233    1.5411982227492      0.02693664538799     -85.3007980997544    0.02693664538799     -85.3007980997544    0.998154313554233    1.5411982227492      
57.8743206801056     0.998174872388056    1.50540897823177     0.026312974043869    -85.2702803228945    0.026312974043869    -85.2702803228945    0.998174872388056    1.50540897823177     
58.275140784077      0.998194778538351    1.46968962639743     0.025690560153083    -85.2361130419638    0.025690560153083    -85.2361130419638    0.998194778538351    1.46968962639743     
58.678736847297      0.998214034880684    1.43403853293083     0.025069378932506    -85.1980376488735    0.025069378932506    -85.1980376488735    0.998214034880684    1.43403853293083     
59.0851280952227     0.998232644179568    1.39845406619704     0.024449405987101    -85.1557698286988    0.024449405987101    -85.1557698286988    0.998232644179568    1.39845406619704     
59.4943338864612     0.998250609088842    1.36293459718945     0.023830617352932    -85.1089963155036    0.023830617352932    -85.1089963155036    0.998250609088842    1.36293459718945     
59.9063737136911     0.998267932152027    1.32747849947761     0.023212989546991    -85.0573711448848    0.023212989546991    -85.0573711448848    0.998267932152027    1.32747849947761     
60.3212672045918     0.998284615802678    1.29208414915498     0.022596499625099    -85.0005113098833    0.022596499625099    -85.0005113098833    0.998284615802678    1.29208414915498     
60.7390341227777     0.998300662364701    1.25674992478655     0.021981125249435    -84.9379917066181    0.021981125249435    -84.9379917066181    0.998300662364701    1.25674992478655     
61.1596943687404     0.998316074052668    1.22147420735661     0.02136684476757     -84.8693392306123    0.02136684476757     -84.8693392306123    0.998316074052668    1.22147420735661     
61.583267980796      0.998330852972103    1.18625538021637     0.020753637305351    -84.79402585285      0.020753637305351    -84.79402585285      0.998330852972103    1.18625538021637     
62.0097751360402     0.998345001119763    1.15109182903151     0.020141482876495    -84.7114604641868    0.020141482876495    -84.7114604641868    0.998345001119763    1.15109182903151     
62.439236151309      0.998358520383892    1.11598194172988     0.019530362512487    -84.6209792252817    0.019530362512487    -84.6209792252817    0.998358520383892    1.11598194172988     
62.8716714841468     0.99837141254446     1.08092410844899     0.018920258417263    -84.5218340932506    0.018920258417263    -84.5218340932506    0.99837141254446     1.08092410844899     
63.3071017337807     0.998383679273388    1.0459167214837      0.018311154152337    -84.4131791111086    0.018311154152337    -84.4131791111086    0.998383679273388    1.0459167214837      
63.745547642102      0.998395322134753    1.01095817523372     0.017703034859528    -84.2940539353587    0.017703034859528    -84.2940539353587    0.998395322134753    1.01095817523372     
64.1870300946537     0.998406342584982    0.97604686615127     0.017095887530482    -84.1633639320376    0.017095887530482    -84.1633639320376    0.998406342584982    0.97604686615127     
64.6315701216264     0.998416741973014    0.941181192688615    0.016489701334765    -84.0198559798763    0.016489701334765    -84.0198559798763    0.998416741973014    0.941181192688615    
65.0791888988588     0.998426521540465    0.90635955524585     0.015884468021882    -83.862088863832     0.015884468021882    -83.862088863832     0.998426521540465    0.90635955524585     
65.5299077488475     0.998435682421759    0.871580356118452    0.015280182417288    -83.6883967986839    0.015280182417288    -83.6883967986839    0.998435682421759    0.871580356118452    
65.9837481417621     0.998444225644253    0.836841999445019    0.014676843038947    -83.4968441556775    0.014676843038947    -83.4968441556775    0.998444225644253    0.836841999445019    
66.4407316964684     0.998452152128339    0.802142891155056    0.014074452869884    -83.2851688244761    0.014074452869884    -83.2851688244761    0.998452152128339    0.802142891155056    
66.9008801815576     0.99845946268753     0.767481438916763    0.013473020334574    -83.0507107531363    0.013473020334574    -83.0507107531363    0.99845946268753     0.767481438916763    
67.3642155163837     0.998466158028532    0.732856052084907    0.01287256054448     -82.790320958864     0.01287256054448     -82.790320958864     0.998466158028532    0.732856052084907    
67.8307597721077     0.998472238751295    0.698265141648736    0.012273096903018    -82.5002445231024    0.012273096903018    -82.5002445231024    0.998472238751295    0.698265141648736    
68.3005351727485     0.998477705349047    0.663707120179909    0.01167466319639     -82.1759685165965    0.01167466319639     -82.1759685165965    0.998477705349047    0.663707120179909    
68.7735640962423     0.998482558208319    0.629180401780801    0.011077306349993    -81.8120220380952    0.011077306349993    -81.8120220380952    0.998482558208319    0.629180401780801    
69.2498690755078     0.998486797608938    0.594683402032391    0.010481090109826    -81.4017099495889    0.010481090109826    -81.4017099495889    0.998486797608938    0.594683402032391    
69.7294727995199     0.998490423724017    0.560214537942671    0.009886100029905    -80.9367534063822    0.009886100029905    -80.9367534063822    0.998490423724017    0.560214537942671    
70.2123981143908     0.998493436619922    0.525772227894952    0.009292450335803    -80.4067971828169    0.009292450335803    -80.4067971828169    0.998493436619922    0.525772227894952    
70.6986680244575     0.99849583625622     0.491354891596351    0.008700293535184    -79.7987231601756    0.008700293535184    -79.7987231601756    0.99849583625622     0.491354891596351    
71.1883056933787     0.998497622485616    0.456960950026283    0.008109834135963    -79.0956761107841    0.008109834135963    -79.0956761107841    0.998497622485616    0.456960950026283    
71.6813344452372     0.998498795053864    0.422588825385298    0.007521348651733    -78.2756531003866    0.007521348651733    -78.2756531003866    0.998498795053864    0.422588825385298    
72.1777777656514     0.998499353599672    0.388236941043675    0.006935215483941    -77.3094150847281    0.006935215483941    -77.3094150847281    0.998499353599672    0.388236941043675    
72.6776593028942     0.998499297654579    0.35390372149055     0.006351960775973    -76.1573180165016    0.006351960775973    -76.1573180165016    0.998499297654579    0.35390372149055     
73.1810028690192     0.998498626642824    0.319587592282906    0.005772330946908    -74.7643723514741    0.005772330946908    -74.7643723514741    0.998498626642824    0.319587592282906    
73.687832440995      0.998497339881188    0.285286979994827    0.005197411435611    -73.0523093017989    0.005197411435611    -73.0523093017989    0.998497339881188    0.285286979994827    
74.1981721618477     0.998495436578833    0.251000312166854    0.004628828770864    -70.9064319728884    0.004628828770864    -70.9064319728884    0.998495436578833    0.251000312166854    
74.7120463418107     0.998492915837108    0.216726017255588    0.004069109647941    -68.1531182921262    0.004069109647941    -68.1531182921262    0.998492915837108    0.216726017255588    
75.2294794594825     0.998489776649348    0.182462524583323    0.003522349745889    -64.5202588483368    0.003522349745889    -64.5202588483368    0.998489776649348    0.182462524583323    
75.7504961629931     0.998486017900652    0.148208264287979    0.002995519906299    -59.5669879104714    0.002995519906299    -59.5669879104714    0.998486017900652    0.148208264287979    
76.2751212711781     0.998481638367646    0.113961667273128    0.002501111753774    -52.5647578633625    0.002501111753774    -52.5647578633625    0.998481638367646    0.113961667273128    
76.803379774761      0.998476636718229    0.079721165158286    0.002062443033411    -42.3460952729452    0.002062443033411    -42.3460952729452    0.998476636718229    0.079721165158286    
77.3352968375431     0.998471011511293    0.045485190229333    0.001722517318121    -27.3981392923568    0.001722517318121    -27.3981392923568    0.998471011511293    0.045485190229333    
77.8708977976031     0.998464761196443    0.011252175389198    0.001547729636005    -7.27851606523575    0.001547729636005    -7.27851606523575    0.998464761196443    0.011252175389198    
78.4102081685032     0.998457884113679    -0.022979445891303   0.0015933386581      14.5560311775207     0.0015933386581      14.5560311775207     0.998457884113679    -0.022979445891303   
78.9532536405052     0.998450378493079    -0.057211239622395   0.001843049879483    32.7475628872994     0.001843049879483    32.7475628872994     0.998450378493079    -0.057211239622395   
79.5000600817935     0.998442242454454    -0.09144477134397    0.002229326226849    45.6269240252672     0.002229326226849    45.6269240252672     0.998442242454454    -0.09144477134397    
80.0506535397081     0.998433474006984    -0.125681606174114   0.002694097269511    54.3834635777164     0.002694097269511    54.3834635777164     0.998433474006984    -0.125681606174114   
80.6050602419848     0.998424071048851    -0.159923308857268   0.003203435880496    60.4512670121752     0.003203435880496    60.4512670121752     0.998424071048851    -0.159923308857268   
81.163306598005      0.998414031366831    -0.194171443812201   0.003739241138243    64.8065957557859     0.003739241138243    64.8065957557859     0.998414031366831    -0.194171443812201   
81.7254192000535     0.99840335263589     -0.228427575179731   0.004291685425272    68.0447972594124     0.004291685425272    68.0447972594124     0.99840335263589     -0.228427575179731   
82.2914248245848     0.998392032418756    -0.262693266870146   0.004855171001071    70.5278930412273     0.004855171001071    70.5278930412273     0.998392032418756    -0.262693266870146   
82.8613504334997     0.99838006816546     -0.296970082610341   0.005426341790514    72.4821756465131     0.005426341790514    72.4821756465131     0.99838006816546     -0.296970082610341   
83.4352231754287     0.998367457212886    -0.331259585990711   0.006003090006542    74.0540772449343     0.006003090006542    74.0540772449343     0.998367457212886    -0.331259585990711   
84.0130703870253     0.998354196784273    -0.365563340511779   0.006584037956876    75.3416353113693     0.006584037956876    75.3416353113693     0.998354196784273    -0.365563340511779   
84.594919594269      0.998340283988727    -0.399882909630364   0.007168254444284    76.4125642842382     0.007168254444284    76.4125642842382     0.998340283988727    -0.399882909630364   
85.1807985137754     0.998325715820693    -0.434219856805714   0.00775509229176     77.3149518800124     0.00775509229176     77.3149518800124     0.998325715820693    -0.434219856805714   
85.7707350541173     0.998310489159424    -0.468575745545012   0.008344091318987    78.0837962893338     0.008344091318987    78.0837962893338     0.998310489159424    -0.468575745545012   
86.3647573171538     0.998294600768425    -0.502952139448776   0.008934918224626    78.7451267351952     0.008934918224626    78.7451267351952     0.998294600768425    -0.502952139448776   
86.962893599369      0.998278047294879    -0.537350602255823   0.009527328098367    79.3186761411147     0.009527328098367    79.3186761411147     0.998278047294879    -0.537350602255823   
87.5651723932198     0.99826082526906     -0.571772697887945   0.010121139056888    79.8196604863872     0.010121139056888    79.8196604863872     0.99826082526906     -0.571772697887945   
88.1716223884937     0.998242931103723    -0.606219990494205   0.010716215093491    80.2599917569829     0.010716215093491    80.2599917569829     0.998242931103723    -0.606219990494205   
88.7822724736744     0.998224361093478    -0.640694044494723   0.011312454212851    80.6491226506879     0.011312454212851    80.6491226506879     0.998224361093478    -0.640694044494723   
89.3971517373191     0.998205111414146    -0.675196424624459   0.011909780052171    80.9946463218701     0.011909780052171    80.9946463218701     0.998205111414146    -0.675196424624459   
90.0162894694431     0.998185178122095    -0.709728695976135   0.012508135854229    81.3027297365124     0.012508135854229    81.3027297365124     0.998185178122095    -0.709728695976135   
90.6397151629159     0.998164557153562    -0.744292424043193   0.013107480059403    81.5784318317275     0.013107480059403    81.5784318317275     0.998164557153562    -0.744292424043193   
91.2674585148656     0.99814324432395     -0.778889174761985   0.013707783032744    81.8259405212893     0.013707783032744    81.8259405212893     0.99814324432395     -0.778889174761985   
91.8995494280935     0.998121235327116    -0.81352051455399    0.014309024600236    82.0487516097647     0.014309024600236    82.0487516097647     0.998121235327116    -0.81352051455399    
92.5360180124989     0.998098525734629    -0.848188010366881   0.014911192170732    82.2498055104676     0.014911192170732    82.2498055104676     0.998098525734629    -0.848188010366881   
93.1768945865132     0.998075110995022    -0.882893229716112   0.015514279287798    82.43159289733       0.015514279287798    82.43159289733       0.998075110995022    -0.882893229716112   
93.822209678544      0.998050986433014    -0.917637740725154   0.016118284501164    82.5962371988798     0.016118284501164    82.5962371988798     0.998050986433014    -0.917637740725154   
94.4719940284294     0.998026147248724    -0.952423112165929   0.016723210478622    82.7455596297616     0.016723210478622    82.7455596297616     0.998026147248724    -0.952423112165929   
95.1262785889025     0.998000588516858    -0.987250913498362   0.017329063300801    82.8811309133641     0.017329063300801    82.8811309133641     0.998000588516858    -0.987250913498362   
95.7850945270656     0.997974305185879    -1.02212271490965    0.017935851896459    83.0043127601586     0.017935851896459    83.0043127601586     0.997974305185879    -1.02212271490965    
96.448473225875      0.997947292077168    -1.05704008735301    0.01854358758675     83.116291387559      0.01854358758675     83.116291387559      0.997947292077168    -1.05704008735301    
97.116446285636      0.997919543884146    -1.09200460258586    0.019152283714762    83.2181048035715     0.019152283714762    83.2181048035715     0.997919543884146    -1.09200460258586    
97.7890455255079     0.997891055171405    -1.1270178332075     0.019761955342333    83.3106651642525     0.019761955342333    83.3106651642525     0.997891055171405    -1.1270178332075     
98.4663029850201     0.997861820373788    -1.16208135269636    0.020372619000337    83.3947772102845     0.020372619000337    83.3947772102845     0.997861820373788    -1.16208135269636    
99.1482509255979     0.99783183379548     -1.19719673544656    0.020984292481791    83.471153560607      0.020984292481791    83.471153560607      0.99783183379548     -1.19719673544656    
99.8349218320997     0.997801089609061    -1.232365556804      0.021596994669485    83.5404274698175     0.021596994669485    83.5404274698175     0.997801089609061    -1.232365556804      
100.526348414364     0.997769581854547    -1.26758939310185    0.02221074539161     83.6031635260262     0.02221074539161     83.6031635260262     0.997769581854547    -1.26758939310185    
101.222563608768     0.99773730443841     -1.30286982169547    0.022825565300254    83.659866666294      0.022825565300254    83.659866666294      0.99773730443841     -1.30286982169547    
101.923600579797     0.99770425113258     -1.33820842099671    0.023441475768639    83.7109898099974     0.023441475768639    83.7109898099974     0.99770425113258     -1.33820842099671    
102.629492721622     0.997670415573432    -1.37360677050767    0.024058498803864    83.7569403507943     0.024058498803864    83.7569403507943     0.997670415573432    -1.37360677050767    
103.340273659692     0.997635791260739    -1.40906645085375    0.024676656972467    83.7980857011977     0.024676656972467    83.7980857011977     0.997635791260739    -1.40906645085375    
104.055977252339     0.99760037155663     -1.44458904381606    0.025295973336698    83.8347580470177     0.025295973336698    83.8347580470177     0.99760037155663     -1.44458904381606    
104.776637592382     0.997564149684504    -1.4801761323633     0.025916471399745    83.8672584398282     0.025916471399745    83.8672584398282     0.997564149684504    -1.4801761323633     
105.502289008762     0.99752711872794     -1.51582930068274    0.026538175058502    83.8958603324238     0.026538175058502    83.8958603324238     0.99752711872794     -1.51582930068274    
106.232966068169     0.997489271629583    -1.55155013421085    0.027161108562682    83.9208126436537     0.027161108562682    83.9208126436537     0.997489271629583    -1.55155013421085    
106.968703576692     0.99745060119001     -1.58734021966289    0.027785296479328    83.9423424240563     0.027785296479328    83.9423424240563     0.99745060119001     -1.58734021966289    
107.709536581477     0.997411100066577    -1.62320114506193    0.028410763661912    83.9606571816061     0.028410763661912    83.9606571816061     0.997411100066577    -1.62320114506193    
108.455500372394     0.99737076077225     -1.65913449976723    0.029037535223338    83.9759469170308     0.029037535223338    83.9759469170308     0.99737076077225     -1.65913449976723    
109.206630483723     0.997329575674407    -1.69514187450176    0.029665636512311    83.9883859101095     0.029665636512311    83.9883859101095     0.997329575674407    -1.69514187450176    
109.962962695842     0.997287536993632    -1.73122486137894    0.030295093092575    83.9981342917534     0.030295093092575    83.9981342917534     0.997287536993632    -1.73122486137894    
110.724533036933     0.997244636802484    -1.76738505392865    0.030925930724644    84.0053394312266     0.030925930724644    84.0053394312266     0.997244636802484    -1.76738505392865    
111.491377784698     0.997200867024244    -1.80362404712246    0.031558175349676    84.0101371633584     0.031558175349676    84.0101371633584     0.997200867024244    -1.80362404712246    
112.26353346809      0.99715621943164     -1.83994343739798    0.032191853075211    84.0126528768559     0.032191853075211    84.0126528768559     0.99715621943164     -1.83994343739798    
113.041036869047     0.997110685645567    -1.87634482268244    0.032826990162522    84.0130024817032     0.032826990162522    84.0130024817032     0.997110685645567    -1.87634482268244    
113.823925024251     0.997064257133771    -1.91282980241538    0.033463613015382    84.0112932710242     0.033463613015382    84.0112932710242     0.997064257133771    -1.91282980241538    
114.612235226885     0.997016925209519    -1.94939997757046    0.034101748170057    84.0076246905894     0.034101748170057    84.0076246905894     0.997016925209519    -1.94939997757046    
115.406005028417     0.996968681030251    -1.98605695067637    0.03474142228638     84.0020890273039     0.03474142228638     84.0020890273039     0.996968681030251    -1.98605695067637    
116.205272240383     0.99691951559621     -2.02280232583693    0.035382662139768    83.9947720264487     0.035382662139768    83.9947720264487     0.99691951559621     -2.02280232583693    
117.010074936191     0.996869419749049    -2.05963770875017    0.036025494614072    83.9857534461251     0.036025494614072    83.9857534461251     0.996869419749049    -2.05963770875017    
117.820451452934     0.996818384170431    -2.09656470672638    0.036669946695157    83.9751075562281     0.036669946695157    83.9751075562281     0.996818384170431    -2.09656470672638    
118.636440393216     0.99676639938059     -2.13358492870547    0.037316045465129    83.9629035883112     0.037316045465129    83.9629035883112     0.99676639938059     -2.13358492870547    
119.458080626992     0.996713455736884    -2.17069998527296    0.037963818097132    83.9492061418876     0.037963818097132    83.9492061418876     0.996713455736884    -2.17069998527296    
120.285411293417     0.996659543432332    -2.20791148867535    0.038613291850646    83.9340755520095     0.038613291850646    83.9340755520095     0.996659543432332    -2.20791148867535    
121.118471802712     0.996604652494117    -2.24522105283407    0.039264494067237    83.9175682223586     0.039264494067237    83.9175682223586     0.996604652494117    -2.24522105283407    
121.957301838042     0.99654877278208     -2.28263029335875    0.039917452166706    83.8997369275649     0.039917452166706    83.8997369275649     0.99654877278208     -2.28263029335875    
122.801941357407     0.996491893987191    -2.32014082755907    0.040572193643575    83.8806310880171     0.040572193643575    83.8806310880171     0.996491893987191    -2.32014082755907    
123.652430595541     0.996434005630003    -2.35775427445586    0.041228746063911    83.86029702004       0.041228746063911    83.86029702004       0.996434005630003    -2.35775427445586    
124.508810065834     0.996375097059074    -2.39547225479068    0.041887137062402    83.8387781639749     0.041887137062402    83.8387781639749     0.996375097059074    -2.39547225479068    
125.37112056226      0.99631515744939     -2.43329639103462    0.0425473943397      83.8161152924073     0.0425473943397      83.8161152924073     0.99631515744939     -2.43329639103462    
126.239403161317     0.996254175800744    -2.47122830739568    0.043209545659976    83.792346700526      0.043209545659976    83.792346700526      0.996254175800744    -2.47122830739568    
127.113699223989     0.996192140936118    -2.50926962982515    0.043873618848676    83.7675083803786     0.043873618848676    83.7675083803786     0.996192140936118    -2.50926962982515    
127.994050397711     0.996129041500026    -2.54742198602246    0.044539641790443    83.7416341805881     0.044539641790443    83.7416341805881     0.996129041500026    -2.54742198602246    
128.88049861836      0.996064865956852    -2.58568700543926    0.045207642427208    83.7147559529269     0.045207642427208    83.7147559529269     0.996064865956852    -2.58568700543926    
129.773086112244     0.995999602589152    -2.6240663192818     0.045877648756411    83.6869036869917     0.045877648756411    83.6869036869917     0.995999602589152    -2.6240663192818     
130.67185539812      0.995933239495958    -2.66256156051213    0.046549688829343    83.6581056340913     0.046549688829343    83.6581056340913     0.995933239495958    -2.66256156051213    
131.576849289216     0.99586576459104     -2.70117436384811    0.047223790749603    83.6283884213412     0.047223790749603    83.6283884213412     0.99586576459104     -2.70117436384811    
132.488110895271     0.995797165601164    -2.73990636576195    0.047899982671653    83.5977771568558     0.047899982671653    83.5977771568558     0.995797165601164    -2.73990636576195    
133.405683624592     0.995727430064322    -2.77875920447742    0.048578292799454    83.5662955268396     0.048578292799454    83.5662955268396     0.995727430064322    -2.77875920447742    
134.329611186115     0.995656545327945    -2.81773451996558    0.049258749385174    83.5339658852933     0.049258749385174    83.5339658852933     0.995656545327945    -2.81773451996558    
135.259937591494     0.995584498547097    -2.85683395393909    0.049941380727975    83.5008093369839     0.049941380727975    83.5008093369839     0.995584498547097    -2.85683395393909    
136.196707157192     0.995511276682652    -2.89605914984515    0.050626215172843    83.4668458142605     0.050626215172843    83.4668458142605     0.995511276682652    -2.89605914984515    
137.139964506597     0.99543686649944     -2.935411752857      0.051313281109485    83.4320941482421     0.051313281109485    83.4320941482421     0.99543686649944     -2.935411752857      
138.089754572142     0.995361254564396    -2.97489340986346    0.052002606971248    83.3965721348522     0.052002606971248    83.3965721348522     0.995361254564396    -2.97489340986346    
139.046122597452     0.995284427244662    -3.01450576945748    0.052694221234095    83.360296596131      0.052694221234095    83.360296596131      0.995284427244662    -3.01450576945748    
140.009114139494     0.995206370705693    -3.05425048192283    0.053388152415606    83.323283437214      0.053388152415606    83.323283437214      0.995206370705693    -3.05425048192283    
140.978775070747     0.995127070909335    -3.09412919921917    0.054084429073997    83.2855476993297     0.054084429073997    83.2855476993297     0.995127070909335    -3.09412919921917    
141.955151581393     0.995046513611878    -3.1341435749654     0.054783079807174    83.2471036091391     0.054783079807174    83.2471036091391     0.995046513611878    -3.1341435749654     
142.938290181509     0.994964684362105    -3.17429526442151    0.055484133251791    83.2079646247062     0.055484133251791    83.2079646247062     0.994964684362105    -3.17429526442151    
143.928237703291     0.994881568499308    -3.21458592446868    0.056187618082332    83.1681434783658     0.056187618082332    83.1681434783658     0.994881568499308    -3.21458592446868    
144.925041303276     0.994797151151295    -3.2550172135874     0.056893563010191    83.1276522167315     0.056893563010191    83.1276522167315     0.994797151151295    -3.2550172135874     
145.928748464598     0.994711417232371    -3.29559079183425    0.057601996782771    83.0865022380616     0.057601996782771    83.0865022380616     0.994711417232371    -3.29559079183425    
146.939406999241     0.994624351441314    -3.33630832081623    0.058312948182565    83.0447043271875     0.058312948182565    83.0447043271875     0.994624351441314    -3.33630832081623    
147.957065050321     0.994535938259312    -3.37717146366386    0.059026446026261    83.0022686881859     0.059026446026261    83.0022686881859     0.994535938259312    -3.37717146366386    
148.981771094381     0.994446161947907    -3.4181818850021     0.059742519163821    82.9592049749635     0.059742519163821    82.9592049749635     0.994446161947907    -3.4181818850021     
150.013573943696     0.994355006546901    -3.45934125091914    0.060461196477566    82.9155223199107     0.060461196477566    82.9155223199107     0.994355006546901    -3.45934125091914    
151.0525227486       0.994262455872254    -3.50065122893379    0.061182506881252    82.871229360762      0.061182506881252    82.871229360762      0.994262455872254    -3.50065122893379    
152.098666999829     0.994168493513968    -3.54211348796014    0.061906479319122    82.8263342657953     0.061906479319122    82.8263342657953     0.994168493513968    -3.54211348796014    
153.152056530874     0.994073102833944    -3.5837296982708     0.062633142764964    82.7808447574882     0.062633142764964    82.7808447574882     0.994073102833944    -3.5837296982708     
154.212741520361     0.99397626696383     -3.62550153145787    0.063362526221138    82.73476813474       0.063362526221138    82.73476813474       0.99397626696383     -3.62550153145787    
155.280772494436     0.993877968802853    -3.6674306603914     0.064094658717592    82.6881112937623     0.064094658717592    82.6881112937623     0.993877968802853    -3.6674306603914     
156.356200329175     0.993778191015631    -3.70951875917636    0.064829569310853    82.6408807477277     0.064829569310853    82.6408807477277     0.993778191015631    -3.70951875917636    
157.439076253005     0.99367691602997     -3.75176750310692    0.065567287083007    82.5930826452648     0.065567287083007    82.5930826452648     0.99367691602997     -3.75176750310692    
158.529451849147     0.993574126034644    -3.79417856861858    0.066307841140643    82.5447227878765     0.066307841140643    82.5447227878765     0.993574126034644    -3.79417856861858    
159.627379058072     0.993469802977168    -3.83675363323822    0.067051260613783    82.4958066463554     0.067051260613783    82.4958066463554     0.993469802977168    -3.83675363323822    
160.732910179973     0.993363928561546    -3.87949437553141    0.067797574654778    82.4463393762624     0.067797574654778    82.4463393762624     0.993363928561546    -3.87949437553141    
161.84609787726      0.993256484246008    -3.92240247504789    0.06854681243718     82.3963258325316     0.06854681243718     82.3963258325316     0.993256484246008    -3.92240247504789    
162.966995177068     0.993147451240733    -3.96547961226416    0.069299003154589    82.3457705832581     0.069299003154589    82.3457705832581     0.993147451240733    -3.96547961226416    
164.095655473779     0.993036810505562    -4.00872746852374    0.070054176019452    82.294677922723      0.070054176019452    82.294677922723      0.993036810505562    -4.00872746852374    
165.232132531571     0.992924542747688    -4.05214772597515    0.070812360261855    82.2430518837032     0.070812360261855    82.2430518837032     0.992924542747688    -4.05214772597515    
166.376480486976     0.992810628419346    -4.095742067507      0.07157358512826     82.1908962491137     0.07157358512826     82.1908962491137     0.992810628419346    -4.095742067507      
167.528753851458     0.992695047715475    -4.13951217668068    0.072337879880221    82.1382145630226     0.072337879880221    82.1382145630226     0.992695047715475    -4.13951217668068    
168.689007514013     0.992577780571382    -4.18345973766034    0.073105273793049    82.085010141081      0.073105273793049    82.085010141081      0.992577780571382    -4.18345973766034    
169.857296743779     0.992458806660387    -4.22758643514029    0.073875796154463    82.0312860804008     0.073875796154463    82.0312860804008     0.992458806660387    -4.22758643514029    
171.033677192674     0.992338105391455    -4.27189395426923    0.074649476263175    81.9770452689181     0.074649476263175    81.9770452689181     0.992338105391455    -4.27189395426923    
172.218204898043     0.99221565590682     -4.31638398057252    0.075426343427457    81.9222903942713     0.075426343427457    81.9222903942713     0.99221565590682     -4.31638398057252    
173.410936285328     0.992091437079605    -4.36105819987051    0.076206426963655    81.8670239522245     0.076206426963655    81.8670239522245     0.992091437079605    -4.36105819987051    
174.61192817076      0.991965427511416    -4.40591829819507    0.076989756194665    81.8112482546628     0.076989756194665    81.8112482546628     0.991965427511416    -4.40591829819507    
175.821237764058     0.991837605529947    -4.45096596170212    0.077776360448365    81.7549654371873     0.077776360448365    81.7549654371873     0.991837605529947    -4.45096596170212    
177.03892267116      0.991707949186556    -4.49620287658236    0.078566269056005    81.6981774663297     0.078566269056005    81.6981774663297     0.991707949186556    -4.49620287658236    
178.265040896966     0.991576436253851    -4.54163072896757    0.079359511350545    81.6408861464138     0.079359511350545    81.6408861464138     0.991576436253851    -4.54163072896757    
179.499650848101     0.991443044223255    -4.58725120483497    0.080156116664952    81.5830931260799     0.080156116664952    81.5830931260799     0.991443044223255    -4.58725120483497    
180.742811335693     0.991307750302574    -4.6330659899078     0.080956114330451    81.5247999044957     0.080956114330451    81.5247999044957     0.991307750302574    -4.6330659899078     
181.994581578183     0.99117053141355     -4.67907676955293    0.08175953367472     81.4660078372679     0.08175953367472     81.4660078372679     0.99117053141355     -4.67907676955293    
183.255021204137     0.991031364189416    -4.72528522867496    0.082566404020041    81.4067181420758     0.082566404020041    81.4067181420758     0.991031364189416    -4.72528522867496    
184.524190255094     0.990890224972442    -4.77169305160723    0.083376754681395    81.3469319040394     0.083376754681395    81.3469319040394     0.990890224972442    -4.77169305160723    
185.802149188419     0.990747089811478    -4.81830192199956    0.084190614964517    81.2866500808379     0.084190614964517    81.2866500808379     0.990747089811478    -4.81830192199956    
187.08895888019      0.990601934459497    -4.86511352270183    0.085008014163874    81.2258735075945     0.085008014163874    81.2258735075945     0.990601934459497    -4.86511352270183    
188.384680628092     0.990454734371125    -4.91212953564513    0.08582898156062     81.1646029015369     0.08582898156062     81.1646029015369     0.990454734371125    -4.91212953564513    
189.68937615434      0.990305464700184    -4.95935164171835    0.086653546420464    81.1028388664499     0.086653546420464    81.1028388664499     0.990305464700184    -4.95935164171835    
191.003107608618     0.990154100297223    -5.00678152064214    0.087481737991514    81.0405818969282     0.087481737991514    81.0405818969282     0.990154100297223    -5.00678152064214    
192.325937571042     0.990000615707053    -5.05442085083789    0.08831358550203     80.9778323824431     0.08831358550203     80.9778323824431     0.990000615707053    -5.05442085083789    
193.657929055136     0.989844985166284    -5.10227130929445    0.089149118158148    80.9145906112304     0.089149118158148    80.9145906112304     0.989844985166284    -5.10227130929445    
194.999145510839     0.98968718260086     -5.15033457142971    0.089988365141527    80.8508567740126     0.089988365141527    80.8508567740126     0.98968718260086     -5.15033457142971    
196.349650827523     0.989527181623602    -5.19861231094964    0.090831355606941    80.7866309675602     0.090831355606941    80.7866309675602     0.989527181623602    -5.19861231094964    
197.709509337041     0.989364955531747    -5.24710619970189    0.091678118679812    80.7219131981054     0.091678118679812    80.7219131981054     0.989364955531747    -5.24710619970189    
199.078785816789     0.989200477304503    -5.29581790752683    0.092528683453673    80.6567033846114     0.092528683453673    80.6567033846114     0.989200477304503    -5.29581790752683    
200.457545492788     0.989033719600598    -5.34474910210356    0.093383078987578    80.5910013619088     0.093383078987578    80.5910013619088     0.989033719600598    -5.34474910210356    
201.845854042799     0.988864654755842    -5.39390144879221    0.094241334303435    80.5248068837036     0.094241334303435    80.5248068837036     0.988864654755842    -5.39390144879221    
203.243777599445     0.988693254780697    -5.44327661047223    0.095103478383289    80.4581196254644     0.095103478383289    80.4581196254644     0.988693254780697    -5.44327661047223    
204.651382753366     0.988519491357858    -5.49287624737564    0.095969540166518    80.3909391871962     0.095969540166518    80.3909391871962     0.988519491357858    -5.49287624737564    
206.068736556385     0.988343335839834    -5.54270201691714    0.096839548546984    80.3232650961045     0.096839548546984    80.3232650961045     0.988343335839834    -5.54270201691714    
207.495906524709     0.988164759246553    -5.59275557351898    0.097713532370098    80.2550968091563     0.097713532370098    80.2550968091563     0.988164759246553    -5.59275557351898    
208.93296064214      0.987983732262973    -5.64303856843121    0.09859152042982     80.186433715546      0.09859152042982     80.186433715546      0.987983732262973    -5.64303856843121    
210.379967363316     0.987800225236708    -5.69355264954846    0.099473541465593    80.1172751390653     0.099473541465593    80.1172751390653     0.987800225236708    -5.69355264954846    
211.836995616972     0.987614208175672    -5.74429946122115    0.100359624159203    80.0476203403883     0.100359624159203    80.0476203403883     0.987614208175672    -5.74429946122115    
213.304114809222     0.987425650745729    -5.79528064406223    0.101249797131557    79.9774685192718     0.101249797131557    79.9774685192718     0.987425650745729    -5.79528064406223    
214.781394826864     0.987234522268383    -5.84649783474948    0.102144088939405    79.9068188166771     0.102144088939405    79.9068188166771     0.987234522268383    -5.84649783474948    
216.268906040715     0.987040791718459    -5.8979526658233     0.103042528071971    79.8356703168164     0.103042528071971    79.8356703168164     0.987040791718459    -5.8979526658233     
217.766719308955     0.986844427721832    -5.94964676547817    0.103945142947515    79.7640220491297     0.103945142947515    79.7640220491297     0.986844427721832    -5.94964676547817    
219.274905980508     0.986645398553152    -6.00158175735118    0.104851961909817    79.6918729901912     0.104851961909817    79.6918729901912     0.986645398553152    -6.00158175735118    
220.793537898439     0.986443672133622    -6.05375926030426    0.105763013224591    79.6192220655551     0.105763013224591    79.6192220655551     0.986443672133622    -6.05375926030426    
222.322687403379     0.986239216028774    -6.10618088820126    0.106678325075798    79.5460681515381     0.106678325075798    79.5460681515381     0.986239216028774    -6.10618088820126    
223.862427336963     0.98603199744629     -6.15884824968098    0.107597925561907    79.472410076945      0.107597925561907    79.472410076945      0.98603199744629     -6.15884824968098    
225.41283104531      0.985821983233846    -6.21176294792343    0.108521842692054    79.39824662474       0.108521842692054    79.39824662474       0.985821983233846    -6.21176294792343    
226.97397238251      0.985609139876983    -6.26492658041219    0.109450104382128    79.3235765336659     0.109450104382128    79.3235765336659     0.985609139876983    -6.26492658041219    
228.545925714144     0.985393433497019    -6.31834073869102    0.110382738450781    79.248398499812      0.110382738450781    79.248398499812      0.985393433497019    -6.31834073869102    
230.128765920828     0.985174829848986    -6.37200700811381    0.11131977261533     79.1727111781395     0.11131977261533     79.1727111781395     0.985174829848986    -6.37200700811381    
231.722568401777     0.984953294319609    -6.42592696759104    0.112261234487607    79.0965131839578     0.112261234487607    79.0965131839578     0.984953294319609    -6.42592696759104    
233.327409078399     0.984728791925316    -6.48010218932934    0.113207151569693    79.0198030943616     0.113207151569693    79.0198030943616     0.984728791925316    -6.48010218932934    
234.943364397912     0.9845012873103      -6.53453423856526    0.114157551249586    78.9425794496271     0.114157551249586    78.9425794496271     0.9845012873103      -6.53453423856526    
236.570511336981     0.984270744744609    -6.58922467329464    0.115112460796776    78.8648407545702     0.115112460796776    78.8648407545702     0.984270744744609    -6.58922467329464    
238.208927405392     0.984037128122287    -6.64417504399377    0.116071907357717    78.7865854798699     0.116071907357717    78.7865854798699     0.984037128122287    -6.64417504399377    
239.858690649739     0.983800400959561    -6.69938689333805    0.11703591795124     78.7078120633552     0.11703591795124     78.7078120633552     0.983800400959561    -6.69938689333805    
241.519879657141     0.983560526393073    -6.75486175591084    0.118004519463835    78.6285189112632     0.118004519463835    78.6285189112632     0.983560526393073    -6.75486175591084    
243.192573558991     0.983317467178161    -6.81060115790962    0.118977738644886    78.548704399463      0.118977738644886    78.548704399463      0.983317467178161    -6.81060115790962    
244.876852034721     0.983071185687202    -6.86660661684417    0.119955602101777    78.4683668746534     0.119955602101777    78.4683668746534     0.983071185687202    -6.86660661684417    
246.572795315598     0.982821643907996    -6.92287964122844    0.120938136294922    78.3875046555327     0.120938136294922    78.3875046555327     0.982821643907996    -6.92287964122844    
248.280484188547     0.982568803442213    -6.97942173026791    0.121925367532702    78.306116033941      0.121925367532702    78.306116033941      0.982568803442213    -6.97942173026791    
250                  0.982312625503906    -7.03623437353829    0.122917321966299    78.2241992759802     0.122917321966299    78.2241992759802     0.982312625503906    -7.03623437353829    
