# MHz S MA R 50      
!Freq                MagS11               AngS11               MagS21               AngS21               MagS12               AngS12               MagS22               AngS22               
1                    0.001518409811879    19.3996826196131     0.998567926033868    -0.028938500276167   0.998567926033868    -0.028938500276167   0.001518409811879    19.3996826196131     
1.01114647674837     0.001521513004662    19.5830221472495     0.99856662637868     -0.029261024554839   0.99856662637868     -0.029261024554839   0.001521513004662    19.5830221472495     
1.02241719744064     0.001524659792201    19.767735064051      0.998565319455554    -0.029587143204479   0.998565319455554    -0.029587143204479   0.001524659792201    19.767735064051      
1.03381354695905     0.001527850901199    19.9538229489039     0.998564005223058    -0.029916896278932   0.998564005223058    -0.029916896278932   0.001527850901199    19.9538229489039     
1.04533692562238     0.00153108706996     20.1412871461106     0.998562683639497    -0.030250324278326   0.998562683639497    -0.030250324278326   0.00153108706996     20.1412871461106     
1.05698874935804     0.001534369048536    20.3301287599402     0.998561354662929    -0.030587468154038   0.998561354662929    -0.030587468154038   0.001534369048536    20.3301287599402     
1.06877044987605     0.001537697598858    20.5203486491747     0.998560018251146    -0.030928369313721   0.998560018251146    -0.030928369313721   0.001537697598858    20.5203486491747     
1.08068347484494     0.00154107349488     20.7119474216505     0.998558674361699    -0.031273069626388   0.998558674361699    -0.031273069626388   0.00154107349488     20.7119474216505     
1.09272928806965     0.001544497522713    20.904925428805      0.998557322951856    -0.031621611427551   0.998557322951856    -0.031621611427551   0.001544497522713    20.904925428805      
1.10490936967138     0.001547970480767    21.0992827602289     0.998555963978618    -0.031974037524417   0.998555963978618    -0.031974037524417   0.001547970480767    21.0992827602289     
1.11722521626948     0.001551493179887    21.2950192382314     0.998554597398753    -0.032330391201145   0.998554597398753    -0.032330391201145   0.001551493179887    21.2950192382314     
1.12967834116532     0.00155506644349     21.4921344124242     0.998553223168721    -0.032690716224153   0.998553223168721    -0.032690716224153   0.00155506644349     21.4921344124242     
1.14227027452825     0.001558691107706    21.6906275543281     0.998551841244737    -0.033055056847498   0.998551841244737    -0.033055056847498   0.001558691107706    21.6906275543281     
1.15500256358364     0.001562368021513    21.8904976520081     0.998550451582728    -0.0334234578183     0.998550451582728    -0.0334234578183     0.001562368021513    21.8904976520081     
1.16787677280293     0.001566098046872    22.0917434047441     0.998549054138362    -0.033795964382242   0.998549054138362    -0.033795964382242   0.001566098046872    22.0917434047441     
1.18089448409594     0.001569882058868    22.2943632177422     0.998547648867026    -0.034172622289117   0.998547648867026    -0.034172622289117   0.001569882058868    22.2943632177422     
1.1940572970052      0.001573720945842    22.4983551968908     0.998546235723818    -0.034553477798447   0.998546235723818    -0.034553477798447   0.001573720945842    22.4983551968908     
1.20736682890249     0.00157761560953     22.7037171435731     0.998544814663567    -0.034938577685161   0.998544814663567    -0.034938577685161   0.00157761560953     22.7037171435731     
1.2208247151876      0.001581566965194    22.9104465495365     0.998543385640795    -0.035327969245335   0.998543385640795    -0.035327969245335   0.001581566965194    22.9104465495365     
1.23443260948928     0.001585575941758    23.1185405918277     0.998541948609775    -0.035721700301995   0.998541948609775    -0.035721700301995   0.001585575941758    23.1185405918277     
1.24819218386838     0.001589643481941    23.327996127804      0.998540503524473    -0.036119819210993   0.998540503524473    -0.036119819210993   0.001589643481941    23.327996127804      
1.26210512902337     0.001593770542392    23.5388096902189     0.99853905033855     -0.036522374866935   0.99853905033855     -0.036522374866935   0.001593770542392    23.5388096902189     
1.27617315449802     0.001597958093817    23.7509774823998     0.998537589005394    -0.036929416709187   0.998537589005394    -0.036929416709187   0.001597958093817    23.7509774823998     
1.29039798889153     0.001602207121114    23.964495373515      0.998536119478091    -0.037340994727941   0.998536119478091    -0.037340994727941   0.001602207121114    23.964495373515      
1.30478138007085     0.001606518623499    24.1793588939452     0.998534641709442    -0.037757159470352   0.998534641709442    -0.037757159470352   0.001606518623499    24.1793588939452     
1.31932509538552     0.001610893614641    24.3955632307607     0.998533155651916    -0.038177962046738   0.998533155651916    -0.038177962046738   0.001610893614641    24.3955632307607     
1.33403092188478     0.001615333122782    24.6131032233157     0.998531661257715    -0.038603454136859   0.998531661257715    -0.038603454136859   0.001615333122782    24.6131032233157     
1.34890066653717     0.00161983819087     24.8319733589661     0.998530158478704    -0.039033687996254   0.998530158478704    -0.039033687996254   0.00161983819087     24.8319733589661     
1.36393615645259     0.001624409876682    25.0521677689182     0.99852864726647     -0.039468716462658   0.99852864726647     -0.039468716462658   0.001624409876682    25.0521677689182     
1.37913923910675     0.001629049252946    25.2736802242152     0.998527127572262    -0.039908592962486   0.998527127572262    -0.039908592962486   0.001629049252946    25.2736802242152     
1.39451178256822     0.001633757407468    25.4965041318729     0.998525599347026    -0.04035337151739    0.998525599347026    -0.04035337151739    0.001633757407468    25.4965041318729     
1.41005567572795     0.001638535443253    25.7206325311645     0.998524062541412    -0.040803106750889   0.998524062541412    -0.040803106750889   0.001638535443253    25.7206325311645     
1.42577282853136     0.001643384478623    25.9460580900748     0.998522517105719    -0.041257853895072   0.998522517105719    -0.041257853895072   0.001643384478623    25.9460580900748     
1.44166517221304     0.001648305647336    26.1727731019176     0.998520962989948    -0.041717668797378   0.998520962989948    -0.041717668797378   0.001648305647336    26.1727731019176     
1.45773465953405     0.001653300098706    26.4007694821358     0.99851940014376     -0.042182607927449   0.99851940014376     -0.042182607927449   0.001653300098706    26.4007694821358     
1.47398326502184     0.001658368997717    26.6300387652845     0.998517828516494    -0.042652728384059   0.998517828516494    -0.042652728384059   0.001658368997717    26.6300387652845     
1.49041298521289     0.001663513525139    26.8605721022101     0.998516248057155    -0.043128087902126   0.998516248057155    -0.043128087902126   0.001663513525139    26.8605721022101     
1.50702583889804     0.001668734877636    27.092360257428      0.998514658714434    -0.043608744859794   0.998514658714434    -0.043608744859794   0.001668734877636    27.092360257428      
1.52382386737051     0.001674034267885    27.3253936067129     0.998513060436672    -0.044094758285595   0.998513060436672    -0.044094758285595   0.001674034267885    27.3253936067129     
1.54080913467676     0.001679412924679    27.5596621349031     0.998511453171858    -0.044586187865699   0.998511453171858    -0.044586187865699   0.001679412924679    27.5596621349031     
1.55798372787011     0.001684872093037    27.7951554339311     0.998509836867666    -0.045083093951235   0.998509836867666    -0.045083093951235   0.001684872093037    27.7951554339311     
1.57534975726716     0.001690413034311    28.0318627010867     0.998508211471404    -0.045585537565697   0.998508211471404    -0.045585537565697   0.001690413034311    28.0318627010867     
1.59290935670709     0.00169603702629     28.2697727375169     0.998506576930033    -0.046093580412434   0.998506576930033    -0.046093580412434   0.00169603702629     28.2697727375169     
1.61066468381389     0.001701745363302    28.508873946976      0.998504933190183    -0.046607284882225   0.998504933190183    -0.046607284882225   0.001701745363302    28.508873946976      
1.62861792026144     0.001707539356316    28.7491543348266     0.998503280198105    -0.047126714060928   0.998503280198105    -0.047126714060928   0.001707539356316    28.7491543348266     
1.64677127204161     0.001713420333041    28.9906015073034     0.998501617899695    -0.047651931737229   0.998501617899695    -0.047651931737229   0.001713420333041    28.9906015073034     
1.66512696973531     0.001719389638022    29.2332026710427     0.998499946240517    -0.048183002410467   0.998499946240517    -0.048183002410467   0.001719389638022    29.2332026710427     
1.68368726878655     0.001725448632739    29.4769446328867     0.998498265165726    -0.048719991298548   0.998498265165726    -0.048719991298548   0.001725448632739    29.4769446328867     
1.70245444977961     0.001731598695697    29.7218137999681     0.998496574620143    -0.04926296434595    0.998496574620143    -0.04926296434595    0.001731598695697    29.7218137999681     
1.72143081871923     0.001737841222521    29.9677961800803     0.998494874548194    -0.049811988231815   0.998494874548194    -0.049811988231815   0.001737841222521    29.9677961800803     
1.74061870731402     0.001744177626047    30.2148773823385     0.998493164893958    -0.05036713037813    0.998493164893958    -0.05036713037813    0.001744177626047    30.2148773823385     
1.76002047326287     0.001750609336407    30.463042618141      0.998491445601104    -0.050928458958001   0.998491445601104    -0.050928458958001   0.001750609336407    30.463042618141      
1.77963850054475     0.001757137801119    30.7122767024307     0.998489716612932    -0.05149604290402    0.998489716612932    -0.05149604290402    0.001757137801119    30.7122767024307     
1.79947519971158     0.001763764485172    30.9625640552626     0.998487977872369    -0.052069951916723   0.998487977872369    -0.052069951916723   0.001763764485172    30.9625640552626     
1.81953300818443     0.001770490871107    31.213888703686      0.998486229321934    -0.052650256473139   0.998486229321934    -0.052650256473139   0.001770490871107    31.213888703686      
1.83981439055305     0.001777318459106    31.46623428394       0.998484470903763    -0.053237027835446   0.998484470903763    -0.053237027835446   0.001777318459106    31.46623428394       
1.86032183887867     0.001784248767061    31.7195840439688     0.998482702559577    -0.053830338059707   0.998482702559577    -0.053830338059707   0.001784248767061    31.7195840439688     
1.88105787300022     0.001791283330664    31.9739208462616     0.998480924230731    -0.054430260004717   0.998480924230731    -0.054430260004717   0.001791283330664    31.9739208462616     
1.90202504084395     0.001798423703479    32.2292271710138     0.998479135858132    -0.05503686734094    0.998479135858132    -0.05503686734094    0.001798423703479    32.2292271710138     
1.92322591873654     0.001805671457015    32.4854851196201     0.998477337382314    -0.055650234559553   0.998477337382314    -0.055650234559553   0.001805671457015    32.4854851196201     
1.9446631117216      0.001813028180808    32.7426764184948     0.998475528743377    -0.05627043698158    0.998475528743377    -0.05627043698158    0.001813028180808    32.7426764184948     
1.96633925387982     0.001820495482487    33.0007824232247     0.998473709881004    -0.056897550767139   0.998473709881004    -0.056897550767139   0.001820495482487    33.0007824232247     
1.9882570086526      0.001828074987851    33.259784123054      0.998471880734465    -0.057531652924784   0.998471880734465    -0.057531652924784   0.001828074987851    33.259784123054      
2.01041906916933     0.001835768340934    33.5196621457014     0.998470041242599    -0.058172821320954   0.998470041242599    -0.058172821320954   0.001835768340934    33.5196621457014     
2.0328281585783      0.001843577204083    33.7803967625105     0.998468191343819    -0.058821134689532   0.998468191343819    -0.058821134689532   0.001843577204083    33.7803967625105     
2.05548703038133     0.001851503258015    34.0419678939315     0.998466330976107    -0.059476672641496   0.998466330976107    -0.059476672641496   0.001851503258015    34.0419678939315     
2.07839846877205     0.001859548201896    34.3043551153375     0.998464460076978    -0.060139515674696   0.998464460076978    -0.060139515674696   0.001859548201896    34.3043551153375     
2.10156528897807     0.0018677137534      34.5675376631628     0.998462578583531    -0.060809745183724   0.998462578583531    -0.060809745183724   0.0018677137534      34.5675376631628     
2.12499033760685     0.001876001648778    34.8314944413788     0.998460686432415    -0.061487443469906   0.998460686432415    -0.061487443469906   0.001876001648778    34.8314944413788     
2.14867649299549     0.001884413642921    35.0962040282863     0.998458783559817    -0.062172693751395   0.998458783559817    -0.062172693751395   0.001884413642921    35.0962040282863     
2.17262666556444     0.001892951509428    35.361644683633      0.998456869901474    -0.062865580173386   0.998456869901474    -0.062865580173386   0.001892951509428    35.361644683633      
2.19684379817504     0.001901617040669    35.6277943560483     0.998454945392637    -0.063566187818434   0.998454945392637    -0.063566187818434   0.001901617040669    35.6277943560483     
2.2213308664912      0.001910412047846    35.8946306907901     0.998453009968124    -0.064274602716897   0.998453009968124    -0.064274602716897   0.001910412047846    35.8946306907901     
2.24609087934498     0.001919338361061    36.1621310378034     0.998451063562257    -0.06499091185749    0.998451063562257    -0.06499091185749    0.001919338361061    36.1621310378034     
2.27112687910633     0.001928397829376    36.430272460076      0.998449106108879    -0.065715203197956   0.998449106108879    -0.065715203197956   0.001928397829376    36.430272460076      
2.29644194205689     0.001937592320881    36.6990317422975     0.998447137541361    -0.066447565675859   0.998447137541361    -0.066447565675859   0.001937592320881    36.6990317422975     
2.32203917876801     0.001946923722753    36.9683853998034     0.998445157792589    -0.067188089219494   0.998445157792589    -0.067188089219494   0.001946923722753    36.9683853998034     
2.34792173448295     0.001956393941323    37.2383096878057     0.998443166794937    -0.067936864758919   0.998443166794937    -0.067936864758919   0.001956393941323    37.2383096878057     
2.37409278950336     0.001966004902141    37.5087806108948     0.998441164480289    -0.068693984237112   0.998441164480289    -0.068693984237112   0.001966004902141    37.5087806108948     
2.40055555958003     0.00197575855004     37.7797739328154     0.998439150780022    -0.06945954062125    0.998439150780022    -0.06945954062125    0.00197575855004     37.7797739328154     
2.42731329630806     0.001985656849203    38.0512651864924     0.99843712562502     -0.070233627914116   0.99843712562502     -0.070233627914116   0.001985656849203    38.0512651864924     
2.45436928752637     0.00199570178323     38.3232296843126     0.998435088945618    -0.071016341165625   0.998435088945618    -0.071016341165625   0.00199570178323     38.3232296843126     
2.4817268577217      0.002005895355204    38.5956425286408     0.998433040671648    -0.071807776484492   0.998433040671648    -0.071807776484492   0.002005895355204    38.5956425286408     
2.5093893684371      0.002016239587764    38.8684786225698     0.998430980732431    -0.072608031050018   0.998430980732431    -0.072608031050018   0.002016239587764    38.8684786225698     
2.53736021868499     0.002026736523173    39.1417126808854     0.998428909056713    -0.073417203124012   0.998428909056713    -0.073417203124012   0.002026736523173    39.1417126808854     
2.5656428453648      0.002037388223391    39.4153192412382     0.99842682557273     -0.074235392062846   0.99842682557273     -0.074235392062846   0.002037388223391    39.4153192412382     
2.59424072368529     0.002048196770148    39.6892726755141     0.998424730208161    -0.07506269832964    0.998424730208161    -0.07506269832964    0.002048196770148    39.6892726755141     
2.62315736759152     0.002059164265024    39.9635472013864     0.998422622890138    -0.075899223506593   0.998422622890138    -0.075899223506593   0.002059164265024    39.9635472013864     
2.6523963301967      0.002070292829519    40.2381168940385     0.998420503545217    -0.076745070307434   0.998420503545217    -0.076745070307434   0.002070292829519    40.2381168940385     
2.6819612042187      0.002081584605143    40.5129556980481     0.998418372099428    -0.077600342590032   0.998418372099428    -0.077600342590032   0.002081584605143    40.5129556980481     
2.71185562242155     0.00209304175349     40.7880374394137     0.998416228478177    -0.078465145369127   0.998416228478177    -0.078465145369127   0.00209304175349     40.7880374394137     
2.74208325806181     0.002104666456329    41.0633358377156     0.998414072606322    -0.079339584829218   0.998414072606322    -0.079339584829218   0.002104666456329    41.0633358377156     
2.77264782533989     0.002116460915686    41.338824518393      0.998411904408129    -0.080223768337583   0.998411904408129    -0.080223768337583   0.002116460915686    41.338824518393      
2.80355307985646     0.002128427353943    41.6144770251298     0.998409723807256    -0.081117804457453   0.998409723807256    -0.081117804457453   0.002128427353943    41.6144770251298     
2.83480281907391     0.002140568013923    41.8902668323258     0.998407530726797    -0.08202180296133    0.998407530726797    -0.08202180296133    0.002140568013923    41.8902668323258     
2.86640088278293     0.002152885158993    42.1661673576477     0.9984053250892      -0.082935874844443   0.9984053250892      -0.082935874844443   0.002152885158993    42.1661673576477     
2.89835115357438     0.002165381073163    42.4421519746409     0.998403106816308    -0.083860132338371   0.998403106816308    -0.083860132338371   0.002165381073163    42.4421519746409     
2.93065755731631     0.002178058061188    42.7181940253885     0.998400875829355    -0.084794688924805   0.998400875829355    -0.084794688924805   0.002178058061188    42.7181940253885     
2.96332406363637     0.002190918448681    42.9942668332016     0.998398632048931    -0.085739659349472   0.998398632048931    -0.085739659349472   0.002190918448681    42.9942668332016     
2.99635468640958     0.002203964582217    43.2703437153283     0.998396375394986    -0.086695159636197   0.998396375394986    -0.086695159636197   0.002203964582217    43.2703437153283     
3.02975348425152     0.002217198829458    43.5463979956657     0.998394105786833    -0.087661307101151   0.998394105786833    -0.087661307101151   0.002217198829458    43.5463979956657     
3.06352456101702     0.002230623579264    43.8224030174586     0.998391823143122    -0.088638220367223   0.998391823143122    -0.088638220367223   0.002230623579264    43.8224030174586     
3.09767206630446     0.002244241241825    44.0983321559731     0.998389527381846    -0.089626019378582   0.998389527381846    -0.089626019378582   0.002244241241825    44.0983321559731     
3.1322001959656      0.002258054248786    44.3741588311268     0.998387218420333    -0.090624825415381   0.998387218420333    -0.090624825415381   0.002258054248786    44.3741588311268     
3.16711319262117     0.002272065053383    44.6498565200641     0.99838489617521     -0.091634761108634   0.99838489617521     -0.091634761108634   0.002272065053383    44.6498565200641     
3.20241534618218     0.002286276130578    44.9253987696598     0.998382560562436    -0.092655950455252   0.998382560562436    -0.092655950455252   0.002286276130578    44.9253987696598     
3.23811099437702     0.002300689977209    45.2007592089391     0.998380211497265    -0.093688518833258   0.998380211497265    -0.093688518833258   0.002300689977209    45.2007592089391     
3.27420452328449     0.002315309112133    45.475911561396      0.99837784889423     -0.094732593017156   0.99837784889423     -0.094732593017156   0.002315309112133    45.475911561396      
3.31070036787269     0.002330136076382    45.7508296571992     0.998375472667189    -0.095788301193486   0.998375472667189    -0.095788301193486   0.002330136076382    45.7508296571992     
3.347603012544       0.002345173433326    46.0254874452741     0.99837308272923     -0.096855772976537   0.99837308272923     -0.096855772976537   0.002345173433326    46.0254874452741     
3.3849169916861      0.002360423768833    46.2998590052377     0.99837067899273     -0.097935139424246   0.99837067899273     -0.097935139424246   0.002360423768833    46.2998590052377     
3.42264689022909     0.002375889691443    46.573918559187      0.998368261369316    -0.099026533054274   0.998368261369316    -0.099026533054274   0.002375889691443    46.573918559187      
3.46079734420892     0.002391573832545    46.8476404833153     0.998365829769858    -0.100130087860249   0.998365829769858    -0.100130087860249   0.002391573832545    46.8476404833153     
3.49937304133696     0.002407478846559    47.120999319353      0.998363384104468    -0.101245939328207   0.998363384104468    -0.101245939328207   0.002407478846559    47.120999319353      
3.5383787215761      0.002423607411126    47.3939697858154     0.998360924282486    -0.102374224453202   0.998360924282486    -0.102374224453202   0.002423607411126    47.3939697858154     
3.57781917772308     0.002439962227299    47.666526789048      0.998358450212458    -0.103515081756102   0.998358450212458    -0.103515081756102   0.002439962227299    47.666526789048      
3.61769925599744     0.002456546019751    47.938645434059      0.998355961802123    -0.104668651300581   0.998355961802123    -0.104668651300581   0.002456546019751    47.938645434059      
3.65802385663701     0.002473361536979    48.2103010351242     0.998353458958448    -0.105835074710296   0.998353458958448    -0.105835074710296   0.002473361536979    48.2103010351242     
3.6987979345         0.002490411551516    48.4814691261594     0.998350941587554    -0.107014495186247   0.998350941587554    -0.107014495186247   0.002490411551516    48.4814691261594     
3.74002649967383     0.002507698860157    48.7521254708447     0.998348409594734    -0.10820705752434    0.998348409594734    -0.10820705752434    0.002507698860157    48.7521254708447     
3.78171461809073     0.002525226284184    49.0222460724958     0.998345862884458    -0.109412908133142   0.998345862884458    -0.109412908133142   0.002525226284184    49.0222460724958     
3.82386741215025     0.0025429966696      49.2918071836713     0.998343301360326    -0.110632195051834   0.998343301360326    -0.110632195051834   0.0025429966696      49.2918071836713     
3.86649006134864     0.002561012887371    49.5607853155072     0.998340724925078    -0.11186506796836    0.998340724925078    -0.11186506796836    0.002561012887371    49.5607853155072     
3.90958780291526     0.002579277833674    49.8291572467716     0.998338133480587    -0.113111678237786   0.998338133480587    -0.113111678237786   0.002579277833674    49.8291572467716     
3.95316593245617     0.002597794430153    50.0969000326332     0.998335526927823    -0.114372178900853   0.998335526927823    -0.114372178900853   0.002597794430153    50.0969000326332     
3.99722980460475     0.002616565624179    50.3639910131326     0.998332905166858    -0.115646724702743   0.998332905166858    -0.115646724702743   0.002616565624179    50.3639910131326     
4.04178483367967     0.002635594389122    50.6304078213571     0.998330268096863    -0.116935472112056   0.998330268096863    -0.116935472112056   0.002635594389122    50.6304078213571     
4.08683649435019     0.002654883724626    50.8961283913064     0.99832761561606     -0.118238579339988   0.99832761561606     -0.118238579339988   0.002654883724626    50.8961283913064     
4.13239032230886     0.002674436656893    51.1611309654479     0.998324947621756    -0.119556206359735   0.998324947621756    -0.119556206359735   0.002674436656893    51.1611309654479     
4.17845191495167     0.002694256238974    51.4253941019567     0.998322264010279    -0.120888514926101   0.998322264010279    -0.120888514926101   0.002694256238974    51.4253941019567     
4.22502693206586     0.002714345551068    51.6888966816348     0.998319564676997    -0.12223566859533    0.998319564676997    -0.12223566859533    0.002714345551068    51.6888966816348     
4.27212109652537     0.002734707700826    51.9516179145077     0.998316849516287    -0.123597832745162   0.998316849516287    -0.123597832745162   0.002734707700826    51.9516179145077     
4.31974019499401     0.002755345823667    52.2135373460945     0.998314118421556    -0.124975174595104   0.998314118421556    -0.124975174595104   0.002755345823667    52.2135373460945     
4.36789007863652     0.002776263083095    52.47463486335       0.99831137128518     -0.126367863226933   0.99831137128518     -0.126367863226933   0.002776263083095    52.47463486335       
4.41657666383748     0.00279746267103     52.7348907002757     0.998308607998492    -0.127776069605421   0.998308607998492    -0.127776069605421   0.00279746267103     52.7348907002757     
4.46580593292834     0.002818947808142    52.9942854431989     0.99830582845181     -0.129199966599296   0.99830582845181     -0.129199966599296   0.002818947808142    52.9942854431989     
4.51558393492246     0.002840721744193    53.2528000357214     0.998303032534383    -0.130639729002435   0.998303032534383    -0.130639729002435   0.002840721744193    53.2528000357214     
4.56591678625839     0.002862787758389    53.5104157833341     0.998300220134391    -0.132095533555292   0.998300220134391    -0.132095533555292   0.002862787758389    53.5104157833341     
4.61681067155141     0.002885149159736    53.7671143576987     0.998297391138913    -0.133567558966556   0.998297391138913    -0.133567558966556   0.002885149159736    53.7671143576987     
4.66827184435349     0.002907809287409    54.0228778006014     0.998294545433922    -0.13505598593507    0.998294545433922    -0.13505598593507    0.002907809287409    54.0228778006014     
4.72030662792165     0.002930771511119    54.2776885275726     0.998291682904282    -0.136560997171972   0.998291682904282    -0.136560997171972   0.002930771511119    54.2776885275726     
4.77292141599495     0.0029540392315      54.5315293311798     0.998288803433709    -0.138082777423095   0.998288803433709    -0.138082777423095   0.0029540392315      54.5315293311798     
4.82612267358014     0.002977615880489    54.7843833839974     0.998285906904754    -0.139621513491611   0.998285906904754    -0.139621513491611   0.002977615880489    54.7843833839974     
4.87991693774598     0.00300150492173     55.0362342412476     0.998282993198787    -0.141177394260931   0.998282993198787    -0.141177394260931   0.00300150492173     55.0362342412476     
4.93431081842655     0.00302570985097     55.2870658431258     0.998280062196008    -0.142750610717853   0.998280062196008    -0.142750610717853   0.00302570985097     55.2870658431258     
4.98931099923338     0.003050234196473    55.5368625168071     0.998277113775373    -0.144341355975973   0.998277113775373    -0.144341355975973   0.003050234196473    55.5368625168071     
5.04492423827672     0.003075081519435    55.7856089781402     0.998274147814635    -0.145949825299358   0.998274147814635    -0.145949825299358   0.003075081519435    55.7856089781402     
5.10115736899596     0.003100255414413    56.0332903330337     0.998271164190269    -0.147576216126471   0.998271164190269    -0.147576216126471   0.003100255414413    56.0332903330337     
5.15801730099925     0.003125759509753    56.2798920785383     0.998268162777496    -0.149220728094376   0.998268162777496    -0.149220728094376   0.003125759509753    56.2798920785383     
5.21551102091254     0.003151597468033    56.5254001036286     0.998265143450232    -0.150883563063201   0.998265143450232    -0.150883563063201   0.003151597468033    56.5254001036286     
5.27364559323801     0.003177772986511    56.7698006896934     0.998262106081094    -0.152564925140883   0.998262106081094    -0.152564925140883   0.003177772986511    56.7698006896934     
5.33242816122218     0.003204289797577    57.0130805107379     0.998259050541362    -0.154265020708176   0.998259050541362    -0.154265020708176   0.003204289797577    57.0130805107379     
5.3918659477336      0.003231151669216    57.2552266333021     0.998255976700954    -0.155984058443951   0.998255976700954    -0.155984058443951   0.003231151669216    57.2552266333021     
5.45196625615034     0.00325836240548     57.4962265161054     0.998252884428405    -0.157722249350756   0.998252884428405    -0.157722249350756   0.00325836240548     57.4962265161054     
5.51273647125742     0.00328592584696     57.7360680094212     0.998249773590884    -0.159479806780697   0.998249773590884    -0.159479806780697   0.00328592584696     57.7360680094212     
5.57418406015419     0.003313845871276    57.9747393541866     0.998246644054104    -0.161256946461558   0.998246644054104    -0.161256946461558   0.003313845871276    57.9747393541866     
5.63631657317184     0.003342126393563    58.21222918086       0.998243495682339    -0.163053886523254   0.998243495682339    -0.163053886523254   0.003342126393563    58.21222918086       
5.69914164480115     0.003370771366972    58.4485265080254     0.9982403283384      -0.16487084752455    0.9982403283384      -0.16487084752455    0.003370771366972    58.4485265080254     
5.7626669946306      0.003399784783175    58.683620740759      0.998237141883618    -0.1667080524801     0.998237141883618    -0.1667080524801     0.003399784783175    58.683620740759      
5.82690042829485     0.003429170672878    58.9175016687573     0.998233936177784    -0.168565726887759   0.998233936177784    -0.168565726887759   0.003429170672878    58.9175016687573     
5.89184983843391     0.003458933106344    59.1501594642414     0.998230711079155    -0.170444098756225   0.998230711079155    -0.170444098756225   0.003458933106344    59.1501594642414     
5.9575232056629      0.003489076193913    59.3815846796397     0.998227466444419    -0.17234339863297    0.998227466444419    -0.17234339863297    0.003489076193913    59.3815846796397     
6.0239285995527      0.003519604086543    59.6117682450597     0.998224202128677    -0.174263859632496   0.998224202128677    -0.174263859632496   0.003519604086543    59.6117682450597     
6.09107417962146     0.003550520976352    59.8407014655558     0.998220917985396    -0.176205717464884   0.998220917985396    -0.176205717464884   0.003550520976352    59.8407014655558     
6.15896819633721     0.003581831097159    60.0683760182003     0.998217613866401    -0.178169210464685   0.998217613866401    -0.178169210464685   0.003581831097159    60.0683760182003     
6.22761899213163     0.003613538725047    60.2947839489651     0.998214289621829    -0.180154579620116   0.998214289621829    -0.180154579620116   0.003613538725047    60.2947839489651     
6.29703500242514     0.003645648178924    60.5199176694253     0.99821094510014     -0.182162068602584   0.99821094510014     -0.182162068602584   0.003645648178924    60.5199176694253     
6.36722475666335     0.003678163821089    60.7437699532874     0.99820758014803     -0.184191923796538   0.99820758014803     -0.184191923796538   0.003678163821089    60.7437699532874     
6.43819687936515     0.003711090057813    60.9663339327537     0.998204194610447    -0.186244394329656   0.998204194610447    -0.186244394329656   0.003711090057813    60.9663339327537     
6.50996009118242     0.00374443133992     61.1876030947303     0.998200788330533    -0.188319732103356   0.998200788330533    -0.188319732103356   0.00374443133992     61.1876030947303     
6.58252320997161     0.003778192163381    61.4075712768846     0.998197361149625    -0.190418191823672   0.998197361149625    -0.190418191823672   0.003778192163381    61.4075712768846     
6.65589515187716     0.003812377069906    61.6262326635606     0.998193912907179    -0.19254003103243    0.998193912907179    -0.19254003103243    0.003812377069906    61.6262326635606     
6.73008493242715     0.003846990647553    61.8435817815649     0.998190443440779    -0.194685510138822   0.998190443440779    -0.194685510138822   0.003846990647553    61.8435817815649     
6.80510166764101     0.003882037531341    62.0596134958205     0.998186952586085    -0.196854892451284   0.998186952586085    -0.196854892451284   0.003882037531341    62.0596134958205     
6.88095457514967     0.003917522403862    62.2743230049064     0.998183440176801    -0.199048444209761   0.998183440176801    -0.199048444209761   0.003917522403862    62.2743230049064     
6.95765297532817     0.003953449995913    62.4877058364848     0.998179906044635    -0.201266434618306   0.998179906044635    -0.201266434618306   0.003953449995913    62.4877058364848     
7.0352062924409      0.003989825087125    62.6997578426241     0.99817635001927     -0.203509135878066   0.99817635001927     -0.203509135878066   0.003989825087125    62.6997578426241     
7.11362405579958     0.004026652506603    62.910475195026      0.998172771928356    -0.205776823220612   0.998172771928356    -0.205776823220612   0.004026652506603    62.910475195026      
7.1929159009342      0.004063937133574    63.1198543801646     0.99816917159741     -0.208069774941647   0.99816917159741     -0.208069774941647   0.004063937133574    63.1198543801646     
7.27309157077694     0.004101683898038    63.3278921943409     0.998165548849828    -0.210388272435095   0.998165548849828    -0.210388272435095   0.004101683898038    63.3278921943409     
7.35416091685938     0.004139897781428    63.5345857386636     0.998161903506854    -0.212732600227563   0.998161903506854    -0.212732600227563   0.004139897781428    63.5345857386636     
7.43613390052293     0.004178583817282    63.7399324139613     0.998158235387503    -0.215103046013179   0.998158235387503    -0.215103046013179   0.004178583817282    63.7399324139613     
7.51902059414287     0.004217747091911    63.9439299156325     0.998154544308527    -0.217499900688824   0.998154544308527    -0.217499900688824   0.004217747091911    63.9439299156325     
7.60283118236601     0.004257392745086    64.1465762284396     0.998150830084422    -0.219923458389764   0.998150830084422    -0.219923458389764   0.004257392745086    64.1465762284396     
7.68757596336204     0.004297525970721    64.3478696212553     0.998147092527327    -0.222374016525657   0.998147092527327    -0.222374016525657   0.004297525970721    64.3478696212553     
7.77326535008898     0.004338152017574    64.5478086417643     0.998143331447022    -0.224851875816975   0.998143331447022    -0.224851875816975   0.004338152017574    64.5478086417643     
7.85990987157267     0.004379276189944    64.7463921111292     0.998139546650861    -0.227357340331825   0.998139546650861    -0.227357340331825   0.004379276189944    64.7463921111292     
7.94752017420044     0.004420903848387    64.9436191186247     0.998135737943734    -0.22989071752318    0.998135737943734    -0.22989071752318    0.004420903848387    64.9436191186247     
8.03610702302937     0.004463040410427    65.1394890162466     0.998131905128047    -0.232452318266526   0.998131905128047    -0.232452318266526   0.004463040410427    65.1394890162466     
8.12568130310898     0.004505691351283    65.3340014132999     0.99812804800363     -0.235042456897914   0.99812804800363     -0.235042456897914   0.004505691351283    65.3340014132999     
8.21625402081875     0.0045488622046      65.527156170974      0.99812416636772     -0.23766145125245    0.99812416636772     -0.23766145125245    0.0045488622046      65.527156170974      
8.30783630522052     0.004592558563188    65.718953396906      0.998120260014942    -0.24030962270322    0.998120260014942    -0.24030962270322    0.004592558563188    65.718953396906      
8.40043940942592     0.004636786079765    65.9093934397413     0.998116328737167    -0.242987296200596   0.998116328737167    -0.242987296200596   0.004636786079765    65.9093934397413     
8.49407471197919     0.004681550467715    66.0984768836933     0.998112372323576    -0.245694800312053   0.998112372323576    -0.245694800312053   0.004681550467715    66.0984768836933     
8.58875371825518     0.004726857501845    66.2862045431078     0.99810839056053     -0.248432467262376   0.99810839056053     -0.248432467262376   0.004726857501845    66.2862045431078     
8.6844880618732      0.004772713019151    66.4725774570371     0.998104383231555    -0.251200632974316   0.998104383231555    -0.251200632974316   0.004772713019151    66.4725774570371     
8.78128950612637     0.0048191229196      66.6575968838276     0.998100350117251    -0.25399963710972    0.998100350117251    -0.25399963710972    0.0048191229196      66.6575968838276     
8.87916994542712     0.004866093166909    66.8412642957237     0.998096290995308    -0.256829823111107   0.998096290995308    -0.256829823111107   0.004866093166909    66.8412642957237     
8.97814140676865     0.004913629789332    67.0235813734943     0.998092205640354    -0.259691538243687   0.998092205640354    -0.259691538243687   0.004913629789332    67.0235813734943     
9.07821605120278     0.004961738880467    67.2045500010845     0.99808809382401     -0.262585133637894   0.99808809382401     -0.262585133637894   0.004961738880467    67.2045500010845     
9.1794061753342      0.005010426600055    67.3841722602943     0.998083955314726    -0.265510964332319   0.998083955314726    -0.265510964332319   0.005010426600055    67.3841722602943     
9.2817242128314      0.005059699174795    67.562450425492      0.99807978987779     -0.268469389317182   0.99807978987779     -0.268469389317182   0.005059699174795    67.562450425492      
9.38518273595452     0.005109562899168    67.7393869583598     0.998075597275256    -0.271460771578272   0.998075597275256    -0.271460771578272   0.005109562899168    67.7393869583598     
9.48979445710004     0.005160024136263    67.91498450268       0.998071377265849    -0.274485478141339   0.998071377265849    -0.274485478141339   0.005160024136263    67.91498450268       
9.59557223036292     0.005211089318621    68.0892458791619     0.998067129604948    -0.277543880117026   0.998067129604948    -0.277543880117026   0.005211089318621    68.0892458791619     
9.70252905311597     0.00526276494907     68.2621740803115     0.998062854044511    -0.280636352746274   0.998062854044511    -0.280636352746274   0.00526276494907     68.2621740803115     
9.81067806760692     0.005315057601589    68.4337722653496     0.998058550332967    -0.283763275446223   0.998058550332967    -0.283763275446223   0.005315057601589    68.4337722653496     
9.92003256257325     0.005367973922164    68.6040437551769     0.998054218215214    -0.286925031856647   0.998054218215214    -0.286925031856647   0.005367973922164    68.6040437551769     
10.0306059748751     0.005421520629661    68.7729920273917     0.998049857432498    -0.29012200988688    0.998049857432498    -0.29012200988688    0.005421520629661    68.7729920273917     
10.1424118911461     0.005475704516702    68.94062071136       0.998045467722367    -0.293354601763268   0.998045467722367    -0.293354601763268   0.005475704516702    68.94062071136       
10.2554640494631     0.005530532450554    69.1069335833419     0.998041048818613    -0.296623204077177   0.998041048818613    -0.296623204077177   0.005530532450554    69.1069335833419     
10.3697763410342     0.005586011374025    69.271934561674      0.998036600451174    -0.299928217833472   0.998036600451174    -0.299928217833472   0.005586011374025    69.271934561674      
10.4853628119054     0.005642148306367    69.4356277020113     0.998032122346065    -0.303270048499586   0.998032122346065    -0.303270048499586   0.005642148306367    69.4356277020113     
10.6022376646865     0.005698950344187    69.5980171926297     0.998027614225299    -0.30664910605511    0.998027614225299    -0.30664910605511    0.005698950344187    69.5980171926297     
10.7204152602966     0.005756424662375    69.7591073497898     0.998023075806833    -0.310065805041944   0.998023075806833    -0.310065805041944   0.005756424662375    69.7591073497898     
10.8399101197284     0.005814578515026    69.9189026131648     0.998018506804458    -0.313520564614983   0.998018506804458    -0.313520564614983   0.005814578515026    69.9189026131648     
10.9607369258324     0.00587341923639     70.0774075413313     0.99801390692774     -0.317013808593391   0.99801390692774     -0.317013808593391   0.00587341923639     70.0774075413313     
11.0829105251212     0.00593295424181     70.2346268073272     0.998009275881938    -0.320545965512425   0.998009275881938    -0.320545965512425   0.00593295424181     70.2346268073272     
11.2064459295937     0.005993191028688    70.3905651942757     0.998004613367883    -0.324117468675833   0.998004613367883    -0.324117468675833   0.005993191028688    70.3905651942757     
11.3313583185798     0.006054137177451    70.5452275910753     0.99799991908194     -0.327728756208837   0.99799991908194     -0.327728756208837   0.006054137177451    70.5452275910753     
11.4576630406053     0.006115800352524    70.6986189881596     0.997995192715912    -0.33138027111172    0.997995192715912    -0.33138027111172    0.006115800352524    70.6986189881596     
11.5853756152781     0.006178188303319    70.8507444733252     0.997990433956906    -0.33507246131396    0.997990433956906    -0.33507246131396    0.006178188303319    70.8507444733252     
11.7145117351949     0.006241308865234    71.0016092276286     0.997985642487294    -0.338805779729018   0.997985642487294    -0.338805779729018   0.006241308865234    71.0016092276286     
11.8450872678697     0.006305169960652    71.1512185213533     0.997980817984581    -0.342580684309686   0.997980817984581    -0.342580684309686   0.006305169960652    71.1512185213533     
11.9771182576835     0.006369779599963    71.2995777100464     0.997975960121343    -0.346397638104084   0.997975960121343    -0.346397638104084   0.006369779599963    71.2995777100464     
12.1106209278552     0.006435145882586    71.4466922306273     0.997971068565093    -0.350257109312257   0.997971068565093    -0.350257109312257   0.006435145882586    71.4466922306273     
12.2456116824359     0.006501276998006    71.5925675975643     0.997966142978232    -0.354159571343395   0.997966142978232    -0.354159571343395   0.006501276998006    71.5925675975643     
12.3821071083237     0.00656818122682     71.737209399125      0.997961183017857    -0.358105502873697   0.997961183017857    -0.358105502873697   0.00656818122682     71.737209399125      
12.5201239773025     0.006635866941793    71.8806232936948     0.997956188335765    -0.362095387904877   0.997956188335765    -0.362095387904877   0.006635866941793    71.8806232936948     
12.6596792481022     0.006704342608926    72.0228150061686     0.997951158578271    -0.3661297158233     0.997951158578271    -0.3661297158233     0.006704342608926    72.0228150061686     
12.800790068483      0.006773616788532    72.1637903244115     0.997946093386118    -0.3702089814598     0.997946093386118    -0.3702089814598     0.006773616788532    72.1637903244115     
12.9434737773421     0.006843698136323    72.3035550957902     0.997940992394387    -0.374333685150126   0.997940992394387    -0.374333685150126   0.006843698136323    72.3035550957902     
13.0877479068444     0.006914595404514    72.4421152237768     0.997935855232338    -0.378504332796083   0.997935855232338    -0.378504332796083   0.006914595404514    72.4421152237768     
13.2336301845766     0.006986317442927    72.5794766646191     0.997930681523342    -0.38272143592734    0.997930681523342    -0.38272143592734    0.006986317442927    72.5794766646191     
13.3811385357255     0.007058873200117    72.7156454240844     0.997925470884719    -0.386985511763914   0.997925470884719    -0.386985511763914   0.007058873200117    72.7156454240844     
13.5302910852807     0.007132271724501    72.8506275542695     0.997920222927677    -0.391297083279363   0.997920222927677    -0.391297083279363   0.007132271724501    72.8506275542695     
13.6811061602615     0.007206522165504    72.9844291504822     0.997914937257101    -0.395656679264651   0.997914937257101    -0.395656679264651   0.007206522165504    72.9844291504822     
13.8336022919688     0.007281633774714    73.1170563481895     0.997909613471508    -0.400064834392749   0.997909613471508    -0.400064834392749   0.007281633774714    73.1170563481895     
13.9877982182625     0.007357615907047    73.2485153200342     0.997904251162855    -0.40452208928392    0.997904251162855    -0.40452208928392    0.007357615907047    73.2485153200342     
14.1437128858632     0.007434478021928    73.3788122729196     0.99789884991646     -0.409028990571755   0.99789884991646     -0.409028990571755   0.007434478021928    73.3788122729196     
14.3013654526811     0.007512229684483    73.5079534451598     0.997893409310828    -0.413586090969906   0.997893409310828    -0.413586090969906   0.007512229684483    73.5079534451598     
14.4607752901694     0.007590880566739    73.6359451036971     0.997887928917516    -0.418193949339587   0.997887928917516    -0.418193949339587   0.007590880566739    73.6359451036971     
14.6219619857047     0.007670440448838    73.7627935413842     0.997882408301006    -0.422853130757791   0.997882408301006    -0.422853130757791   0.007670440448838    73.7627935413842     
14.7849453449939     0.007750919220269    73.8885050743319     0.997876847018571    -0.427564206586305   0.997876847018571    -0.427564206586305   0.007750919220269    73.8885050743319     
14.9497453945078     0.007832326881107    74.0130860393196     0.9978712446201      -0.432327754541429   0.9978712446201      -0.432327754541429   0.007832326881107    74.0130860393196     
15.1163823839417     0.007914673543263    74.1365427912703     0.997865600647937    -0.437144358764486   0.997865600647937    -0.437144358764486   0.007914673543263    74.1365427912703     
15.2848767887038     0.00799796943175     74.2588817007877     0.997859914636793    -0.442014609893167   0.997859914636793    -0.442014609893167   0.00799796943175     74.2588817007877     
15.4552493124308     0.008082224885964    74.3801091517544     0.997854186113488    -0.446939105133541   0.997854186113488    -0.446939105133541   0.008082224885964    74.3801091517544     
15.6275208895321     0.008167450360976    74.5002315389921     0.997848414596908    -0.451918448333004   0.997848414596908    -0.451918448333004   0.008167450360976    74.5002315389921     
15.8017126877619     0.008253656428833    74.6192552659803     0.99784259959772     -0.456953250053905   0.99784259959772     -0.456953250053905   0.008253656428833    74.6192552659803     
15.9778461108205     0.008340853779881    74.7371867426357     0.997836740618299    -0.46204412764807    0.997836740618299    -0.46204412764807    0.008340853779881    74.7371867426357     
16.1559428009838     0.008429053224093    74.8540323831488     0.997830837152499    -0.467191705332104   0.997830837152499    -0.467191705332104   0.008429053224093    74.8540323831488     
16.336024641763      0.00851826569242     74.969798603878      0.997824888685511    -0.472396614263538   0.997824888685511    -0.472396614263538   0.00851826569242     74.969798603878      
16.5181137605932     0.008608502238146    75.084491821301      0.997818894693668    -0.477659492617816   0.997818894693668    -0.477659492617816   0.008608502238146    75.084491821301      
16.7022325315526     0.008699774038264    75.1981184500206     0.997812854644249    -0.482980985666132   0.997812854644249    -0.482980985666132   0.008699774038264    75.1981184500206     
16.8884035781114     0.008792092394866    75.3106849008263     0.997806767995325    -0.488361745854104   0.997806767995325    -0.488361745854104   0.008792092394866    75.3106849008263     
17.0766497759119     0.008885468736542    75.4221975788081     0.997800634195526    -0.493802432881344   0.997800634195526    -0.493802432881344   0.008885468736542    75.4221975788081     
17.2669942555792     0.0089799146198      75.5326628815256     0.997794452683896    -0.4993037137819     0.997794452683896    -0.4993037137819     0.0089799146198      75.5326628815256     
17.4594604055632     0.009075441730498    75.6420871972253     0.99778822288964     -0.504866263005545   0.99778822288964     -0.504866263005545   0.009075441730498    75.6420871972253     
17.654071875013      0.00917206188529     75.750476903113      0.997781944231966    -0.51049076250002    0.997781944231966    -0.51049076250002    0.00917206188529     75.750476903113      
17.8508525766818     0.00926978703309     75.8578383636728     0.997775616119832    -0.516177901794142   0.997775616119832    -0.516177901794142   0.00926978703309     75.8578383636728     
18.0498266898664     0.009368629256545    75.9641779290366     0.997769237951763    -0.521928378081818   0.997769237951763    -0.521928378081818   0.009368629256545    75.9641779290366     
18.2510186633771     0.009468600773535    76.069501933402      0.997762809115649    -0.527742896307052   0.997762809115649    -0.527742896307052   0.009468600773535    76.069501933402      
18.4544532185426     0.009569713938676    76.1738166934962     0.997756328988461    -0.533622169249779   0.997756328988461    -0.533622169249779   0.009569713938676    76.1738166934962     
18.6601553522469     0.009671981244846    76.2771285070872     0.997749796936077    -0.539566917612742   0.997749796936077    -0.539566917612742   0.009671981244846    76.2771285070872     
18.8681503400017     0.009775415324728    76.3794436515399     0.997743212313038    -0.54557787010927    0.997743212313038    -0.54557787010927    0.009775415324728    76.3794436515399     
19.0784637390513     0.009880028952362    76.4807683824158     0.997736574462303    -0.551655763552016   0.997736574462303    -0.551655763552016   0.009880028952362    76.4807683824158     
19.2911213915133     0.009985835044723    76.5811089321174     0.997729882714991    -0.557801342942733   0.997729882714991    -0.557801342942733   0.009985835044723    76.5811089321174     
19.5061494275538     0.010092846663307    76.6804715085744     0.99772313639018     -0.564015361562942   0.99772313639018     -0.564015361562942   0.010092846663307    76.6804715085744     
19.7235742685982     0.01020107701574     76.778862293971      0.997716334794587    -0.570298581065667   0.997716334794587    -0.570298581065667   0.01020107701574     76.778862293971      
19.9434226305779     0.010310539457399    76.8762874435151     0.997709477222375    -0.576651771568173   0.997709477222375    -0.576651771568173   0.010310539457399    76.8762874435151     
20.1657215272126     0.010421247493055    76.9727530842451     0.997702562954826    -0.583075711745639   0.997702562954826    -0.583075711745639   0.010421247493055    76.9727530842451     
20.3904982733298     0.01053321477853     77.0682653138787     0.997695591260127    -0.589571188926025   0.997695591260127    -0.589571188926025   0.01053321477853     77.0682653138787     
20.6177804882211     0.01064645512237     77.1628301996971     0.997688561393053    -0.596138999185786   0.997688561393053    -0.596138999185786   0.01064645512237     77.1628301996971     
20.8475960990361     0.010760982487542    77.256453777466      0.997681472594705    -0.602779947446784   0.997681472594705    -0.602779947446784   0.010760982487542    77.256453777466      
21.0799733442134     0.010876810993143    77.3491420503957     0.997674324092188    -0.60949484757415    0.997674324092188    -0.60949484757415    0.010876810993143    77.3491420503957     
21.314940776951      0.010993954916129    77.4409009881329     0.997667115098381    -0.616284522475346   0.997667115098381    -0.616284522475346   0.010993954916129    77.4409009881329     
21.5525272687142     0.011112428693063    77.5317365257901     0.997659844811553    -0.62314980420019    0.997659844811553    -0.62314980420019    0.011112428693063    77.5317365257901     
21.7927620127835     0.01123224692188     77.6216545630062     0.997652512415125    -0.630091534042032   0.997652512415125    -0.630091534042032   0.01123224692188     77.6216545630062     
22.0356745278418     0.011353424363673    77.7106609630422     0.997645117077308    -0.63711056264007    0.997645117077308    -0.63711056264007    0.011353424363673    77.7106609630422     
22.281294661601      0.011475975944498    77.7987615519061     0.997637657950808    -0.6442077500827     0.997637657950808    -0.6442077500827     0.011475975944498    77.7987615519061     
22.5296525944702     0.01159991675719     77.8859621175116     0.997630134172458    -0.651383966012062   0.997630134172458    -0.651383966012062   0.01159991675719     77.8859621175116     
22.7807788432633     0.011725262063215    77.9722684088658     0.997622544862944    -0.658640089729747   0.997622544862944    -0.658640089729747   0.011725262063215    77.9722684088658     
23.0347042649495     0.011852027294522    78.0576861352866     0.997614889126412    -0.665977010303581   0.997614889126412    -0.665977010303581   0.011852027294522    78.0576861352866     
23.2914600604443     0.011980228055431    78.142220965649      0.997607166050097    -0.673395626675617   0.997607166050097    -0.673395626675617   0.011980228055431    78.142220965649      
23.5510777784437     0.012109880124533    78.2258785276593     0.997599374704048    -0.68089684777138    0.997599374704048    -0.68089684777138    0.012109880124533    78.2258785276593     
23.8135893193002     0.012240999456607    78.3086644071575     0.997591514140663    -0.688481592610147   0.997591514140663    -0.688481592610147   0.012240999456607    78.3086644071575     
24.079026938943      0.012373602184568    78.3905841474439     0.997583583394385    -0.696150790416574   0.997583583394385    -0.696150790416574   0.012373602184568    78.3905841474439     
24.3474232528413     0.012507704621426    78.4716432486347     0.997575581481266    -0.703905380733487   0.997575581481266    -0.703905380733487   0.012507704621426    78.4716432486347     
24.6188112400118     0.01264332326227     78.5518471670399     0.99756750739861     -0.71174631353586    0.99756750739861     -0.71174631353586    0.01264332326227     78.5518471670399     
24.8932242470711     0.012780474786273    78.6312013145666     0.99755936012456     -0.719674549346144   0.99755936012456     -0.719674549346144   0.012780474786273    78.6312013145666     
25.1706959923331     0.012919176058716    78.709711058147      0.99755113861769     -0.727691059350741   0.99755113861769     -0.727691059350741   0.012919176058716    78.709711058147      
25.4512605699519     0.013059444133035    78.7873817191871     0.99754284181657     -0.735796825517793   0.99754284181657     -0.735796825517793   0.013059444133035    78.7873817191871     
25.7349524541116     0.013201296252894    78.8642185730395     0.997534468639377    -0.743992840716285   0.997534468639377    -0.743992840716285   0.013201296252894    78.8642185730395     
26.0218065032618     0.013344749854269    78.9402268484979     0.997526017983397    -0.752280108836392   0.997526017983397    -0.752280108836392   0.013344749854269    78.9402268484979     
26.311857964401      0.013489822567567    79.0154117273113     0.997517488724637    -0.760659644911157   0.997517488724637    -0.760659644911157   0.013489822567567    79.0154117273113     
26.6051424774076     0.013636532219757    79.0897783437192     0.997508879717338    -0.769132475239522   0.997508879717338    -0.769132475239522   0.013636532219757    79.0897783437192     
26.9016960794191     0.01378489683653     79.1633317840076     0.997500189793509    -0.777699637510628   0.997500189793509    -0.777699637510628   0.01378489683653     79.1633317840076     
27.2015552092601     0.013934934644478    79.2360770860818     0.997491417762435    -0.786362180929504   0.997491417762435    -0.786362180929504   0.013934934644478    79.2360770860818     
27.5047567119196     0.014086664073301    79.30801923906       0.997482562410238    -0.795121166344164   0.997482562410238    -0.795121166344164   0.014086664073301    79.30801923906       
27.8113378430786     0.014240103758029    79.3791631828838     0.997473622499309    -0.803977666373988   0.997473622499309    -0.803977666373988   0.014240103758029    79.3791631828838     
28.1213362736876     0.01439527254128     79.4495138079457     0.997464596767872    -0.812932765539586   0.997464596767872    -0.812932765539586   0.01439527254128     79.4495138079457     
28.4347900945954     0.014552189475525    79.5190759547343     0.997455483929403    -0.821987560394028   0.997455483929403    -0.821987560394028   0.014552189475525    79.5190759547343     
28.7517378212296     0.014710873825396    79.5878544134954     0.997446282672111    -0.831143159655474   0.997446282672111    -0.831143159655474   0.014710873825396    79.5878544134954     
29.0722183983291     0.01487134507        79.6558539239078     0.997436991658415    -0.840400684341262   0.997436991658415    -0.840400684341262   0.01487134507        79.6558539239078     
29.3962712047297     0.015033622905274    79.7230791747763     0.997427609524376    -0.849761267903509   0.997427609524376    -0.849761267903509   0.015033622905274    79.7230791747763     
29.723936058202      0.015197727246351    79.7895348037371     0.99741813487911     -0.85922605636604    0.99741813487911     -0.85922605636604    0.015197727246351    79.7895348037371     
30.0552532203448     0.015363678229961    79.8552253969796     0.997408566304225    -0.868796208462947   0.997408566304225    -0.868796208462947   0.015363678229961    79.8552253969796     
30.3902634015317     0.015531496216849    79.9201554889794     0.997398902353243    -0.878472895778533   0.997398902353243    -0.878472895778533   0.015531496216849    79.9201554889794     
30.7290077659138     0.015701201794226    79.9843295622463     0.997389141550954    -0.88825730288882    0.997389141550954    -0.88825730288882    0.015701201794226    79.9843295622463     
31.071527936477      0.015872815778244    80.0477520470845     0.997379282392806    -0.89815062750456    0.997379282392806    -0.89815062750456    0.015872815778244    80.0477520470845     
31.4178660001573     0.016046359216488    80.1104273213645     0.997369323344295    -0.908154080615818   0.997369323344295    -0.908154080615818   0.016046359216488    80.1104273213645     
31.7680645130115     0.016221853390509    80.172359710307      0.997359262840286    -0.918268886638112   0.997359262840286    -0.918268886638112   0.016221853390509    80.172359710307      
32.1221665054465     0.016399319818374    80.2335534862787     0.99734909928438     -0.928496283560068   0.99734909928438     -0.928496283560068   0.016399319818374    80.2335534862787     
32.4802154875068     0.016578780257241    80.2940128685978     0.9973388310482      -0.938837523092719   0.9973388310482      -0.938837523092719   0.016578780257241    80.2940128685978     
32.8422554542203     0.016760256705969    80.353742023351      0.997328456470726    -0.949293870820393   0.997328456470726    -0.949293870820393   0.016760256705969    80.353742023351      
33.2083308910048     0.016943771407751    80.4127450632198     0.997317973857582    -0.959866606353269   0.997317973857582    -0.959866606353269   0.016943771407751    80.4127450632198     
33.5784867791336     0.01712934685277     80.471026047317      0.997307381480289    -0.970557023481427   0.997307381480289    -0.970557023481427   0.01712934685277     80.471026047317      
33.9527686012627     0.017317005780892    80.5285889810315     0.997296677575587    -0.981366430330779   0.997296677575587    -0.981366430330779   0.017317005780892    80.5285889810315     
34.3312223470195     0.017506771184379    80.5854378158831     0.997285860344585    -0.992296149520396   0.997285860344585    -0.992296149520396   0.017506771184379    80.5854378158831     
34.7138945186536     0.017698666310635    80.6415764493849     0.997274927952085    -1.0033475183218     0.997274927952085    -1.0033475183218     0.017698666310635    80.6415764493849     
35.1008321367512     0.017892714664978    80.6970087249139     0.997263878525717    -1.01452188881974    0.997263878525717    -1.01452188881974    0.017892714664978    80.6970087249139     
35.492082746012      0.018088940013441    80.7517384315896     0.997252710155181    -1.0258206280748     0.997252710155181    -1.0258206280748     0.018088940013441    80.7517384315896     
35.8876944210916     0.018287366385605    80.8057693041594     0.997241420891392    -1.0372451182877     0.997241420891392    -1.0372451182877     0.018287366385605    80.8057693041594     
36.287715772509      0.018488018077457    80.8591050228919     0.997230008745663    -1.0487967569654     0.997230008745663    -1.0487967569654     0.018488018077457    80.8591050228919     
36.6921959526187     0.018690919654278    80.9117492134758     0.997218471688802    -1.06047695708891    0.997218471688802    -1.06047695708891    0.018690919654278    80.9117492134758     
37.1011846616512     0.018896095953567    80.963705446926      0.997206807650294    -1.07228714728296    0.997206807650294    -1.07228714728296    0.018896095953567    80.963705446926      
37.5147321538193     0.019103572087985    81.0149772394952     0.997195014517332    -1.08422877198734    0.997195014517332    -1.08422877198734    0.019103572087985    81.0149772394952     
37.9328892434932     0.019313373448337    81.0655680525916     0.997183090133957    -1.0963032916303     0.997183090133957    -1.0963032916303     0.019313373448337    81.0655680525916     
38.3557073114443     0.019525525706584    81.1154812927015     0.997171032300054    -1.10851218280348    0.997171032300054    -1.10851218280348    0.019525525706584    81.1154812927015     
38.7832383111586     0.01974005481888     81.1647203113174     0.997158838770467    -1.12085693843906    0.997158838770467    -1.12085693843906    0.01974005481888     81.1647203113174     
39.2155347752205     0.019956987028648    81.2132884048709     0.997146507253937    -1.13333906798838    0.997146507253937    -1.13333906798838    0.019956987028648    81.2132884048709     
39.6526498217674     0.020176348869679    81.26118881467       0.997134035412172    -1.14596009760284    0.997134035412172    -1.14596009760284    0.020176348869679    81.26118881467       
40.094637161017      0.020398167169275    81.3084247268407     0.997121420858766    -1.15872157031644    0.997121420858766    -1.15872157031644    0.020398167169275    81.3084247268407     
40.5415511018666     0.020622469051405    81.3549992722723     0.997108661158171    -1.17162504623037    0.997108661158171    -1.17162504623037    0.020622469051405    81.3549992722723     
40.9934465585664     0.020849281939914    81.4009155265669     0.997095753824624    -1.18467210269948    0.997095753824624    -1.18467210269948    0.020849281939914    81.4009155265669     
41.4503790574671     0.02107863356175     81.4461765099925     0.997082696321055    -1.19786433452085    0.997082696321055    -1.19786433452085    0.02107863356175     81.4461765099925     
41.9124047438423     0.021310551950228    81.4907851874383     0.997069486057957    -1.21120335412417    0.997069486057957    -1.21120335412417    0.021310551950228    81.4907851874383     
42.3795803887878     0.021545065448328    81.5347444683739     0.997056120392247    -1.22469079176421    0.997056120392247    -1.22469079176421    0.021545065448328    81.5347444683739     
42.8519633961971     0.021782202712026    81.5780572068113     0.997042596626096    -1.23832829571538    0.997042596626096    -1.23832829571538    0.021782202712026    81.5780572068113     
43.3296118098149     0.022021992713658    81.6207262012685     0.997028912005731    -1.25211753246811    0.997028912005731    -1.25211753246811    0.022021992713658    81.6207262012685     
43.8125843203689     0.022264464745314    81.6627541947367     0.997015063720222    -1.2660601869276     0.997015063720222    -1.2660601869276     0.022264464745314    81.6627541947367     
44.3009402727819     0.022509648422275    81.704143874648      0.997001048900222    -1.28015796261435    0.997001048900222    -1.28015796261435    0.022509648422275    81.704143874648      
44.7947396734634     0.022757573686474    81.7448978728464     0.996986864616688    -1.29441258186697    0.996986864616688    -1.29441258186697    0.022757573686474    81.7448978728464     
45.294043197683      0.023008270809999    81.7850187655594     0.996972507879605    -1.30882578604704    0.996972507879605    -1.30882578604704    0.023008270809999    81.7850187655594     
45.7989121970257     0.023261770398626    81.824509073372      0.996957975636581    -1.32339933574607    0.996957975636581    -1.32339933574607    0.023261770398626    81.824509073372      
46.3094087069305     0.02351810339539     81.8633712612006     0.996943264771588    -1.33813501099473    0.996943264771588    -1.33813501099473    0.02351810339539     81.8633712612006     
46.825595454313      0.023777301084189    81.9016077382697     0.996928372103488    -1.35303461147414    0.996928372103488    -1.35303461147414    0.023777301084189    81.9016077382697     
47.3475358652732     0.024039395093425    81.9392208580877     0.99691329438462     -1.36809995672933    0.99691329438462     -1.36809995672933    0.024039395093425    81.9392208580877     
47.8752940728881     0.024304417399681    81.9762129184244     0.996898028299399    -1.38333288638505    0.996898028299399    -1.38333288638505    0.024304417399681    81.9762129184244     
48.4089349250929     0.024572400331432    82.0125861612893     0.996882570462747    -1.39873526036363    0.996882570462747    -1.39873526036363    0.024572400331432    82.0125861612893     
48.9485239926488     0.024843376572793    82.0483427729092     0.996866917418655    -1.41430895910532    0.996866917418655    -1.41430895910532    0.024843376572793    82.0483427729092     
49.4941275772        0.025117379167303    82.0834848837066     0.996851065638552    -1.43005588379055    0.996851065638552    -1.43005588379055    0.025117379167303    82.0834848837066     
50.0458127194201     0.025394441521752    82.118014568278      0.9968350115198      -1.44597795656491    0.9968350115198      -1.44597795656491    0.025394441521752    82.118014568278      
50.6036472072504     0.025674597410031    82.1519338453723     0.996818751383991    -1.46207712076601    0.996818751383991    -1.46207712076601    0.025674597410031    82.1519338453723     
51.1676995842288     0.025957880977031    82.1852446778684     0.996802281475334    -1.47835534115296    0.996802281475334    -1.47835534115296    0.025957880977031    82.1852446778684     
51.738039157912      0.026244326742578    82.2179489727527     0.996785597958978    -1.49481460413816    0.996785597958978    -1.49481460413816    0.026244326742578    82.2179489727527     
52.314736008392      0.026533969605399    82.2500485810956     0.996768696919218    -1.51145691802122    0.996768696919218    -1.51145691802122    0.026533969605399    82.2500485810956     
52.8978609969066     0.026826844847134    82.2815452980281     0.996751574357792    -1.52828431322558    0.996751574357792    -1.52828431322558    0.026826844847134    82.2815452980281     
53.4874857745472     0.027122988136379    82.3124408627163     0.996734226192018    -1.54529884253728    0.996734226192018    -1.54529884253728    0.027122988136379    82.3124408627163     
54.083682791062      0.02742243553277     82.342736958336      0.996716648252976    -1.56250258134632    0.996716648252976    -1.56250258134632    0.02742243553277     82.342736958336      
54.6865253037588     0.027725223491107    82.3724352120454     0.996698836283626    -1.5798976278904     0.996698836283626    -1.5798976278904     0.027725223491107    82.3724352120454     
55.2960873865063     0.028031388865514    82.4015371949571     0.99668078593684     -1.59748610350104    0.99668078593684     -1.59748610350104    0.028031388865514    82.4015371949571     
55.9124439388359     0.028340968913642    82.4300444221079     0.996662492773478    -1.61527015285234    0.996662492773478    -1.61527015285234    0.028340968913642    82.4300444221079     
56.5356706951447     0.028654001300901    82.457958352428      0.996643952260317    -1.63325194421206    0.996643952260317    -1.63325194421206    0.028654001300901    82.457958352428      
57.1658442340016     0.028970524104743    82.4852803887082     0.996625159768029    -1.65143366969535    0.996625159768029    -1.65143366969535    0.028970524104743    82.4852803887082     
57.8030419875569     0.029290575818979    82.5120118775647     0.996606110569087    -1.66981754552103    0.996606110569087    -1.66981754552103    0.029290575818979    82.5120118775647     
58.4473422510563     0.029614195358135    82.5381541094035     0.996586799835567    -1.68840581227024    0.996586799835567    -1.68840581227024    0.029614195358135    82.5381541094035     
59.0988241924618     0.029941422061845    82.563708318381      0.996567222636971    -1.70720073514785    0.996567222636971    -1.70720073514785    0.029941422061845    82.563708318381      
59.7575678621791     0.030272295699291    82.5886756823645     0.996547373937986    -1.72620460424641    0.996547373937986    -1.72620460424641    0.030272295699291    82.5886756823645     
60.423654202894      0.030606856473677    82.6130573228886     0.996527248596192    -1.74541973481266    0.996527248596192    -1.74541973481266    0.030606856473677    82.6130573228886     
61.0971650595182     0.030945145026745    82.6368543051107     0.996506841359697    -1.76484846751675    0.996506841359697    -1.76484846751675    0.030945145026745    82.6368543051107     
61.7781831892454     0.031287202443333    82.6600676377641     0.996486146864744    -1.784493168724      0.996486146864744    -1.784493168724      0.031287202443333    82.6600676377641     
62.4667922717209     0.031633070255967    82.6826982731071     0.996465159633256    -1.80435623076941    0.996465159633256    -1.80435623076941    0.031633070255967    82.6826982731071     
63.163076919323      0.0319827904495      82.7047471068719     0.996443874070356    -1.82444007223487    0.996443874070356    -1.82444007223487    0.0319827904495      82.7047471068719     
63.8671226875597     0.03233640546579     82.726214978209      0.996422284461772    -1.84474713822893    0.996422284461772    -1.84474713822893    0.03233640546579     82.726214978209      
64.579016085582      0.032693958208417    82.7471026696297     0.996400384971248    -1.86527990066949    0.996400384971248    -1.86527990066949    0.032693958208417    82.7471026696297     
65.2988445868125     0.033055492047441    82.7674109069453     0.996378169637869    -1.88604085856903    0.996378169637869    -1.88604085856903    0.033055492047441    82.7674109069453     
66.0266966396948     0.033421050824198    82.7871403592047     0.996355632373313    -1.90703253832272    0.996355632373313    -1.90703253832272    0.033421050824198    82.7871403592047     
66.762661678561      0.033790678856146    82.806291638627      0.996332766959066    -1.92825749399926    0.996332766959066    -1.92825749399926    0.033790678856146    82.806291638627      
67.5068301346203     0.034164420941738    82.8248653005331     0.996309567043593    -1.94971830763442    0.996309567043593    -1.94971830763442    0.034164420941738    82.8248653005331     
68.2592934470721     0.034542322365351    82.8428618432727     0.996286026139374    -1.97141758952757    0.996286026139374    -1.97141758952757    0.034542322365351    82.8428618432727     
69.0201440743401     0.034924428902241    82.8602817081492     0.996262137620007    -1.99335797854088    0.996262137620007    -1.99335797854088    0.034924428902241    82.8602817081492     
69.7894755054339     0.035310786823548    82.8771252793405     0.996237894717073    -2.01554214240132    0.996237894717073    -2.01554214240132    0.035310786823548    82.8771252793405     
70.5673822714362     0.035701442901342    82.8933928838171     0.996213290517094    -2.03797277800568    0.996213290517094    -2.03797277800568    0.035701442901342    82.8933928838171     
71.3539599571181     0.036096444413703    82.909084791257      0.996188317958326    -2.06065261172825    0.996188317958326    -2.06065261172825    0.036096444413703    82.909084791257      
72.1493052126843     0.03649583914985     82.924201213956      0.996162969827541    -2.08358439973156    0.996162969827541    -2.08358439973156    0.03649583914985     82.924201213956      
72.9535157656486     0.036899675415303    82.9387423067364     0.996137238756676    -2.10677092827984    0.996137238756676    -2.10677092827984    0.036899675415303    82.9387423067364     
73.7666904328423     0.037308002037089    82.9527081668502     0.996111117219451    -2.13021501405548    0.996111117219451    -2.13021501405548    0.037308002037089    82.9527081668502     
74.5889291325562     0.037720868368992    82.9660988338805     0.996084597527949    -2.1539195044785     0.996084597527949    -2.1539195044785     0.037720868368992    82.9660988338805     
75.4203328968181     0.038138324296836    82.9789142896378     0.996057671829011    -2.17788727802863    0.996057671829011    -2.17788727802863    0.038138324296836    82.9789142896378     
76.2610038838068     0.038560420243813    82.9911544580534     0.996030332100704    -2.2021212445708     0.996030332100704    -2.2021212445708     0.038560420243813    82.9911544580534     
77.1110453904051     0.038987207175849    83.0028192050692     0.996002570148524    -2.22662434568307    0.996002570148524    -2.22662434568307    0.038987207175849    83.0028192050692     
77.9705618648918     0.039418736607011    83.0139083385231     0.995974377601747    -2.25139955498806    0.995974377601747    -2.25139955498806    0.039418736607011    83.0139083385231     
78.8396589197762     0.039855060604953    83.024421608031      0.995945745909464    -2.27644987848677    0.995945745909464    -2.27644987848677    0.039855060604953    83.024421608031      
79.7184433447749     0.040296231796399    83.0343587048652     0.995916666336708    -2.30177835489592    0.995916666336708    -2.30177835489592    0.040296231796399    83.0343587048652     
80.6070231199338     0.040742303372674    83.0437192618282     0.995887129960427    -2.32738805598801    0.995887129960427    -2.32738805598801    0.040742303372674    83.0437192618282     
81.5055074288954     0.041193329095256    83.0525028531229     0.995857127665339    -2.35328208693432    0.995857127665339    -2.35328208693432    0.041193329095256    83.0525028531229     
82.4140066723158     0.041649363301387    83.0607089942192     0.995826650139758    -2.37946358665112    0.995826650139758    -2.37946358665112    0.041649363301387    83.0607089942192     
83.3326324814287     0.042110460909709    83.0683371417161     0.995795687871326    -2.40593572814884    0.995795687871326    -2.40593572814884    0.042110460909709    83.0683371417161     
84.2614977317636     0.042576677425941    83.0753866932        0.995764231142582    -2.43270171888409    0.995764231142582    -2.43270171888409    0.042576677425941    83.0753866932        
85.2007165570136     0.043048068948591    83.0818569870989     0.99573227002652     -2.459764801115      0.99573227002652     -2.459764801115      0.043048068948591    83.0818569870989     
86.1504043630607     0.043524692174715    83.0877473025322     0.995699794382013    -2.48712825225931    0.995699794382013    -2.48712825225931    0.043524692174715    83.0877473025322     
87.1106778421564     0.044006604405696    83.0930568591573     0.995666793849129    -2.51479538525572    0.995666793849129    -2.51479538525572    0.044006604405696    83.0930568591573     
88.0816549872587     0.044493863553072    83.097784817011      0.995633257844373    -2.54276954892813    0.995633257844373    -2.54276954892813    0.044493863553072    83.097784817011      
89.0634551065323     0.044986528144397    83.1019302763474     0.995599175555794    -2.57105412835298    0.995599175555794    -2.57105412835298    0.044986528144397    83.1019302763474     
90.0561988380067     0.04548465732913     83.1054922774712     0.995564535938042    -2.59965254522967    0.995564535938042    -2.59965254522967    0.04548465732913     83.1054922774712     
91.0600081644012     0.045988310884565    83.1084698005674     0.995529327707223    -2.62856825825392    0.995529327707223    -2.62856825825392    0.045988310884565    83.1084698005674     
92.0750064281121     0.046497549221795    83.1108617655262     0.99549353933576     -2.65780476349429    0.99549353933576     -2.65780476349429    0.046497549221795    83.1108617655262     
93.1013183463691     0.047012433391703    83.112667031764      0.995457159047072    -2.6873655947716     0.995457159047072    -2.6873655947716     0.047012433391703    83.112667031764      
94.1390700265596     0.047533025090991    83.1138843980402     0.995420174810118    -2.71725432404156    0.995420174810118    -2.71725432404156    0.047533025090991    83.1138843980402     
95.1883889817238     0.048059386668235    83.1145126022695     0.995382574333923    -2.74747456178028    0.995382574333923    -2.74747456178028    0.048059386668235    83.1145126022695     
96.2494041462235     0.048591581129977    83.1145503213301     0.995344345061861    -2.77802995737282    0.995344345061861    -2.77802995737282    0.048591581129977    83.1145503213301     
97.3222458915839     0.049129672146839    83.1139961708679     0.995305474165926    -2.80892419950484    0.995305474165926    -2.80892419950484    0.049129672146839    83.1139961708679     
98.4070460425136     0.049673724059675    83.1128487050962     0.995265948540813    -2.84016101655721    0.995265948540813    -2.84016101655721    0.049673724059675    83.1128487050962     
99.5039378931023     0.050223801885738    83.111106416591      0.99522575479789     -2.87174417700347    0.99522575479789     -2.87174417700347    0.050223801885738    83.111106416591      
100.613056223199     0.050779971324892    83.1087677360824     0.995184879259076    -2.9036774898107     0.995184879259076    -2.9036774898107     0.050779971324892    83.1087677360824     
101.734537314973     0.051342298765825    83.1058310322415     0.995143307950508    -2.93596480484269    0.995143307950508    -2.93596480484269    0.051342298765825    83.1058310322415     
102.868518969661     0.051910851292313    83.1022946114634     0.99510102659615     -2.96861001326673    0.99510102659615     -2.96861001326673    0.051910851292313    83.1022946114634     
104.015140524496     0.05248569668949     83.0981567176456     0.995058020611274    -3.00161704796296    0.995058020611274    -3.00161704796296    0.05248569668949     83.0981567176456     
105.17454286983      0.053066903450143    83.0934155319621     0.995014275095708    -3.03498988393665    0.995014275095708    -3.03498988393665    0.053066903450143    83.0934155319621     
106.346868466449     0.053654540781033    83.0880691726341     0.994969774827044    -3.06873253873352    0.994969774827044    -3.06873253873352    0.053654540781033    83.0880691726341     
107.532261363073     0.054248678609232    83.0821156946957     0.994924504253646    -3.1028490728579     0.994924504253646    -3.1028490728579     0.054248678609232    83.0821156946957     
108.730867214056     0.054849387588475    83.0755530897554     0.994878447487523    -3.13734359019352    0.994878447487523    -3.13734359019352    0.054849387588475    83.0755530897554     
109.942833297288     0.055456739105537    83.0683792857543     0.994831588297065    -3.17222023842754    0.994831588297065    -3.17222023842754    0.055456739105537    83.0683792857543     
111.168308532286     0.056070805286614    83.0605921467195     0.994783910099604    -3.20748320947687    0.994783910099604    -3.20748320947687    0.056070805286614    83.0605921467195     
112.407443498497     0.056691659003727    83.0521894725134     0.994735395953824    -3.24313673991772    0.994735395953824    -3.24313673991772    0.056691659003727    83.0521894725134     
113.660390453796     0.057319373881133    83.0431689985794     0.994686028552051    -3.27918511141757    0.994686028552051    -3.27918511141757    0.057319373881133    83.0431689985794     
114.9273033532       0.057954024301743    83.0335283956831     0.994635790212297    -3.31563265116985    0.994635790212297    -3.31563265116985    0.057954024301743    83.0335283956831     
116.20833786778      0.058595685413558    83.0232652696498     0.994584662870246    -3.35248373233158    0.994584662870246    -3.35248373233158    0.058595685413558    83.0232652696498     
117.50365140379      0.059244433136093    83.0123771610983     0.994532628070935    -3.38974277446299    0.994532628070935    -3.38974277446299    0.059244433136093    83.0123771610983     
118.813403122011     0.059900344166828    83.0008615451699     0.994479666960425    -3.42741424397047    0.994479666960425    -3.42741424397047    0.059900344166828    83.0008615451699     
120.137753957305     0.06056349598764     82.9887158312545     0.994425760277172    -3.46550265455155    0.994425760277172    -3.46550265455155    0.06056349598764     82.9887158312545     
121.476866638391     0.061233966871244    82.9759373627127     0.994370888343251    -3.50401256764225    0.994370888343251    -3.50401256764225    0.061233966871244    82.9759373627127     
122.830905707841     0.061911835887635    82.9625234165936     0.994315031055419    -3.54294859286736    0.994315031055419    -3.54294859286736    0.061911835887635    82.9625234165936     
124.200037542295     0.062597182910513    82.9484712033496     0.99425816787601     -3.5823153884926     0.99425816787601     -3.5823153884926     0.062597182910513    82.9484712033496     
125.584430372907     0.063290088623711    82.9337778665469     0.994200277823557    -3.62211766187929    0.994200277823557    -3.62211766187929    0.063290088623711    82.9337778665469     
126.984254306016     0.063990634527605    82.9184404825734     0.994141339463304    -3.66236016994112    0.994141339463304    -3.66236016994112    0.063990634527605    82.9184404825734     
128.399681344047     0.064698902945518    82.9024560603416     0.994081330897501    -3.70304771960345    0.994081330897501    -3.70304771960345    0.064698902945518    82.9024560603416     
129.830885406647     0.065414977030099    82.8858215409899     0.994020229755474    -3.74418516826406    0.994020229755474    -3.74418516826406    0.065414977030099    82.8858215409899     
131.278042352052     0.066138940769691    82.8685337975788     0.99395801318354     -3.78577742425666    0.99395801318354     -3.78577742425666    0.066138940769691    82.8685337975788     
132.741329998701     0.066870878994673    82.850589634785      0.993894657834635    -3.8278294473159     0.993894657834635    -3.8278294473159     0.066870878994673    82.850589634785      
134.220928147079     0.067610877383773    82.8319857885919     0.993830139857804    -3.87034624904408    0.993830139857804    -3.87034624904408    0.067610877383773    82.8319857885919     
135.717018601815     0.068359022470363    82.8127189259768     0.993764434887463    -3.91333289338032    0.993764434887463    -3.91333289338032    0.068359022470363    82.8127189259768     
137.229785194019     0.069115401648706    82.7927856445956     0.993697518032413    -3.95679449707073    0.993697518032413    -3.95679449707073    0.069115401648706    82.7927856445956     
138.759413803868     0.069880103180185    82.7721824724639     0.993629363864643    -4.00073623014058    0.993629363864643    -4.00073623014058    0.069880103180185    82.7721824724639     
140.30609238345      0.070653216199474    82.7509058676361     0.993559946407933    -4.04516331636772    0.993559946407933    -4.04516331636772    0.070653216199474    82.7509058676361     
141.870010979857     0.071434830720683    82.7289522178807     0.993489239126171    -4.09008103375768    0.993489239126171    -4.09008103375768    0.071434830720683    82.7289522178807     
143.451361758535     0.072225037643439    82.7063178403547     0.993417214911485    -4.13549471501964    0.993417214911485    -4.13549471501964    0.072225037643439    82.7063178403547     
145.050339026898     0.073023928758928    82.6829989812731     0.993343846072129    -4.18140974804415    0.993343846072129    -4.18140974804415    0.073023928758928    82.6829989812731     
146.667139258205     0.073831596755872    82.6589918155787     0.993269104320075    -4.22783157638118    0.993269104320075    -4.22783157638118    0.073831596755872    82.6589918155787     
148.301961115697     0.074648135226453    82.6342924466074     0.993192960758442    -4.27476569971994    0.993192960758442    -4.27476569971994    0.074648135226453    82.6342924466074     
149.955005477011     0.075473638672163    82.6088969057532     0.993115385868588    -4.32221767436855    0.993115385868588    -4.32221767436855    0.075473638672163    82.6088969057532     
151.626475458862     0.07630820250959     82.5828011521299     0.993036349496983    -4.37019311373517    0.993036349496983    -4.37019311373517    0.07630820250959     82.5828011521299     
153.316576442001     0.077151923076123    82.5560010722317     0.992955820841858    -4.41869768880929    0.992955820841858    -4.41869768880929    0.077151923076123    82.5560010722317     
155.025516096452     0.078004897635586    82.5284924795921     0.992873768439514    -4.46773712864347    0.992873768439514    -4.46773712864347    0.078004897635586    82.5284924795921     
156.753504407025     0.078867224383773    82.5002711144412     0.992790160150399    -4.51731722083505    0.992790160150399    -4.51731722083505    0.078867224383773    82.5002711144412     
158.500753699124     0.079739002453902    82.471332643361      0.992704963144942    -4.56744381200847    0.992704963144942    -4.56744381200847    0.079739002453902    82.471332643361      
160.26747866483      0.080620331921962    82.4416726589414     0.992618143889038    -4.61812280829685    0.992618143889038    -4.61812280829685    0.080620331921962    82.4416726589414     
162.053896389288     0.081511313811968    82.4112866794328     0.992529668129316    -4.66936017582373    0.992529668129316    -4.66936017582373    0.081511313811968    82.4112866794328     
163.860226377374     0.082412050101093    82.3801701484003     0.99243950087804     -4.72116194118407    0.99243950087804     -4.72116194118407    0.082412050101093    82.3801701484003     
165.686690580672     0.083322643724694    82.348318434375      0.992347606397854    -4.77353419192479    0.992347606397854    -4.77353419192479    0.083322643724694    82.348318434375      
167.533513424744     0.084243198581207    82.3157268305069     0.99225394818603     -4.8264830770243     0.99225394818603     -4.8264830770243     0.084243198581207    82.3157268305069     
169.400921836705     0.085173819536922    82.2823905542163     0.992158488958634    -4.8800148073711     0.992158488958634    -4.8800148073711     0.085173819536922    82.2823905542163     
171.289145273111     0.086114612430606    82.248304746846      0.992061190634184    -4.93413565624094    0.992061190634184    -4.93413565624094    0.086114612430606    82.248304746846      
173.198415748146     0.087065684077998    82.213464473313      0.991962014317165    -4.98885195977265    0.991962014317165    -4.98885195977265    0.087065684077998    82.213464473313      
175.128967862137     0.088027142276136    82.1778647217619     0.991860920281075    -5.04417011744203    0.991860920281075    -5.04417011744203    0.088027142276136    82.1778647217619     
177.081038830379     0.088999095807537    82.1415004032173     0.991757867951308    -5.10009659253419    0.991757867951308    -5.10009659253419    0.088999095807537    82.1415004032173     
179.054868512279     0.089981654444199    82.1043663512393     0.991652815887544    -5.15663791261308    0.991652815887544    -5.15663791261308    0.089981654444199    82.1043663512393     
181.050699440833     0.090974928951429    82.0664573215785     0.991545721765952    -5.21380066998891    0.991545721765952    -5.21380066998891    0.090974928951429    82.0664573215785     
183.068776852427     0.091979031091491    82.027767991833      0.991436542360978    -5.27159152218306    0.991436542360978    -5.27159152218306    0.091979031091491    82.027767991833      
185.109348716965     0.092994073627047    81.9882929611081     0.991325233526816    -5.33001719238933    0.991325233526816    -5.33001719238933    0.092994073627047    81.9882929611081     
187.172665768345     0.094020170324403    81.9480267496769     0.991211750178498    -5.3890844699323     0.991211750178498    -5.3890844699323     0.094020170324403    81.9480267496769     
189.258981535262     0.095057435956541    81.9069637986441     0.991096046272725    -5.44880021072215    0.991096046272725    -5.44880021072215    0.095057435956541    81.9069637986441     
191.368552372365     0.096105986305923    81.865098469612      0.990978074788232    -5.50917133770541    0.990978074788232    -5.50917133770541    0.096105986305923    81.865098469612      
193.501637491753     0.097165938167062    81.8224250443502     0.990857787705868    -5.57020484131121    0.990857787705868    -5.57020484131121    0.097165938167062    81.8224250443502     
195.658498994827     0.098237409348847    81.7789377244683     0.990735135988278    -5.63190777989342    0.990735135988278    -5.63190777989342    0.098237409348847    81.7789377244683     
197.839401904493     0.099320518676621    81.7346306310918     0.990610069559235    -5.69428728016788    0.990610069559235    -5.69428728016788    0.099320518676621    81.7346306310918     
200.044614197733     0.100415385993977    81.6894978045434     0.990482537282611    -5.75735053764367    0.990482537282611    -5.75735053764367    0.100415385993977    81.6894978045434     
202.274406838525     0.101522132164285    81.6435332040279     0.990352486940884    -5.82110481704948    0.990352486940884    -5.82110481704948    0.101522132164285    81.6435332040279     
204.529053811141     0.102640879071928    81.596730707322      0.990219865213405    -5.88555745275373    0.990219865213405    -5.88555745275373    0.102640879071928    81.596730707322      
206.808832153813     0.103771749623234    81.5490841104696     0.99008461765415     -5.95071584917811    0.99008461765415     -5.95071584917811    0.103771749623234    81.5490841104696     
209.114021992773     0.104914867747082    81.5005871274829     0.989946688669155    -6.01658748120401    0.989946688669155    -6.01658748120401    0.104914867747082    81.5005871274829     
211.444906576674     0.106070358395198    81.451233390049      0.989806021493514    -6.08317989457275    0.989806021493514    -6.08317989457275    0.106070358395198    81.451233390049      
213.801772311392     0.107238347542088    81.4010164472441     0.989662558167998    -6.15050070627684    0.989662558167998    -6.15050070627684    0.107238347542088    81.4010164472441     
216.184908795222     0.10841896218463     81.3499297652539     0.989516239515296    -6.21855760494392    0.989516239515296    -6.21855760494392    0.10841896218463     81.3499297652539     
218.594608854456     0.109612330341283    81.2979667271017     0.989367005115764    -6.28735835121155    0.989367005115764    -6.28735835121155    0.109612330341283    81.2979667271017     
221.031168579372     0.110818581050913    81.2451206323846     0.989214793282846    -6.35691077809317    0.989214793282846    -6.35691077809317    0.110818581050913    81.2451206323846     
223.494887360607     0.112037844371225    81.1913846970181     0.98905954103807     -6.42722279133475    0.98905954103807     -6.42722279133475    0.112037844371225    81.1913846970181     
225.986067925951     0.113270251376761    81.1367520529899     0.988901184085554    -6.49830236976045    0.988901184085554    -6.49830236976045    0.113270251376761    81.1367520529899     
228.505016377544     0.114515934156483    81.0812157481232     0.988739656786172    -6.57015756560825    0.988739656786172    -6.57015756560825    0.114515934156483    81.0812157481232     
231.052042229482     0.115775025810893    81.0247687458493     0.988574892131261    -6.64279650485471    0.988574892131261    -6.64279650485471    0.115775025810893    81.0247687458493     
233.627458445856     0.117047660448682    80.967403924993      0.988406821715859    -6.71622738752635    0.988406821715859    -6.71622738752635    0.117047660448682    80.967403924993      
236.231581479204     0.118333973182917    80.9091140795663     0.988235375711618    -6.79045848800134    0.988235375711618    -6.79045848800134    0.118333973182917    80.9091140795663     
238.864731309393     0.119634100126687    80.8498919185772     0.988060482839121    -6.86549815529474    0.988060482839121    -6.86549815529474    0.119634100126687    80.8498919185772     
241.527231482939     0.120948178388261    80.7897300658484     0.98788207033993     -6.94135481333349    0.98788207033993     -6.94135481333349    0.120948178388261    80.7897300658484     
244.219409152762     0.122276346065692    80.7286210598503     0.987700063948088    -7.01803696121514    0.987700063948088    -7.01803696121514    0.122276346065692    80.7286210598503     
246.941595118384     0.123618742240846    80.6665573535484     0.987514387861168    -7.09555317345172    0.987514387861168    -7.09555317345172    0.123618742240846    80.6665573535484     
249.694123866576     0.124975506972875    80.6035313142633     0.987324964711008    -7.17391210019935    0.987324964711008    -7.17391210019935    0.124975506972875    80.6035313142633     
252.47733361246      0.126346781291063    80.5395352235494     0.987131715533784    -7.25312246746952    0.987131715533784    -7.25312246746952    0.126346781291063    80.5395352235494     
255.291566341062     0.12773270718707     80.4745612770849     0.98693455973988     -7.33319307732529    0.98693455973988     -7.33319307732529    0.12773270718707     80.4745612770849     
258.137167849337     0.129133427606511    80.408601584583      0.986733415083095    -7.4141328080585     0.986733415083095    -7.4141328080585     0.129133427606511    80.408601584583      
261.01448778866      0.130549086439876    80.3416481697175     0.986528197629557    -7.49595061434844    0.986528197629557    -7.49595061434844    0.130549086439876    80.3416481697175     
263.923879707784     0.131979828512763    80.2736929700685     0.986318821726094    -7.57865552740182    0.986318821726094    -7.57865552740182    0.131979828512763    80.2736929700685     
266.865701096287     0.13342579957538     80.2047278370863     0.986105199968199    -7.66225665507196    0.986105199968199    -7.66225665507196    0.13342579957538     80.2047278370863     
269.840313428494     0.134887146291326    80.1347445360757     0.985887243167538    -7.7467631819571     0.985887243167538    -7.7467631819571     0.134887146291326    80.1347445360757     
272.848082207898     0.13636401622559     80.063734746201      0.985664860318978    -7.83218436947677    0.985664860318978    -7.83218436947677    0.13636401622559     80.063734746201      
275.889377012066     0.137856557831774    79.9916900605129     0.985437958567256    -7.91852955592566    0.985437958567256    -7.91852955592566    0.137856557831774    79.9916900605129     
278.964571538053     0.139364920438487    79.9186019859972     0.9852064431731      -8.00580815650312    0.9852064431731      -8.00580815650312    0.139364920438487    79.9186019859972     
282.074043648321     0.140889254234906    79.8444619436491     0.98497021747895     -8.09402966331893    0.98497021747895     -8.09402966331893    0.140889254234906    79.8444619436491     
285.218175417166     0.142429710255457    79.7692612685696     0.984729182874286    -8.18320364537249    0.984729182874286    -8.18320364537249    0.142429710255457    79.7692612685696     
288.397353177666     0.143986440363606    79.6929912100895     0.984483238760421    -8.27333974850578    0.984483238760421    -8.27333974850578    0.143986440363606    79.6929912100895     
291.611967569153     0.145559597234712    79.6156429319188     0.984232282514974    -8.36444769532925    0.984232282514974    -8.36444769532925    0.145559597234712    79.6156429319188     
294.862413585209     0.147149334337928    79.5372075123243     0.983976209455792    -8.45653728511763    0.983976209455792    -8.45653728511763    0.147149334337928    79.5372075123243     
298.149090622205     0.148755805917119    79.4576759443354     0.9837149128046      -8.54961839367755    0.9837149128046      -8.54961839367755    0.148755805917119    79.4576759443354     
301.472402528373     0.150379166970745    79.3770391359806     0.983448283650069    -8.64370097318286    0.983448283650069    -8.64370097318286    0.150379166970745    79.3770391359806     
304.832757653431     0.152019573230716    79.2952879105547     0.983176210910593    -8.73879505197882    0.983176210910593    -8.73879505197882    0.152019573230716    79.2952879105547     
308.230568898756     0.153677181140152    79.2124130069167     0.982898581296645    -8.83491073435317    0.982898581296645    -8.83491073435317    0.153677181140152    79.2124130069167     
311.666253768124     0.155352147830024    79.1284050798239     0.982615279272657    -8.93205820027161    0.982615279272657    -8.93205820027161    0.155352147830024    79.1284050798239     
315.140234419002     0.157044631094656    79.0432547002975     0.982326187018643    -9.03024770507935    0.982326187018643    -9.03024770507935    0.157044631094656    79.0432547002975     
318.652937714429     0.158754789366039    78.9569523560268     0.98203118439132     -9.12948957916429    0.98203118439132     -9.12948957916429    0.158754789366039    78.9569523560268     
322.204795275463     0.160482781686935    78.8694884518079     0.981730148884948    -9.22979422758322    0.981730148884948    -9.22979422758322    0.160482781686935    78.8694884518079     
325.796243534214     0.162228767682715    78.7808533100225     0.981422955591798    -9.3311721296479     0.981422955591798    -9.3311721296479     0.162228767682715    78.7808533100225     
329.427723787475     0.163992907531915    78.6910371711565     0.981109477162218    -9.43363383846991    0.981109477162218    -9.43363383846991    0.163992907531915    78.6910371711565     
333.099682250941     0.165775361935468    78.6000301943591     0.980789583764464    -9.53718998046434    0.980789583764464    -9.53718998046434    0.165775361935468    78.6000301943591     
336.81257011404      0.167576292084567    78.5078224580438     0.980463143044145    -9.64185125480926    0.980463143044145    -9.64185125480926    0.167576292084567    78.5078224580438     
340.566843595375     0.169395859627131    78.4144039605354     0.980130020083388    -9.74762843285997    0.980130020083388    -9.74762843285997    0.169395859627131    78.4144039605354     
344.362963998777     0.17123422663283     78.3197646207603     0.97979007735975     -9.8545323575171     0.97979007735975     -9.8545323575171     0.17123422663283     78.3197646207603     
348.20139776999      0.173091555556619    78.2238942789855     0.9794431747048      -9.96257394254637    0.9794431747048      -9.96257394254637    0.173091555556619    78.2238942789855     
352.082616553983     0.17496800920077     78.1267826976048     0.979089169262526    -10.0717641718489    0.979089169262526    -10.0717641718489    0.17496800920077     78.1267826976048     
356.007097252907     0.176863750675331    78.0284195619757     0.978727915447484    -10.1821140986803    0.978727915447484    -10.1821140986803    0.176863750675331    78.0284195619757     
359.975322084692     0.178778943356983    77.9287944813084     0.978359264902689    -10.2936348448169    0.978359264902689    -10.2936348448169    0.178778943356983    77.9287944813084     
363.987778642296     0.180713750846264    77.8278969896066     0.977983066457454    -10.4063375996681    0.977983066457454    -10.4063375996681    0.180713750846264    77.8278969896066     
368.044959953623     0.182668336923089    77.725716546665      0.977599166084917    -10.5202336193316    0.977599166084917    -10.5202336193316    0.182668336923089    77.725716546665      
372.147364542101     0.184642865500557    77.6222425391228     0.977207406859571    -10.6353342255919    0.977207406859571    -10.6353342255919    0.184642865500557    77.6222425391228     
376.295496487937     0.186637500576985    77.5174642815745     0.97680762891458     -10.7516508048586    0.97680762891458     -10.7516508048586    0.186637500576985    77.5174642815745     
380.489865490056     0.188652406186114    77.4113710177429     0.976399669399114    -10.8691948070441    0.976399669399114    -10.8691948070441    0.188652406186114    77.4113710177429     
384.730986928732     0.190687746345467    77.3039519217123     0.975983362435551    -10.9879777443772    0.975983362435551    -10.9879777443772    0.190687746345467    77.3039519217123     
389.019381928911     0.192743685002795    77.1951960992266     0.975558539076716    -11.1080111901526    0.975558539076716    -11.1080111901526    0.192743685002795    77.1951960992266     
393.355577424247     0.194820385980585    77.0850925890515     0.975125027263161    -11.2293067774139    0.975125027263161    -11.2293067774139    0.194820385980585    77.0850925890515     
397.740106221848     0.196918012918553    76.9736303644063     0.974682651780409    -11.3518761975667    0.974682651780409    -11.3518761975667    0.196918012918553    76.9736303644063     
402.173507067744     0.199036729214118    76.8607983344628     0.974231234216418    -11.4757311989226    0.974231234216418    -11.4757311989226    0.199036729214118    76.8607983344628     
406.656324713086     0.201176697960785    76.7465853459176     0.973770592919046    -11.6008835851698    0.973770592919046    -11.6008835851698    0.201176697960785    76.7465853459176     
411.189109981078     0.203338081884382    76.6309801846355     0.973300542953809    -11.7273452137694    0.973300542953809    -11.7273452137694    0.203338081884382    76.6309801846355     
415.772419834665     0.205521043277136    76.5139715773709     0.972820896061736    -11.8551279942748    0.972820896061736    -11.8551279942748    0.205521043277136    76.5139715773709     
420.406817444966     0.207725743929528    76.3955481935626     0.972331460617623    -11.9842438865744    0.972331460617623    -11.9842438865744    0.207725743929528    76.3955481935626     
425.092872260473     0.209952345059859    76.275698647212      0.971832041588444    -12.1147048990512    0.971832041588444    -12.1147048990512    0.209952345059859    76.275698647212      
429.831160077022     0.212201007241517    76.1544114988399     0.971322440492268    -12.2465230866615    0.971322440492268    -12.2465230866615    0.212201007241517    76.1544114988399     
434.622263108546     0.214471890327884    76.0316752575274     0.970802455357464    -12.3797105489286    0.970802455357464    -12.3797105489286    0.214471890327884    76.0316752575274     
439.466770058609     0.216765153374825    75.9074783830426     0.970271880682466    -12.5142794278495    0.970271880682466    -12.5142794278495    0.216765153374825    75.9074783830426     
444.365276192749     0.219080954560738    75.7818092880545     0.969730507395997    -12.6502419057127    0.969730507395997    -12.6502419057127    0.219080954560738    75.7818092880545     
449.318383411614     0.221419451104088    75.6546563404376     0.969178122817871    -12.7876102028241    0.969178122817871    -12.7876102028241    0.221419451104088    75.6546563404376     
454.326700324928     0.223780799178437    75.526007865666      0.968614510620523    -12.9263965751425    0.968614510620523    -12.9263965751425    0.223780799178437    75.526007865666      
459.390842326264     0.226165153824848    75.3958521493044     0.968039450791144    -13.0666133118158    0.968039450791144    -13.0666133118158    0.226165153824848    75.3958521493044     
464.511431668668     0.228572668861684    75.2641774395936     0.967452719594598    -13.2082727326221    0.967452719594598    -13.2082727326221    0.228572668861684    75.2641774395936     
469.689097541114     0.231003496791742    75.1309719501343     0.966854089537281    -13.3513871853111    0.966854089537281    -13.3513871853111    0.231003496791742    75.1309719501343     
474.92447614582      0.233457788706668    74.9962238626718     0.966243329331794    -13.4959690428423    0.966243329331794    -13.4959690428423    0.233457788706668    74.9962238626718     
480.218210776411     0.235935694188609    74.8599213299839     0.965620203862597    -13.6420307005192    0.965620203862597    -13.6420307005192    0.235935694188609    74.8599213299839     
485.570951896975     0.238437361209107    74.7220524788726     0.96498447415283     -13.7895845730189    0.96498447415283     -13.7895845730189    0.238437361209107    74.7220524788726     
490.983357221978     0.240962936025139    74.5826054132625     0.964335897332178    -13.9386430913106    0.964335897332178    -13.9386430913106    0.240962936025139    74.5826054132625     
496.45609179709      0.243512563072303    74.4415682174099     0.963674226606038    -14.0892186994656    0.963674226606038    -14.0892186994656    0.243512563072303    74.4415682174099     
501.989828080893     0.246086384855102    74.2989289592225     0.962999211225927    -14.2413238513528    0.962999211225927    -14.2413238513528    0.246086384855102    74.2989289592225     
507.585246027516     0.248684541834306    74.1546756936913     0.962310596461384    -14.3949710072201    0.962310596461384    -14.3949710072201    0.248684541834306    74.1546756936913     
513.243033170177     0.251307172311338    74.0087964664399     0.961608123573288    -14.5501726301584    0.961608123573288    -14.5501726301584    0.251307172311338    74.0087964664399     
518.963884705671     0.253954412309679    73.8612793173898     0.960891529788821    -14.7069411824462    0.960891529788821    -14.7069411824462    0.253954412309679    73.8612793173898     
524.748503579787     0.256626395453256    73.7121122845465     0.960160548278104    -14.8652891217729    0.960160548278104    -14.8652891217729    0.256626395453256    73.7121122845465     
530.597600573682     0.259323252841784    73.5612834079057     0.95941490813264     -15.0252288973391    0.95941490813264     -15.0252288973391    0.259323252841784    73.5612834079057     
536.511894391218     0.262045112923034    73.4087807334855     0.958654334345594    -15.1867729458303    0.958654334345594    -15.1867729458303    0.262045112923034    73.4087807334855     
542.492111747273     0.264792101362037    73.2545923174815     0.957878547794159    -15.3499336872645    0.957878547794159    -15.3499336872645    0.264792101362037    73.2545923174815     
548.538987457039     0.267564340907184    73.0987062305509     0.95708726522398     -15.5147235207101    0.95708726522398     -15.5147235207101    0.267564340907184    73.0987062305509     
554.653264526303     0.270361951253202    72.9411105622257     0.95628019923581     -15.6811548198716    0.95628019923581     -15.6811548198716    0.270361951253202    72.9411105622257     
560.835694242754     0.273185048901021    72.7817934254562     0.955457058274541    -15.8492399285443    0.955457058274541    -15.8492399285443    0.273185048901021    72.7817934254562     
567.087036268287     0.276033747014512    72.6207429612881     0.954617546620646    -16.0189911559318    0.954617546620646    -16.0189911559318    0.276033747014512    72.6207429612881     
573.408058732353     0.278908155274095    72.4579473436726     0.953761364384259    -16.1904207718294    0.953761364384259    -16.1904207718294    0.278908155274095    72.4579473436726     
579.799538326342     0.28180837972723     72.2933947844139     0.952888207501921    -16.3635410016681    0.952888207501921    -16.3635410016681    0.28180837972723     72.2933947844139     
586.262260399013     0.284734522635766    72.1270735382534     0.951997767736169    -16.5383640214192    0.951997767736169    -16.5383640214192    0.284734522635766    72.1270735382534     
592.797019052997     0.287686682320208    71.958971908091      0.951089732678154    -16.7149019523584    0.951089732678154    -16.7149019523584    0.287686682320208    71.958971908091      
599.404617242375     0.290664953000871    71.7890782503499     0.950163785753236    -16.8931668556871    0.950163785753236    -16.8931668556871    0.290664953000871    71.7890782503499     
606.085866871333     0.293669424635987    71.6173809804778     0.949219606229968    -17.0731707270115    0.949219606229968    -17.0731707270115    0.293669424635987    71.6173809804778     
612.84158889393      0.296700182756729    71.4438685785946     0.948256869232316    -17.254925490675     0.948256869232316    -17.254925490675     0.296700182756729    71.4438685785946     
619.672613414971     0.299757308299271    71.2685295952796     0.947275245755517    -17.4384429939471    0.947275245755517    -17.4384429939471    0.299757308299271    71.2685295952796     
626.579779792003     0.302840877433829    71.0913526575047     0.946274402685506    -17.6237350010653    0.946274402685506    -17.6237350010653    0.302840877433829    71.0913526575047     
633.563936738453     0.305950961390797    70.9123264747105     0.945254002822192    -17.8108131871295    0.945254002822192    -17.8108131871295    0.305950961390797    70.9123264747105     
640.625942427914     0.309087626284007    70.7314398450274     0.944213704906716    -17.9996891318495    0.944213704906716    -17.9996891318495    0.309087626284007    70.7314398450274     
647.76666459959      0.312250932931139    70.548681661643      0.943153163652721    -18.1903743131443    0.943153163652721    -18.1903743131443    0.312250932931139    70.548681661643      
654.986980664919     0.315440936671409    70.3640409193124     0.942072029781999    -18.3828801005938    0.942072029781999    -18.3828801005938    0.315440936671409    70.3640409193124     
662.287777815386     0.318657687180541    70.1775067210156     0.940969950064464    -18.5772177487411    0.940969950064464    -18.5772177487411    0.318657687180541    70.1775067210156     
669.669953131535     0.321901228283152    69.9890682847588     0.939846567362682    -18.7733983902483    0.939846567362682    -18.7733983902483    0.321901228283152    69.9890682847588     
677.134413693198     0.325171597762606    69.7987149505198     0.938701520681185    -18.9714330289042    0.938701520681185    -18.9714330289042    0.325171597762606    69.7987149505198     
684.682076690951     0.328468827168448    69.6064361873379     0.93753444522058     -19.1713325324839    0.93753444522058     -19.1713325324839    0.328468827168448    69.6064361873379     
692.313869538813     0.331792941621524    69.4122216005455     0.936344972436752    -19.373107625465     0.936344972436752    -19.373107625465     0.331792941621524    69.4122216005455     
700.030729988201     0.33514395961688     69.2160609391425     0.935132730105217    -19.5767688815951    0.935132730105217    -19.5767688815951    0.33514395961688     69.2160609391425     
707.83360624316      0.338521892824586    69.0179441033097     0.933897342390798    -19.7823267163181    0.933897342390798    -19.7823267163181    0.338521892824586    69.0179441033097     
715.723457076864     0.341926745888606    68.8178611520609     0.932638429922856    -19.9897913790574    0.932638429922856    -19.9897913790574    0.341926745888606    68.8178611520609     
723.701251949435     0.345358516223841    68.6158023110327     0.93135560987612     -20.1991729453579    0.93135560987612     -20.1991729453579    0.345358516223841    68.6158023110327     
731.767971127056     0.348817193811531    68.4117579804067     0.930048496057358    -20.4104813088911    0.930048496057358    -20.4104813088911    0.348817193811531    68.4117579804067     
739.924605802426     0.352302760993115    68.2057187429669     0.928716698997947    -20.6237261733217    0.928716698997947    -20.6237261733217    0.352302760993115    68.2057187429669     
748.17215821655      0.355815192262822    67.9976753722806     0.927359826052658    -20.8389170440443    0.927359826052658    -20.8389170440443    0.355815192262822    67.9976753722806     
756.511641781889     0.359354454059033    67.7876188410115     0.925977481504575    -21.0560632197862    0.925977481504575    -21.0560632197862    0.359354454059033    67.7876188410115     
764.944081206882     0.362920504554746    67.5755403293505     0.924569266676496    -21.2751737840848    0.924569266676496    -21.2751737840848    0.362920504554746    67.5755403293505     
773.470512621858     0.366513293447262    67.3614312335674     0.923134780048853    -21.4962575966428    0.923134780048853    -21.4962575966428    0.366513293447262    67.3614312335674     
782.091983706348     0.370132761747316    67.1452831746767     0.921673617384287    -21.7193232845605    0.921673617384287    -21.7193232845605    0.370132761747316    67.1452831746767     
790.809553817818     0.373778841567923    66.927088007213      0.92018537185908     -21.9443792334564    0.92018537185908     -21.9443792334564    0.373778841567923    66.927088007213      
799.624294121837     0.377451455913114    66.7068378281115     0.91866963420148     -22.1714335784755    0.91866963420148     -22.1714335784755    0.377451455913114    66.7068378281115     
808.537287723699     0.381150518466871    66.4845249856885     0.91712599283713     -22.4004941951931    0.91712599283713     -22.4004941951931    0.381150518466871    66.4845249856885     
817.549629801502     0.384875933382463    66.260142088716      0.915554034041638    -22.631568690418     0.915554034041638    -22.631568690418     0.384875933382463    66.260142088716      
826.662427740723     0.388627595072496    66.0336820155847     0.913953342100456    -22.8646643929015    0.913953342100456    -22.8646643929015    0.388627595072496    66.0336820155847     
835.876801270286     0.392405387999971    65.8051379235473     0.912323499476162    -23.0997883439604    0.912323499476162    -23.0997883439604    0.392405387999971    65.8051379235473     
845.193882600148     0.396209186470577    65.5745032580382     0.910664086983182    -23.3369472880164    0.910664086983182    -23.3369472880164    0.396209186470577    65.5745032580382     
854.614816560416     0.400038854426612    65.3417717620595     0.908974683970126    -23.5761476630632    0.908974683970126    -23.5761476630632    0.400038854426612    65.3417717620595     
864.140760742019     0.403894245242797    65.1069374856263     0.907254868509756    -23.8173955910668    0.907254868509756    -23.8173955910668    0.403894245242797    65.1069374856263     
873.772885638949     0.407775201524324    64.8699947952647     0.905504217596625    -24.0606968683061    0.905504217596625    -24.0606968683061    0.407775201524324    64.8699947952647     
883.51237479208      0.411681554907489    64.6309383835511     0.903722307352579    -24.3060569556652    0.903722307352579    -24.3060569556652    0.411681554907489    64.6309383835511     
893.360424934598     0.415613125863261    64.3897632786858     0.901908713239941    -24.5534809688823    0.901908713239941    -24.5534809688823    0.415613125863261    64.3897632786858     
903.318246139046     0.419569723504142    64.146464854091      0.900063010282647    -24.8029736687682    0.900063010282647    -24.8029736687682    0.419569723504142    64.146464854091      
913.387061966013     0.423551145394705    63.9010388380214     0.898184773295172    -25.0545394514014    0.898184773295172    -25.0545394514014    0.423551145394705    63.9010388380214     
923.56810961448      0.427557177366182    63.6534813231799     0.896273577119348    -25.3081823383109    0.896273577119348    -25.3081823383109    0.427557177366182    63.6534813231799     
933.862640073834     0.431587593335505    63.4037887763264     0.894328996869011    -25.5639059666568    0.894328996869011    -25.5639059666568    0.431587593335505    63.4037887763264     
944.27191827759      0.435642155129238    63.1519580478637     0.892350608182538    -25.8217135794237    0.892350608182538    -25.8217135794237    0.435642155129238    63.1519580478637     
954.79722325881      0.439720612312712    62.8979863813985     0.890337987483058    -26.0816080156292    0.890337987483058    -26.0816080156292    0.439720612312712    62.8979863813985     
965.439848307273     0.443822702024935    62.6418714232548     0.888290712246507    -26.3435917005704    0.888290712246507    -26.3435917005704    0.443822702024935    62.6418714232548     
976.20110112838      0.447948148819574    62.3836112319328     0.886208361277282    -26.6076666361132    0.886208361277282    -26.6076666361132    0.447948148819574    62.3836112319328     
987.082304003841     0.452096664512502    62.1232042875003     0.884090514991408    -26.873834391039     0.884090514991408    -26.873834391039     0.452096664512502    62.1232042875003     
998.084793954148     0.456267948036411    61.8606495008979     0.88193675570727     -27.1420960914656    0.88193675570727     -27.1420960914656    0.456267948036411    61.8606495008979     
1009.20992290286     0.460461685302791    61.595946223151      0.879746667943514    -27.4124524113486    0.879746667943514    -27.4124524113486    0.460461685302791    61.595946223151      
1020.45905784272     0.464677549071915    61.3290942544676     0.877519838724238    -27.6849035630858    0.877519838724238    -27.6849035630858    0.464677549071915    61.3290942544676     
1031.83358100363     0.468915198831152    61.0600938532097     0.875255857891086    -27.9594492882333    0.875255857891086    -27.9594492882333    0.468915198831152    61.0600938532097     
1043.33489002247     0.4731742806821      60.7889457447261     0.872954318422157    -28.2360888483479    0.872954318422157    -28.2360888483479    0.4731742806821      60.7889457447261     
1054.96439811487     0.477454427237088    60.5156511300225     0.870614816757513    -28.5148210159766    0.870614816757513    -28.5148210159766    0.477454427237088    60.5156511300225     
1066.72353424882     0.481755257525372    60.2402116942628     0.868236953130997    -28.7956440658013    0.868236953130997    -28.7956440658013    0.481755257525372    60.2402116942628     
1078.61374332026     0.486076376909605    59.962629615078      0.865820331908113    -29.0785557659594    0.865820331908113    -29.0785557659594    0.486076376909605    59.962629615078      
1090.63648633066     0.490417377013008    59.6829075706682     0.863364561929745    -29.3635533695556    0.863364561929745    -29.3635533695556    0.490417377013008    59.6829075706682     
1102.79324056646     0.494777835657698    59.4010487476804     0.86086925686131     -29.6506336063801    0.86086925686131     -29.6506336063801    0.494777835657698    59.4010487476804     
1115.0854997807      0.499157316814612    59.1170568488474     0.858334035547063    -29.9397926748493    0.858334035547063    -29.9397926748493    0.499157316814612    59.1170568488474     
1127.51477437645     0.503555370565521    58.8309361003665     0.855758522369191    -30.231026234187     0.855758522369191    -30.231026234187     0.503555370565521    58.8309361003665     
1140.08259159248     0.50797153307758     58.5426912590004     0.85314234761133     -30.524329396865     0.85314234761133     -30.524329396865     0.50797153307758     58.5426912590004     
1152.79049569089     0.512405326590788    58.2523276188854     0.850485147826057    -30.8196967213145    0.850485147826057    -30.8196967213145    0.512405326590788    58.2523276188854     
1165.64004814685     0.516856259418863    57.9598510180282     0.847786566205944    -31.1171222049305    0.847786566205944    -31.1171222049305    0.516856259418863    57.9598510180282     
1178.63282784049     0.521323825963922    57.6652678444676     0.845046252957756    -31.416599277386     0.845046252957756    -31.416599277386     0.521323825963922    57.6652678444676     
1191.77043125088     0.52580750674531     57.3685850420939     0.842263865679232    -31.7181207942679    0.842263865679232    -31.7181207942679    0.52580750674531     57.3685850420939     
1205.05447265221     0.530306768443083    57.069810116095      0.839439069738011    -32.0216790310605    0.839439069738011    -32.0216790310605    0.530306768443083    57.069810116095      
1218.48658431215     0.534821063956428    56.7689511380199     0.836571538652183    -32.3272656774868    0.836571538652183    -32.3272656774868    0.534821063956428    56.7689511380199     
1232.06841669239     0.539349832477375    56.4660167504396     0.83366095447183     -32.6348718322251    0.83366095447183     -32.6348718322251    0.539349832477375    56.4660167504396     
1245.80163865145     0.543892499580208    56.1610161711836     0.830707008161064    -32.9444879980234    0.830707008161064    -32.9444879980234    0.543892499580208    56.1610161711836     
1259.68793764976     0.548448477326792    55.8539591971398     0.827709399979946    -33.25610407722      0.827709399979946    -33.25610407722      0.548448477326792    55.8539591971398     
1273.72901995698     0.553017164388198    55.544856207594      0.824667839865667    -33.5697093676941    0.824667839865667    -33.5697093676941    0.553017164388198    55.544856207594      
1287.92661086165     0.557597946182803    55.2337181670983     0.821582047812297    -33.885292559256     0.821582047812297    -33.885292559256     0.557597946182803    55.2337181670983     
1302.28245488323     0.562190195031176    54.920556627845      0.818451754248542    -34.2028417304979    0.818451754248542    -34.2028417304979    0.562190195031176    54.920556627845      
1316.7983159864      0.566793270327923    54.6053837315333     0.815276700412778    -34.5223443461159    0.815276700412778    -34.5223443461159    0.566793270327923    54.6053837315333     
1331.47597779783     0.571406518730673    54.2882122107103     0.812056638724669    -34.8437872547211    0.812056638724669    -34.8437872547211    0.571406518730673    54.2882122107103     
1346.31724382537     0.57602927436636     53.9690553895728     0.808791333152627    -35.167156687152     0.808791333152627    -35.167156687152     0.57602927436636     53.9690553895728     
1361.3239376796      0.580660859054912    53.6479271842115     0.805480559576515    -35.4924382553013    0.805480559576515    -35.4924382553013    0.580660859054912    53.6479271842115     
1376.49790329794     0.585300582550421    53.3248421022864     0.802124106144703    -35.8196169514701    0.802124106144703    -35.8196169514701    0.585300582550421    53.3248421022864     
1391.84100517124     0.58994774279986     52.999815242116      0.798721773624809    -36.1486771482638    0.798721773624809    -36.1486771482638    0.58994774279986     52.999815242116      
1407.3551285728      0.594601626219311    52.6728622911699     0.795273375747386    -36.4796025990348    0.795273375747386    -36.4796025990348    0.594601626219311    52.6728622911699     
1423.04217979014     0.599261507987746    52.3439995239485     0.791778739541746    -36.8123764388904    0.791778739541746    -36.8123764388904    0.599261507987746    52.3439995239485     
1438.90408635912     0.603926652358152    52.0132437992463     0.788237705663175    -37.1469811862635    0.788237705663175    -37.1469811862635    0.603926652358152    52.0132437992463     
1454.94279730086     0.608596312986068    51.6806125567738     0.784650128710764    -37.483398745069     0.784650128710764    -37.483398745069     0.608596312986068    51.6806125567738     
1471.16028336118     0.613269733275214    51.3461238131446     0.781015877535081    -37.8216104074385    0.781015877535081    -37.8216104074385    0.613269733275214    51.3461238131446     
1487.55853725279     0.617946146740106    51.009796157205      0.7773348355349      -38.1615968570486    0.7773348355349      -38.1615968570486    0.617946146740106    51.009796157205      
1504.13957390012     0.62262477738538     50.6716487447077     0.773606900942281    -38.5033381730428    0.773606900942281    -38.5033381730428    0.62262477738538     50.6716487447077     
1520.90543068691     0.627304840101518    50.3317012923191     0.769831987095125    -38.8468138345509    0.769831987095125    -38.8468138345509    0.627304840101518    50.3317012923191     
1537.85816770653     0.631985541076734    49.9899740709499     0.766010022696572    -39.1920027258117    0.766010022696572    -39.1920027258117    0.631985541076734    49.9899740709499     
1554.99986801516     0.636666078224478    49.6464878984178     0.7621409520604      -39.5388831418914    0.7621409520604      -39.5388831418914    0.636666078224478    49.6464878984178     
1572.33263788771     0.641345641626309    49.3012641314239     0.758224735341793    -39.8874327950044    0.758224735341793    -39.8874327950044    0.641345641626309    49.3012641314239     
1589.85860707663     0.646023413989551    48.9543246568508     0.754261348752653    -40.2376288214305    0.754261348752653    -40.2376288214305    0.646023413989551    48.9543246568508     
1607.57992907361     0.650698571119228    48.6056918823814     0.750250784760869    -40.5894477890215    0.750250784760869    -40.5894477890215    0.650698571119228    48.6056918823814     
1625.49878137417     0.655370282403824    48.255388726431      0.746193052272827    -40.9428657053001    0.746193052272827    -40.9428657053001    0.655370282403824    48.255388726431      
1643.61736574526     0.660037711314091    47.9034386074075     0.742088176798485    -41.2978580261314    0.742088176798485    -41.2978580261314    0.660037711314091    47.9034386074075     
1661.93790849576     0.664700015914389    47.5498654322944     0.737936200598434    -41.6543996649663    0.737936200598434    -41.6543996649663    0.664700015914389    47.5498654322944     
1680.46266075004     0.669356349385874    47.1946935845609     0.733737182812367    -42.0124650026461    0.733737182812367    -42.0124650026461    0.669356349385874    47.1946935845609     
1699.1938987246      0.67400586056066     46.8379479114154     0.729491199568314    -42.3720278977456    0.729491199568314    -42.3720278977456    0.67400586056066     46.8379479114154     
1718.13392400771     0.678647694466358    46.4796537103999     0.725198344072264    -42.7330616974517    0.725198344072264    -42.7330616974517    0.678647694466358    46.4796537103999     
1737.28506384225     0.683280992880085    46.119836715339      0.72085872667751     -43.0955392489532    0.72085872667751     -43.0955392489532    0.683280992880085    46.119836715339      
1756.64967141165     0.6879048948911      45.7585230816569     0.716472474933428    -43.4594329113233    0.716472474933428    -43.4594329113233    0.6879048948911      45.7585230816569     
1776.23012612908     0.692518537471194    45.3957393710729     0.712039733613187    -43.8247145678756    0.712039733613187    -43.8247145678756    0.692518537471194    45.3957393710729     
1796.02883392973     0.69712105605195     45.031512535687      0.707560664720076    -44.1913556389708    0.707560664720076    -44.1913556389708    0.69712105605195     45.031512535687      
1816.04822756653     0.701711585107904    44.6658699014746     0.703035447472089    -44.5593270952477    0.703035447472089    -44.5593270952477    0.701711585107904    44.6658699014746     
1836.29076690902     0.70628925874456     44.2988391512094     0.698464278264562    -44.928599471248     0.698464278264562    -44.928599471248     0.70628925874456     44.2988391512094     
1856.75893924562     0.710853211290426    43.930448306825      0.693847370610588    -45.2991428794134    0.693847370610588    -45.2991428794134    0.710853211290426    43.930448306825      
1877.45525958925     0.715402577891869    43.5607257112438     0.689184955059072    -45.6709270244141    0.689184955059072    -45.6709270244141    0.715402577891869    43.5607257112438     
1898.38227098637     0.719936495109858    43.1897000096896     0.684477279090297    -46.0439212177804    0.684477279090297    -46.0439212177804    0.719936495109858    43.1897000096896     
1919.54254482943     0.724454101517495    42.8174001305075     0.679724606988946    -46.4180943927995    0.679724606988946    -46.4180943927995    0.724454101517495    42.8174001305075     
1940.93868117288     0.728954538297254    42.4438552655164     0.674927219694597    -46.7934151196369    0.674927219694597    -46.7934151196369    0.728954538297254    42.4438552655164     
1962.57330905259     0.733436949836854    42.0690948499168     0.670085414629708    -47.1698516206455    0.670085414629708    -47.1698516206455    0.733436949836854    42.0690948499168     
1984.44908680892     0.737900484322659    41.6931485417843     0.665199505505173    -47.5473717858128    0.665199505505173    -47.5473717858128    0.737900484322659    41.6931485417843     
2006.56870241336     0.742344294329524    41.3160462011715     0.660269822103731    -47.9259431883072    0.660269822103731    -47.9259431883072    0.742344294329524    41.3160462011715     
2028.93487379882     0.746767537405946    40.9378178688523     0.655296710041301    -48.3055331000678    0.655296710041301    -48.3055331000678    0.746767537405946    40.9378178688523     
2051.55034919357     0.751169376653486    40.558493744733      0.650280530506608    -48.6861085073936    0.650280530506608    -48.6861085073936    0.751169376653486    40.558493744733      
2074.41790745897     0.755548981299304    40.1781041659663     0.64522165997942     -49.067636126473     0.64522165997942     -49.067636126473     0.755548981299304    40.1781041659663     
2097.54035843087     0.759905527260756    39.7966795847957     0.640120489927774    -49.4500824187989    0.640120489927774    -49.4500824187989    0.759905527260756    39.7966795847957     
2120.92054326488     0.764238197700991    39.414250546164      0.634977426484669    -49.8334136064121    0.634977426484669    -49.8334136064121    0.764238197700991    39.414250546164      
2144.56133478553     0.768546183574476    39.03084766512       0.629792890104636    -50.2175956869093    0.629792890104636    -50.2175956869093    0.768546183574476    39.03084766512       
2168.46563783917     0.772828684161402    38.6465016040568     0.624567315200895    -50.6025944481482    0.624567315200895    -50.6025944481482    0.772828684161402    38.6465016040568     
2192.63638965098     0.777084907590006    38.2612430498147     0.619301149763573    -50.988375482588     0.619301149763573    -50.988375482588     0.777084907590006    38.2612430498147     
2217.07656018586     0.781314071345763    37.8751026906859     0.613994854959652    -51.3749042011862    0.613994854959652    -51.3749042011862    0.781314071345763    37.8751026906859     
2241.78915251333     0.785515402766558    37.4881111933524     0.608648904715483    -51.7621458467838    0.608648904715483    -51.7621458467838    0.785515402766558    37.4881111933524     
2266.77720317657     0.789688139522831    37.1002991797992     0.603263785282429    -52.1500655068936    0.603263785282429    -52.1500655068936    0.789688139522831    37.1002991797992     
2292.04378256551     0.793831530081911    36.7116972042301     0.597839994786588    -52.5386281258154    0.597839994786588    -52.5386281258154    0.793831530081911    36.7116972042301     
2317.59199529412     0.7979448341556      36.322335730028      0.592378042763383    -52.9277985159882    0.592378042763383    -52.9277985159882    0.7979448341556      36.322335730028      
2343.42498058188     0.802027323130235    35.9322451067943     0.586878449677872    -53.3175413684865    0.586878449677872    -53.3175413684865    0.802027323130235    35.9322451067943     
2369.54591263949     0.806078280478466    35.5414555475011     0.581341746431757    -53.7078212625695    0.581341746431757    -53.7078212625695    0.806078280478466    35.5414555475011     
2395.95800105892     0.81009700215204     35.1499971057925     0.575768473857996    -54.0986026741795    0.575768473857996    -54.0986026741795    0.81009700215204     35.1499971057925     
2422.66449120779     0.814082796954882    34.7578996534722     0.570159182204044    -54.4898499832808    0.570159182204044    -54.4898499832808    0.814082796954882    34.7578996534722     
2449.66866462815     0.818034986895903    34.3651928582088     0.56451443060468     -54.8815274799316    0.56451443060468     -54.8815274799316    0.818034986895903    34.3651928582088     
2476.97383943964     0.82195290752091     33.9719061614969     0.558834786545557    -55.2735993689618    0.558834786545557    -55.2735993689618    0.82195290752091     33.9719061614969     
2504.58337074727     0.825835908223176    33.5780687569023     0.553120825318403    -55.6660297731382    0.553120825318403    -55.6660297731382    0.825835908223176    33.5780687569023     
2532.50065105366     0.829683352532122    33.1837095686326     0.547373129469118    -56.058782734672     0.547373129469118    -56.058782734672     0.829683352532122    33.1837095686326     
2560.72911067586     0.833494618379782    32.7888572304575     0.541592288239684    -56.4518222149326    0.541592288239684    -56.4518222149326    0.833494618379782    32.7888572304575     
2589.27221816689     0.837269098344672    32.3935400650132     0.535778897005162    -56.8451120922092    0.535778897005162    -56.8451120922092    0.837269098344672    32.3935400650132     
2618.13348074189     0.841006199872738    31.9977860635271     0.529933556706807    -57.2386161573511    0.529933556706807    -57.2386161573511    0.841006199872738    31.9977860635271     
2647.31644470911     0.84470534547524     31.6016228659818     0.524056873282404    -57.6322981071155    0.524056873282404    -57.6322981071155    0.84470534547524     31.6016228659818     
2676.82469590564     0.848365972903306    31.2050777417561     0.518149457095047    -58.0261215350259    0.518149457095047    -58.0261215350259    0.848365972903306    31.2050777417561     
2706.66186013801     0.851987535299072    30.8081775707683     0.512211922361419    -58.4200499195301    0.512211922361419    -58.4200499195301    0.851987535299072    30.8081775707683     
2736.83160362774     0.855569501323391    30.410948825145      0.506244886580672    -58.814046609241     0.506244886580672    -58.814046609241     0.855569501323391    30.410948825145      
2767.33763346178     0.859111355260034    30.0134175514458     0.500248969965127    -59.2080748050044    0.500248969965127    -59.2080748050044    0.859111355260034    30.0134175514458     
2798.18369804806     0.86261259709649     29.6156093534653     0.494224794873784    -59.6020975385327    0.494224794873784    -59.6020975385327    0.86261259709649     29.6156093534653     
2829.37358757602     0.866072742581472    29.2175493756339     0.488172985249814    -59.9960776473118    0.488172985249814    -59.9960776473118    0.866072742581472    29.2175493756339     
2860.91113448239     0.869491323259281    28.8192622870411     0.482094166063078    -60.3899777454582    0.482094166063078    -60.3899777454582    0.869491323259281    28.8192622870411     
2892.80021392205     0.872867886481241    28.4207722661018     0.47598896275874     -60.7837601901727    0.47598896275874     -60.7837601901727    0.872867886481241    28.4207722661018     
2925.04474424421     0.876201995394506    28.0221029858819     0.46985800071301     -61.177387043406     0.46985800071301     -61.177387043406     0.876201995394506    28.0221029858819     
2957.64868747387     0.879493228908528    27.623277600102      0.463701904697056    -61.5708200283053    0.463701904697056    -61.5708200283053    0.879493228908528    27.623277600102      
2990.61604979865     0.882741181639588    27.2243187298356     0.457521298350008    -61.9640204799647    0.457521298350008    -61.9640204799647    0.882741181639588    27.2243187298356     
3023.95088206104     0.885945463833766    26.8252484509145     0.451316803662139    -62.3569492899531    0.451316803662139    -62.3569492899531    0.885945463833766    26.8252484509145     
3057.65728025614     0.889105701268868    26.4260882820562     0.445089040469033    -62.7495668440327    0.445089040469033    -62.7495668440327    0.889105701268868    26.4260882820562     
3091.739386035       0.892221535135769    26.0268591737224     0.438838625957706    -63.1418329524109    0.438838625957706    -63.1418329524109    0.892221535135769    26.0268591737224     
3126.20138721346     0.895292621899714    25.6275814977237     0.432566174185589    -63.5337067717914    0.432566174185589    -63.5337067717914    0.895292621899714    25.6275814977237     
3161.04751828676     0.898318633142233    25.2282750375704     0.426272295613125    -63.9251467184084    0.426272295613125    -63.9251467184084    0.898318633142233    25.2282750375704     
3196.28206094984     0.901299255384176    24.8289589795864     0.419957596650892    -64.3161103711102    0.419957596650892    -64.3161103711102    0.901299255384176    24.8289589795864     
3231.90934462345     0.904234189890624    24.4296519047852     0.413622679221947    -64.7065543634625    0.413622679221947    -64.7065543634625    0.904234189890624    24.4296519047852     
3267.93374698614     0.907123152458291    24.0303717815146     0.407268140340217    -65.096434263692     0.407268140340217    -65.096434263692     0.907123152458291    24.0303717815146     
3304.35969451213     0.90996587318617     23.6311359588741     0.400894571705554    -65.4857044411421    0.400894571705554    -65.4857044411421    0.90996587318617     23.6311359588741     
3341.19166301527     0.912762096230131    23.2319611609039     0.394502559316252    -65.8743179177401    0.394502559316252    -65.8743179177401    0.912762096230131    23.2319611609039     
3378.43417819892     0.915511579542248    22.8328634815503     0.388092683099592    -66.262226202757     0.388092683099592    -66.262226202757     0.915511579542248    22.8328634815503     
3416.09181621211     0.918214094595631    22.4338583804006     0.381665516561082    -66.6493791089193    0.381665516561082    -66.6493791089193    0.918214094595631    22.4338583804006     
3454.16920421182     0.920869426095554    22.0349606791921     0.375221626452995    -67.0357245476414    0.375221626452995    -67.0357245476414    0.920869426095554    22.0349606791921     
3492.6710209315      0.923477371677715    21.6361845590848     0.368761572462776    -67.421208300835     0.368761572462776    -67.421208300835     0.923477371677715    21.6361845590848     
3531.60199725602     0.926037741594407    21.2375435587008     0.362285906921899    -67.8057737663698    0.362285906921899    -67.8057737663698    0.926037741594407    21.2375435587008     
3570.96691680294     0.928550358389499    20.8390505729192     0.355795174535708    -68.1893616738278    0.355795174535708    -68.1893616738278    0.928550358389499    20.8390505729192     
3610.77061651028     0.931015056563013    20.4407178524208     0.349289912134808    -68.5719097666737    0.349289912134808    -68.5719097666737    0.931015056563013    20.4407178524208     
3651.01798723091     0.933431682226189    20.0425570039779     0.34277064844852     -68.9533524463569    0.34277064844852     -68.9533524463569    0.933431682226189    20.0425570039779     
3691.71397433346     0.935800092747857    19.644578991478      0.336237903901014    -69.3336203731524    0.336237903901014    -69.3336203731524    0.935800092747857    19.644578991478      
3732.86357831001     0.938120156392996    19.2467941376729     0.329692190430636    -69.7126400176953    0.329692190430636    -69.7126400176953    0.938120156392996    19.2467941376729     
3774.47185539048     0.940391751954321    18.849212126642      0.323134011333058    -70.090333156168     0.323134011333058    -70.090333156168     0.940391751954321    18.849212126642      
3816.54391816397     0.942614768377738    18.4518420069605     0.316563861128928    -70.4666163008944    0.316563861128928    -70.4666163008944    0.942614768377738    18.4518420069605     
3859.08493620692     0.944789104382541    18.0546921955591     0.309982225456698    -70.8414000566782    0.309982225456698    -70.8414000566782    0.944789104382541    18.0546921955591     
3902.10013671833     0.946914668077136    17.6577704822642     0.30338958099149     -71.2145883915021    0.30338958099149     -71.2145883915021    0.946914668077136    17.6577704822642     
3945.59480516208     0.94899137657119     17.2610840350026     0.296786395390838    -71.5860778081517    0.296786395390838    -71.5860778081517    0.94899137657119     17.2610840350026     
3989.57428591631     0.951019155584954    16.8646394056624     0.290173127268476    -71.9557564008264    0.290173127268476    -71.9557564008264    0.951019155584954    16.8646394056624     
4034.04398293017     0.952997939056618    16.4684425365891     0.283550226197317    -72.3235027777956    0.283550226197317    -72.3235027777956    0.952997939056618    16.4684425365891     
4079.00936038781     0.954927668748461    16.0724987677086     0.276918132743207    -72.6891848274594    0.276918132743207    -72.6891848274594    0.954927668748461    16.0724987677086     
4124.47594337975     0.956808293852592    15.676812844258      0.270277278531148    -73.0526583006866    0.270277278531148    -73.0526583006866    0.956808293852592    15.676812844258      
4170.44931858185     0.958639770597037    15.2813889251096     0.26362808634621     -73.4137651767537    0.26362808634621     -73.4137651767537    0.958639770597037    15.2813889251096     
4216.93513494168     0.960422061852916    14.8862305916746     0.256970970271741    -73.7723317733716    0.256970970271741    -73.7723317733716    0.960422061852916    14.8862305916746     
4263.9391043727      0.962155136743452    14.4913408573665     0.250306335868064    -74.1281665528014    0.250306335868064    -74.1281665528014    0.962155136743452    14.4913408573665     
4311.46700245605     0.963838970255505    14.0967221776122     0.243634580395664    -74.4810575654421    0.243634580395664    -74.4810575654421    0.963838970255505    14.0967221776122     
4359.52466915029     0.965473542854344    13.7023764603914     0.236956093087752    -74.8307694589806    0.236956093087752    -74.8307694589806    0.965473542854344    13.7023764603914     
4408.11800950893     0.967058840102299    13.3083050772886     0.230271255478318    -75.1770399643757    0.230271255478318    -75.1770399643757    0.967058840102299    13.3083050772886     
4457.252994406       0.968594852281974    12.9145088750425     0.223580441793323    -75.5195757485952    0.223580441793323    -75.5195757485952    0.968594852281974    12.9145088750425     
4506.93566126974     0.970081574024638    12.5209881875734     0.216884019414641    -75.8580474967166    0.216884019414641    -75.8580474967166    0.970081574024638    12.5209881875734     
4557.17211482448     0.971519003944391    12.1277428484752     0.21018234942891     -76.1920840508141    0.21018234942891     -76.1920840508141    0.971519003944391    12.1277428484752     
4607.9685278407      0.972907144278722    11.7347722039504     0.203475787276751    -76.5212653874316    0.203475787276751    -76.5212653874316    0.972907144278722    11.7347722039504     
4659.33114189351     0.974246000535987    11.3420751261788     0.196764683522205    -76.8451141557572    0.196764683522205    -76.8451141557572    0.974246000535987    11.3420751261788     
4711.26626812957     0.975535581150386    10.949650027095      0.190049384767824    -77.1630854199707    0.190049384767824    -77.1630854199707    0.975535581150386    10.949650027095      
4763.78028804266     0.976775897144943    10.5574948725635     0.183330234748639    -77.4745541446119    0.183330234748639    -77.4745541446119    0.976775897144943    10.5574948725635     
4816.87965425767     0.977966961802984    10.1656071969353     0.176607575648369    -77.7787998214008    0.176607575648369    -77.7787998214008    0.977966961802984    10.1656071969353     
4870.57089132356     0.979108790348606    9.77398411796514     0.169881749695093    -78.0749874455468    0.169881749695093    -78.0749874455468    0.979108790348606    9.77398411796514     
4924.86059651498     0.980201399636576    9.38262235207801     0.163153101112763    -78.3621437886709    0.163153101112763    -78.3621437886709    0.980201399636576    9.38262235207801     
4979.75544064301     0.98124480785212     8.99151822996572     0.156421978531243    -78.6391275538062    0.156421978531243    -78.6391275538062    0.98124480785212     8.99151822996572     
5035.2621688747      0.982239034220987    8.60066771250091     0.149688737994784    -78.904591490395     0.149688737994784    -78.904591490395     0.982239034220987    8.60066771250091     
5091.38760156202     0.983184098730193    8.21006640694877     0.142953746761558    -79.1569338254345    0.142953746761558    -79.1569338254345    0.983184098730193    8.21006640694877     
5148.13863507977     0.984080021859826    7.81970958346465     0.136217388163188    -79.3942353256086    0.136217388163188    -79.3942353256086    0.984080021859826    7.81970958346465     
5205.52224267307     0.984926824326239    7.42959219186067     0.129480067905095    -79.614176779359     0.129480067905095    -79.614176779359     0.984926824326239    7.42959219186067     
5263.54547531415     0.985724526836999    7.03970887862655     0.122742222355332    -79.8139294135522    0.122742222355332    -79.8139294135522    0.985724526836999    7.03970887862655     
5322.21546256874     0.986473149857851    6.65005400418922     0.116004329623328    -79.990007306127     0.116004329623328    -79.990007306127     0.986473149857851    6.65005400418922     
5381.53941347208     0.987172713392039    6.26062166039895     0.109266924623798    -80.1380655047307    0.109266924623798    -80.1380655047307    0.987172713392039    6.26062166039895     
5441.52461741478     0.98782323677223     5.87140568822386     0.102530619946057    -80.2526190801185    0.102530619946057    -80.2526190801185    0.98782323677223     5.87140568822386     
5502.17844503848     0.988424738465296    5.48239969564201     0.095796135366823    -80.3266445625302    0.095796135366823    -80.3266445625302    0.988424738465296    5.48239969564201     
5563.50834914149     0.988977235890191    5.09359707571576     0.089064340548614    -80.3510021881498    0.089064340548614    -80.3510021881498    0.988977235890191    5.09359707571576     
5625.52186559456     0.98948074524915     4.70499102483359     0.082336318411103    -80.3135777096376    0.082336318411103    -80.3135777096376    0.98948074524915     4.70499102483359     
5688.22661426686     0.989935281372397    4.31657456110792     0.075613461938194    -80.1979717109976    0.075613461938194    -80.1979717109976    0.989935281372397    4.31657456110792     
5751.63029996225     0.990340857576544    3.92834054291354     0.068897627026554    -79.9814328193585    0.068897627026554    -79.9814328193585    0.990340857576544    3.92834054291354     
5815.740713366       0.990697485536859    3.54028168755397     0.062191383230351    -79.6314753825848    0.062191383230351    -79.6314753825848    0.990697485536859    3.54028168755397     
5880.56573200209     0.991005175173537    3.1523905900435      0.055498444018046    -79.1000975897286    0.055498444018046    -79.1000975897286    0.991005175173537    3.1523905900435      
5946.11332120111     0.991263934552115    2.7646597419905      0.04882444575946     -78.3133715128083    0.04882444575946     -78.3133715128083    0.991263934552115    2.7646597419905      
6012.39153507906     0.991473769798147    2.37708155057007     0.042178453135496    -77.1514900773174    0.042178453135496    -77.1514900773174    0.991473769798147    2.37708155057007     
6079.40851752692     0.991634685026224    1.98964835757242     0.035576113450685    -75.4074764212752    0.035576113450685    -75.4074764212752    0.991634685026224    1.98964835757242     
6147.17250321138     0.99174668228345     1.60235245851555     0.02904698010166     -72.6932222758357    0.02904698010166     -72.6932222758357    0.99174668228345     1.60235245851555     
6215.69181858664     0.99180976150742     1.21518612180749     0.022653934957695    -68.1990300372213    0.022653934957695    -68.1990300372213    0.99180976150742     1.21518612180749     
6284.97488291756     0.991823920498753    0.828141607948607    0.016554420989195    -59.9901310097929    0.016554420989195    -59.9901310097929    0.991823920498753    0.828141607948607    
6355.03020931409     0.991789154908244    0.441211188757785    0.011235205639999    -42.8251747054357    0.011235205639999    -42.8251747054357    0.991789154908244    0.441211188757785    
6425.8664057774      0.991705458238611    0.054387166612783    0.008348233137514    -6.47454394361899    0.008348233137514    -6.47454394361899    0.991705458238611    0.054387166612783    
6497.49217625754     0.991572821860895    -0.332338106309161   0.010216568981149    34.2604870922627     0.010216568981149    34.2604870922627     0.991572821860895    -0.332338106309161   
6569.91632172291     0.991391235045462    -0.71897220880226    0.015172882879824    55.0736805837177     0.015172882879824    55.0736805837177     0.991391235045462    -0.71897220880226    
6643.14774124172     0.99116068500761     -1.10552263142859    0.021145415420683    64.7384974060635     0.021145415420683    64.7384974060635     0.99116068500761     -1.10552263142859    
6717.19543307548     0.990881156967727    -1.49199675735098    0.027477751255876    69.8738321435248     0.027477751255876    69.8738321435248     0.990881156967727    -1.49199675735098    
6792.06849578451     0.990552634225951    -1.87840184321609    0.033967828306128    72.9145856828983     0.033967828306128    72.9145856828983     0.990552634225951    -1.87840184321609    
6867.77612934611     0.990175098251254    -2.26474500010131    0.040538634107552    74.8446118838988     0.040538634107552    74.8446118838988     0.990175098251254    -2.26474500010131    
6944.32763628487     0.989748528784877    -2.65103317453574    0.047155191174483    76.1216138173807     0.047155191174483    76.1216138173807     0.989748528784877    -2.65103317453574    
7021.73242281579     0.989272903957991    -3.03727312961214    0.053799439035114    76.9841399975971     0.053799439035114    76.9841399975971     0.989272903957991    -3.03727312961214    
7100                 0.988748200423486    -3.4234714261998     0.060461111419573    77.5678481962763     0.060461111419573    77.5678481962763     0.988748200423486    -3.4234714261998     
