# MHz S MA R 50      
!Freq                MagS11               AngS11               MagS21               AngS21               MagS12               AngS12               MagS22               AngS22               
1                    0.004686164849586    34.8983794151485     0.996160165178609    -0.154205800027829   0.996160165178609    -0.154205800027829   0.004686164849586    34.8983794151485     
1.01013969443517     0.004704960384506    35.1424094544569     0.996156322922974    -0.155768803174202   0.996156322922974    -0.155768803174202   0.004704960384506    35.1424094544569     
1.02038220227357     0.004724017855785    35.3870588943789     0.996152460140207    -0.157347645491674   0.996152460140207    -0.157347645491674   0.004724017855785    35.3870588943789     
1.0307285660117      0.004743340685238    35.6323102748947     0.99614857670386     -0.15894248744093    0.99614857670386     -0.15894248744093    0.004743340685238    35.6323102748947     
1.04117983871666     0.004762932327033    35.8781459106131     0.996144672486418    -0.160553491107394   0.996144672486418    -0.160553491107394   0.004762932327033    35.8781459106131     
1.0517370841333      0.00478279626778     36.1245478961147     0.996140747359222    -0.162180820217649   0.996140747359222    -0.162180820217649   0.00478279626778     36.1245478961147     
1.06240137679254     0.0048029360266      36.3714981114897     0.996136801192488    -0.163824640156045   0.996136801192488    -0.163824640156045   0.0048029360266      36.3714981114897     
1.07317380212072     0.004823355155214    36.6189782280612     0.99613283385527     -0.165485117981467   0.99613283385527     -0.165485117981467   0.004823355155214    36.6189782280612     
1.08405545655005     0.004844057238015    36.8669697142947     0.996128845215491    -0.16716242244428    0.996128845215491    -0.16716242244428    0.004844057238015    36.8669697142947     
1.09504744763024     0.004865045892152    37.1154538418875     0.996124835139846    -0.168856724003429   0.996124835139846    -0.168856724003429   0.004865045892152    37.1154538418875     
1.10615089414122     0.004886324767607    37.3644116920344     0.996120803493876    -0.170568194843731   0.996120803493876    -0.170568194843731   0.004886324767607    37.3644116920344     
1.11736692620699     0.004907897547278    37.6138241618658     0.996116750141882    -0.172297008893326   0.996116750141882    -0.172297008893326   0.004907897547278    37.6138241618658     
1.12869668541069     0.00492976794706     37.8636719710516     0.996112674946942    -0.174043341841316   0.996112674946942    -0.174043341841316   0.00492976794706     37.8636719710516     
1.14014132491074     0.004951939715923    38.1139356685691     0.99610857777089     -0.175807371155572   0.99610857777089     -0.175807371155572   0.004951939715923    38.1139356685691     
1.15170200955824     0.004974416636003    38.3645956396258     0.996104458474282    -0.177589276100728   0.996104458474282    -0.177589276100728   0.004974416636003    38.3645956396258     
1.16337991601552     0.004997202522681    38.6156321127332     0.996100316916408    -0.179389237756351   0.996100316916408    -0.179389237756351   0.004997202522681    38.6156321127332     
1.17517623287593     0.005020301224673    38.8670251669288     0.996096152955228    -0.181207439035301   0.996096152955228    -0.181207439035301   0.005020301224673    38.8670251669288     
1.18709216078476     0.005043716624118    39.1187547391317     0.996091966447415    -0.183044064702274   0.996091966447415    -0.183044064702274   0.005043716624118    39.1187547391317     
1.1991289125615      0.005067452636667    39.3708006316368     0.996087757248271    -0.184899301392523   0.996087757248271    -0.184899301392523   0.005067452636667    39.3708006316368     
1.21128771332324     0.005091513211581    39.6231425197304     0.996083525211758    -0.186773337630783   0.996083525211758    -0.186773337630783   0.005091513211581    39.6231425197304     
1.22356980060941     0.005115902331821    39.8757599594283     0.996079270190458    -0.188666363850383   0.996079270190458    -0.188666363850383   0.005115902331821    39.8757599594283     
1.23597642450769     0.005140624014152    40.1286323953242     0.996074992035544    -0.190578572412533   0.996074992035544    -0.190578572412533   0.005140624014152    40.1286323953242     
1.24850884778126     0.005165682309241    40.3817391685444     0.996070690596776    -0.19251015762584    0.996070690596776    -0.19251015762584    0.005165682309241    40.3817391685444     
1.26116834599736     0.005191081301764    40.6350595247988     0.996066365722473    -0.194461315765984   0.996066365722473    -0.194461315765984   0.005191081301764    40.6350595247988     
1.27395620765708     0.005216825110518    40.8885726225237     0.99606201725949     -0.19643224509562    0.99606201725949     -0.19643224509562    0.005216825110518    40.8885726225237     
1.28687373432651     0.005242917888526    41.1422575411047     0.996057645053199    -0.198423145884466   0.996057645053199    -0.198423145884466   0.005242917888526    41.1422575411047     
1.29992224076922     0.005269363823163    41.396093289176      0.996053248947472    -0.200434220429602   0.996053248947472    -0.200434220429602   0.005269363823163    41.396093289176      
1.31310305508009     0.005296167136269    41.6500588129848     0.996048828784661    -0.202465673075972   0.996048828784661    -0.202465673075972   0.005296167136269    41.6500588129848     
1.32641751882048     0.005323332084281    41.9041330048141     0.996044384405537    -0.204517710237075   0.996044384405537    -0.204517710237075   0.005323332084281    41.9041330048141     
1.33986698715477     0.00535086295836     42.1582947114553     0.996039915649341    -0.206590540415906   0.996039915649341    -0.206590540415906   0.00535086295836     42.1582947114553     
1.35345282898829     0.005378764084528    42.4125227427225     0.996035422353681    -0.208684374226059   0.996035422353681    -0.208684374226059   0.005378764084528    42.4125227427225     
1.36717642710664     0.005407039823807    42.6667958800008     0.996030904354563    -0.210799424413086   0.996030904354563    -0.210799424413086   0.005407039823807    42.6667958800008     
1.38103917831646     0.00543569457237     42.9210928848162     0.996026361486336    -0.212935905876037   0.996026361486336    -0.212935905876037   0.00543569457237     42.9210928848162     
1.39504249358758     0.005464732761689    43.1753925074251     0.996021793581697    -0.21509403568924    0.996021793581697    -0.21509403568924    0.005464732761689    43.1753925074251     
1.40918779819663     0.005494158858694    43.4296734954093     0.99601720047162     -0.217274033124294   0.99601720047162     -0.217274033124294   0.005494158858694    43.4296734954093     
1.42347653187211     0.005523977365938    43.6839146022698     0.996012581985388    -0.219476119672279   0.996012581985388    -0.219476119672279   0.005523977365938    43.6839146022698     
1.43791014894092     0.005554192821771    43.938094596012      0.996007937950518    -0.221700519066198   0.996007937950518    -0.221700519066198   0.005554192821771    43.938094596012      
1.4524901184764      0.005584809800511    44.1921922677109     0.99600326819274     -0.22394745730363    0.99600326819274     -0.22394745730363    0.005584809800511    44.1921922677109     
1.46721792444785     0.005615832912635    44.4461864400509     0.995998572536014    -0.226217162669644   0.995998572536014    -0.226217162669644   0.005615832912635    44.4461864400509     
1.48209506587155     0.005647266804967    44.7000559758305     0.995993850802449    -0.228509865759898   0.995993850802449    -0.228509865759898   0.005647266804967    44.7000559758305     
1.49712305696335     0.005679116160878    44.9537797864214     0.995989102812281    -0.230825799504009   0.995989102812281    -0.230825799504009   0.005679116160878    44.9537797864214     
1.5123034272928      0.005711385700495    45.2073368401771     0.995984328383902    -0.23316519918915    0.995984328383902    -0.23316519918915    0.005711385700495    45.2073368401771     
1.52763772193881     0.005744080180911    45.4607061707813     0.995979527333733    -0.235528302483861   0.995979527333733    -0.235528302483861   0.005744080180911    45.4607061707813     
1.5431275016469      0.00577720439641     45.7138668855262     0.995974699476305    -0.237915349462141   0.995974699476305    -0.237915349462141   0.00577720439641     45.7138668855262     
1.5587743429881      0.005810763178698    45.9667981735163     0.995969844624114    -0.240326582627738   0.995969844624114    -0.240326582627738   0.005810763178698    45.9667981735163     
1.57457983851937     0.00584476139714     46.2194793137859     0.995964962587696    -0.24276224693873    0.995964962587696    -0.24276224693873    0.00584476139714     46.2194793137859     
1.59054559694573     0.005879203959008    46.4718896833267     0.995960053175512    -0.245222589832305   0.995960053175512    -0.245222589832305   0.005879203959008    46.4718896833267     
1.60667324328396     0.00591409580974     46.7240087650141     0.995955116193964    -0.247707861249839   0.995955116193964    -0.247707861249839   0.00591409580974     46.7240087650141     
1.62296441902801     0.005949441933198    46.9758161554267     0.995950151447344    -0.250218313662186   0.995950151447344    -0.250218313662186   0.005949441933198    46.9758161554267     
1.6394207823161      0.005985247351949    47.2272915725523     0.995945158737817    -0.252754202095254   0.995945158737817    -0.252754202095254   0.005985247351949    47.2272915725523     
1.65604400809944     0.006021517127544    47.4784148633727     0.99594013786536     -0.255315784155813   0.99594013786536     -0.255315784155813   0.006021517127544    47.4784148633727     
1.67283578831276     0.006058256360812    47.7291660113192     0.99593508862774     -0.257903320057576   0.99593508862774     -0.257903320057576   0.006058256360812    47.7291660113192     
1.68979783204646     0.006095470192163    47.9795251435962     0.995930010820483    -0.260517072647553   0.995930010820483    -0.260517072647553   0.006095470192163    47.9795251435962     
1.70693186572061     0.006133163801895    48.2294725383618     0.99592490423684     -0.263157307432648   0.99592490423684     -0.263157307432648   0.006133163801895    48.2294725383618     
1.72423963326067     0.006171342410522    48.478988631762      0.995919768667743    -0.265824292606535   0.995919768667743    -0.265824292606535   0.006171342410522    48.478988631762      
1.74172289627493     0.0062100112791      48.7280540248137     0.995914603901762    -0.268518299076813   0.995914603901762    -0.268518299076813   0.0062100112791      48.7280540248137     
1.75938343423389     0.006249175709569    48.9766494901279     0.995909409725066    -0.271239600492408   0.995909409725066    -0.271239600492408   0.006249175709569    48.9766494901279     
1.77722304465131     0.006288841045107    49.2247559784697     0.995904185921411    -0.273988473271293   0.995904185921411    -0.273988473271293   0.006288841045107    49.2247559784697     
1.79524354326721     0.00632901267049     49.4723546251517     0.995898932272077    -0.276765196628449   0.995898932272077    -0.276765196628449   0.00632901267049     49.4723546251517     
1.81344676423265     0.006369696012461    49.7194267562515     0.995893648555818    -0.279570052604114   0.995893648555818    -0.279570052604114   0.006369696012461    49.7194267562515     
1.8318345602964      0.006410896540118    49.9659538946536     0.995888334548837    -0.282403326092339   0.995888334548837    -0.282403326092339   0.006410896540118    49.9659538946536     
1.85040880299358     0.006452619765301    50.211917765909      0.995882990024752    -0.28526530486981    0.995882990024752    -0.28526530486981    0.006452619765301    50.211917765909      
1.86917138283608     0.006494871243       50.457300303909      0.995877614754526    -0.288156279624956   0.995877614754526    -0.288156279624956   0.006494871243       50.457300303909      
1.88812420950499     0.006537656571765    50.7020836563707     0.995872208506442    -0.291076543987378   0.995872208506442    -0.291076543987378   0.006537656571765    50.7020836563707     
1.90726921204501     0.006580981394134    50.9462501901288     0.995866771046055    -0.29402639455754    0.995866771046055    -0.29402639455754    0.006580981394134    50.9462501901288     
1.92660833906074     0.006624851397067    51.1897824962339     0.995861302136166    -0.297006130936796   0.995861302136166    -0.297006130936796   0.006624851397067    51.1897824962339     
1.94614355891506     0.006669272312391    51.4326633948508     0.995855801536723    -0.30001605575766    0.995855801536723    -0.30001605575766    0.006669272312391    51.4326633948508     
1.96587685992943     0.006714249917259    51.6748759399583     0.995850269004836    -0.303056474714462   0.995850269004836    -0.303056474714462   0.006714249917259    51.6748759399583     
1.98581025058627     0.006759790034617    51.9164034238462     0.995844704294668    -0.306127696594236   0.995844704294668    -0.306127696594236   0.006759790034617    51.9164034238462     
2.00594575973343     0.006805898533684    52.1572293814065     0.995839107157446    -0.309230033307967   0.995839107157446    -0.309230033307967   0.006805898533684    52.1572293814065     
2.02628543679065     0.006852581330441    52.3973375942226     0.995833477341372    -0.312363799922136   0.995833477341372    -0.312363799922136   0.006852581330441    52.3973375942226     
2.04683135195813     0.006899844388132    52.636712094448      0.995827814591578    -0.315529314690575   0.995827814591578    -0.315529314690575   0.006899844388132    52.636712094448      
2.0675855964273      0.006947693717776    52.8753371684798     0.995822118650075    -0.318726899086652   0.995822118650075    -0.318726899086652   0.006947693717776    52.8753371684798     
2.08855028259362     0.00699613537869     53.113197360424      0.995816389255726    -0.32195687783579    0.995816389255726    -0.32195687783579    0.00699613537869     53.113197360424      
2.1097275442716      0.007045175479022    53.3502774753508     0.995810626144139    -0.325219578948274   0.995810626144139    -0.325219578948274   0.007045175479022    53.3502774753508     
2.13111953691197     0.007094820176298    53.5865625823433     0.995804829047667    -0.328515333752445   0.995804829047667    -0.328515333752445   0.007094820176298    53.5865625823433     
2.15272843782106     0.007145075677978    53.8220380173368     0.995798997695304    -0.331844476928168   0.995798997695304    -0.331844476928168   0.007145075677978    53.8220380173368     
2.17455644638246     0.00719594824202     54.056689385751      0.995793131812679    -0.335207346540688   0.995793131812679    -0.335207346540688   0.00719594824202     54.056689385751      
2.1966057842808      0.00724744417746     54.2905025649155     0.995787231121935    -0.338604284074779   0.995787231121935    -0.338604284074779   0.00724744417746     54.2905025649155     
2.21887869572792     0.007299569845004    54.5234637062882     0.995781295341739    -0.342035634469291   0.995781295341739    -0.342035634469291   0.007299569845004    54.5234637062882     
2.2413774476913      0.00735233165762     54.7555592374716     0.995775324187152    -0.345501746151977   0.995775324187152    -0.345501746151977   0.00735233165762     54.7555592374716     
2.26410433012476     0.00740573608116     54.9867758640233     0.995769317369644    -0.34900297107474    0.995769317369644    -0.34900297107474    0.00740573608116     54.9867758640233     
2.28706165620156     0.007459789634971    55.2171005710671     0.995763274596934    -0.352539664749166   0.995763274596934    -0.352539664749166   0.007459789634971    55.2171005710671     
2.31025176254983     0.007514498892535    55.4465206247048     0.995757195573027    -0.356112186282479   0.995757195573027    -0.356112186282479   0.007514498892535    55.4465206247048     
2.33367700949038     0.007569870482111    55.6750235732289     0.995751079998078    -0.3597208984138     0.995751079998078    -0.3597208984138     0.007569870482111    55.6750235732289     
2.35733978127698     0.007625911087386    55.9025972481436     0.995744927568353    -0.363366167550808   0.995744927568353    -0.363366167550808   0.007625911087386    55.9025972481436     
2.38124248633899     0.007682627448145    56.1292297649914     0.995738737976168    -0.367048363806764   0.995738737976168    -0.367048363806764   0.007682627448145    56.1292297649914     
2.4053875575265      0.007740026360947    56.3549095239907     0.995732510909789    -0.370767861037862   0.995732510909789    -0.370767861037862   0.007740026360947    56.3549095239907     
2.42977745235797     0.007798114679805    56.5796252104891     0.995726246053395    -0.374525036881046   0.995726246053395    -0.374525036881046   0.007798114679805    56.5796252104891     
2.45441465327033     0.007856899316892    56.8033657952294     0.995719943086996    -0.378320272792104   0.995719943086996    -0.378320272792104   0.007856899316892    56.8033657952294     
2.47930166787169     0.007916387243243    57.0261205344401     0.995713601686337    -0.382153954084211   0.995713601686337    -0.382153954084211   0.007916387243243    57.0261205344401     
2.5044410291965      0.007976585489477    57.2478789697462     0.995707221522846    -0.386026469966843   0.995707221522846    -0.386026469966843   0.007976585489477    57.2478789697462     
2.52983529596344     0.008037501146525    57.4686309279089     0.995700802263567    -0.389938213585073   0.995700802263567    -0.389938213585073   0.008037501146525    57.4686309279089     
2.55548705283581     0.008099141366367    57.6883665203942     0.995694343571052    -0.393889582059259   0.995694343571052    -0.393889582059259   0.008099141366367    57.6883665203942     
2.58139891068458     0.008161513362787    57.9070761427782     0.995687845103306    -0.39788097652514    0.995687845103306    -0.39788097652514    0.008161513362787    57.9070761427782     
2.60757350685419     0.00822462441213     58.1247504739892     0.995681306513693    -0.401912802174335   0.995681306513693    -0.401912802174335   0.00822462441213     58.1247504739892     
2.63401350543093     0.008288481854072    58.3413804753933     0.99567472745085     -0.405985468295236   0.99567472745085     -0.405985468295236   0.008288481854072    58.3413804753933     
2.6607215975141      0.008353093092404    58.5569573897263     0.995668107558636    -0.410099388314319   0.995668107558636    -0.410099388314319   0.008353093092404    58.5569573897263     
2.68770050148993     0.00841846559582     58.7714727398767     0.995661446476002    -0.414254979837878   0.995661446476002    -0.414254979837878   0.00841846559582     58.7714727398767     
2.71495296330828     0.008484606898722    58.9849183275229     0.995654743836906    -0.418452664694133   0.995654743836906    -0.418452664694133   0.008484606898722    58.9849183275229     
2.74248175676207     0.008551524602028    59.1972862316312     0.995647999270276    -0.42269286897583    0.995647999270276    -0.42269286897583    0.008551524602028    59.1972862316312     
2.77028968376966     0.008619226373995    59.4085688068174     0.995641212399856    -0.426976023083212   0.995641212399856    -0.426976023083212   0.008619226373995    59.4085688068174     
2.79837957465997     0.008687719951051    59.6187586815762     0.995634382844147    -0.431302561767437   0.995634382844147    -0.431302561767437   0.008687719951051    59.6187586815762     
2.82675428846063     0.008757013138637    59.8278487563831     0.995627510216306    -0.435672924174436   0.995627510216306    -0.435672924174436   0.008757013138637    59.8278487563831     
2.85541671318891     0.008827113812057    60.0358322016756     0.995620594124048    -0.440087553889212   0.995620594124048    -0.440087553889212   0.008827113812057    60.0358322016756     
2.88436976614571     0.00889802991734     60.2427024557135     0.995613634169544    -0.444546898980551   0.995613634169544    -0.444546898980551   0.00889802991734     60.2427024557135     
2.91361639421246     0.008969769472113    60.4484532223279     0.995606629949342    -0.449051412046231   0.995606629949342    -0.449051412046231   0.008969769472113    60.4484532223279     
2.94315957415106     0.009042340566479    60.6530784685604     0.99559958105423     -0.453601550258653   0.99559958105423     -0.453601550258653   0.009042340566479    60.6530784685604     
2.97300231290688     0.009115751363911    60.8565724221973     0.995592487069144    -0.458197775410903   0.995592487069144    -0.458197775410903   0.009115751363911    60.8565724221973     
3.0031476479148      0.009190010102151    61.0589295692049     0.995585347573089    -0.46284055396335    0.995585347573089    -0.46284055396335    0.009190010102151    61.0589295692049     
3.03359864740834     0.009265125094121    61.2601446510681     0.995578162138991    -0.467530357090614   0.995578162138991    -0.467530357090614   0.009265125094121    61.2601446510681     
3.06435841073199     0.009341104728842    61.4602126620404     0.995570930333615    -0.472267660729105   0.995570930333615    -0.472267660729105   0.009341104728842    61.4602126620404     
3.09543006865664     0.009417957472365    61.6591288463044     0.995563651717424    -0.47705294562491    0.995563651717424    -0.47705294562491    0.009417957472365    61.6591288463044     
3.12681678369824     0.00949569186871     61.8568886950534     0.995556325844495    -0.481886697382314   0.995556325844495    -0.481886697382314   0.00949569186871     61.8568886950534     
3.15852175043969     0.009574316540813    62.0534879434933     0.995548952262394    -0.486769406512672   0.995548952262394    -0.486769406512672   0.009574316540813    62.0534879434933     
3.19054819585597     0.009653840191489    62.2489225677729     0.995541530512033    -0.491701568483817   0.995541530512033    -0.491701568483817   0.009653840191489    62.2489225677729     
3.22289937964262     0.009734271604395    62.4431887818441     0.995534060127569    -0.496683683770009   0.995534060127569    -0.496683683770009   0.009734271604395    62.4431887818441     
3.25557859454748     0.009815619645009    62.6362830342582     0.995526540636276    -0.501716257902267   0.995526540636276    -0.501716257902267   0.009815619645009    62.6362830342582     
3.28858916670585     0.00989789326162     62.8282020049024     0.995518971558432    -0.506799801519354   0.995518971558432    -0.506799801519354   0.00989789326162     62.8282020049024     
3.32193445597904     0.009981101486321    63.0189426016786     0.995511352407155    -0.51193483041912    0.995511352407155    -0.51193483041912    0.009981101486321    63.0189426016786     
3.35561785629632     0.010065253436016    63.2085019571314     0.995503682688304    -0.517121865610461   0.995503682688304    -0.517121865610461   0.010065253436016    63.2085019571314     
3.38964279600035     0.010150358313436    63.3968774250277     0.99549596190033     -0.522361433365759   0.99549596190033     -0.522361433365759   0.010150358313436    63.3968774250277     
3.42401273819615     0.010236425408166    63.5840665768914     0.995488189534134    -0.527654065273833   0.995488189534134    -0.527654065273833   0.010236425408166    63.5840665768914     
3.45873118110357     0.010323464097674    63.7700671984987     0.99548036507294     -0.533000298293442   0.99548036507294     -0.533000298293442   0.010323464097674    63.7700671984987     
3.49380165841334     0.01041148384836     63.9548772863359     0.995472487992138    -0.538400674807307   0.995472487992138    -0.538400674807307   0.01041148384836     63.9548772863359     
3.52922773964672     0.010500494216609    64.1384950440255     0.995464557759162    -0.543855742676666   0.995464557759162    -0.543855742676666   0.010500494216609    64.1384950440255     
3.56501303051885     0.010590504849852    64.3209188787219     0.995456573833318    -0.549366055296391   0.995456573833318    -0.549366055296391   0.010590504849852    64.3209188787219     
3.60116117330569     0.010681525487637    64.5021473974818     0.995448535665625    -0.554932171650617   0.995448535665625    -0.554932171650617   0.010681525487637    64.5021473974818     
3.63767584721479     0.010773565962719    64.6821794036125     0.995440442698709    -0.560554656368994   0.995440442698709    -0.560554656368994   0.010773565962719    64.6821794036125     
3.67456076875973     0.010866636202141    64.8610138930009     0.995432294366584    -0.566234079783397   0.995432294366584    -0.566234079783397   0.010866636202141    64.8610138930009     
3.7118196921384      0.010960746228342    65.0386500504271     0.995424090094535    -0.571971017985292   0.995424090094535    -0.571971017985292   0.010960746228342    65.0386500504271     
3.74945640961511     0.011055906160267    65.2150872458648     0.995415829298929    -0.577766052883611   0.995415829298929    -0.577766052883611   0.011055906160267    65.2150872458648     
3.78747475190658     0.011152126214484    65.3903250307732     0.995407511387082    -0.583619772263267   0.995407511387082    -0.583619772263267   0.011152126214484    65.3903250307732     
3.82587858857182     0.011249416706319    65.5643631343821     0.995399135757037    -0.589532769844149   0.995399135757037    -0.589532769844149   0.011249416706319    65.5643631343821     
3.86467182840598     0.011347788050992    65.7372014599716     0.995390701797439    -0.59550564534081    0.995390701797439    -0.59550564534081    0.011347788050992    65.7372014599716     
3.90385841983821     0.011447250764766    65.9088400811542     0.99538220888733     -0.601539004522658   0.99538220888733     -0.601539004522658   0.011447250764766    65.9088400811542     
3.94344235133351     0.011547815466111    66.0792792381563     0.995373656395967    -0.60763345927484    0.995373656395967    -0.60763345927484    0.011547815466111    66.0792792381563     
3.98342765179872     0.011649492876866    66.2485193341047     0.995365043682668    -0.613789627659624   0.995365043682668    -0.613789627659624   0.011649492876866    66.2485193341047     
4.02381839099255     0.011752293823425    66.4165609313203     0.995356370096592    -0.620008133978458   0.995356370096592    -0.620008133978458   0.011752293823425    66.4165609313203     
4.06461867993981     0.011856229237919    66.58340474762       0.995347634976551    -0.626289608834615   0.995347634976551    -0.626289608834615   0.011856229237919    66.58340474762       
4.10583267134987     0.011961310159421    66.7490516526337     0.995338837650831    -0.63263468919651    0.995338837650831    -0.63263468919651    0.011961310159421    66.7490516526337     
4.14746456003927     0.012067547735151    66.9135026641294     0.995329977436978    -0.639044018461533   0.995329977436978    -0.639044018461533   0.012067547735151    66.9135026641294     
4.18951858335875     0.012174953221695    67.0767589443607     0.995321053641617    -0.645518246520664   0.995321053641617    -0.645518246520664   0.012174953221695    67.0767589443607     
4.23199902162445     0.012283537986233    67.2388217964258     0.995312065560201    -0.652058029823544   0.995312065560201    -0.652058029823544   0.012283537986233    67.2388217964258     
4.27491019855364     0.012393313507783    67.3996926606525     0.995303012476846    -0.658664031444395   0.995303012476846    -0.658664031444395   0.012393313507783    67.3996926606525     
4.31825648170474     0.012504291378445    67.559373111002      0.9952938936641      -0.665336921148446   0.9952938936641      -0.665336921148446   0.012504291378445    67.559373111002      
4.3620422829219      0.012616483304662    67.7178648514949     0.995284708382696    -0.672077375459014   0.995284708382696    -0.672077375459014   0.012616483304662    67.7178648514949     
4.406272058784       0.012729901108492    67.8751697126652     0.995275455881368    -0.678886077725358   0.995275455881368    -0.678886077725358   0.012729901108492    67.8751697126652     
4.45095031105828     0.012844556728886    68.0312896480407     0.995266135396617    -0.685763718191095   0.995266135396617    -0.685763718191095   0.012844556728886    68.0312896480407     
4.49608158715851     0.012960462222982    68.1862267306498     0.995256746152428    -0.692710994063337   0.995256746152428    -0.692710994063337   0.012960462222982    68.1862267306498     
4.54167048060787     0.013077629767403    68.3399831495601     0.995247287360105    -0.699728609582498   0.995247287360105    -0.699728609582498   0.013077629767403    68.3399831495601     
4.58772163150644     0.013196071659573    68.4925612064479     0.995237758217975    -0.706817276092818   0.995237758217975    -0.706817276092818   0.013196071659573    68.4925612064479     
4.63423972700352     0.013315800319039    68.6439633121987     0.995228157911174    -0.71397771211353    0.995228157911174    -0.71397771211353    0.013315800319039    68.6439633121987     
4.68122950177464     0.013436828288802    68.7941919835422     0.995218485611348    -0.721210643410744   0.995218485611348    -0.721210643410744   0.013436828288802    68.7941919835422     
4.72869573850351     0.013559168236669    68.9432498397234     0.995208740476453    -0.72851680307008    0.995208740476453    -0.72851680307008    0.013559168236669    68.9432498397234     
4.7766432683688      0.013682832956602    69.0911395992062     0.995198921650466    -0.735896931569992   0.995198921650466    -0.735896931569992   0.013682832956602    69.0911395992062     
4.82507697153585     0.013807835370088    69.2378640764163     0.995189028263102    -0.74335177685574    0.995189028263102    -0.74335177685574    0.013807835370088    69.2378640764163     
4.87400177765338     0.01393418852752     69.3834261785218     0.99517905942957     -0.750882094414231   0.99517905942957     -0.750882094414231   0.01393418852752     69.3834261785218     
4.92342266635524     0.014061905609583    69.5278289022496     0.995169014250254    -0.758488647349454   0.995169014250254    -0.758488647349454   0.014061905609583    69.5278289022496     
4.97334466776724     0.014190999928659    69.6710753307443     0.995158891810491    -0.766172206458764   0.995158891810491    -0.766172206458764   0.014190999928659    69.6710753307443     
5.02377286301916     0.014321484930233    69.8131686304646     0.995148691180207    -0.773933550309824   0.995148691180207    -0.773933550309824   0.014321484930233    69.8131686304646     
5.07471238476185     0.014453374194329    69.9541120481212     0.995138411413689    -0.781773465318391   0.995138411413689    -0.781773465318391   0.014453374194329    69.9541120481212     
5.12616841768968     0.014586681436933    70.0939089076556     0.995128051549238    -0.789692745826776   0.995128051549238    -0.789692745826776   0.014586681436933    70.0939089076556     
5.17814619906825     0.014721420511453    70.2325626072612     0.995117610608875    -0.797692194183132   0.995117610608875    -0.797692194183132   0.014721420511453    70.2325626072612     
5.23065101926741     0.014857605410171    70.3700766164445     0.995107087598026    -0.8057726208215     0.995107087598026    -0.8057726208215     0.014857605410171    70.3700766164445     
5.28368822229977     0.014995250265718    70.5064544731317     0.995096481505226    -0.813934844342646   0.995096481505226    -0.813934844342646   0.014995250265718    70.5064544731317     
5.33726320636457     0.01513436935256     70.6416997808145     0.995085791301748    -0.822179691595611   0.995085791301748    -0.822179691595611   0.01513436935256     70.6416997808145     
5.39138142439716     0.01527497708849     70.7758162057433     0.995075015941295    -0.830507997760241   0.995075015941295    -0.830507997760241   0.01527497708849     70.7758162057433     
5.44604838462397     0.015417088036143    70.9088074741594     0.99506415435968     -0.838920606430287   0.99506415435968     -0.838920606430287   0.015417088036143    70.9088074741594     
5.50126965112318     0.015560716904513    71.0406773695746     0.99505320547442     -0.847418369697509   0.99505320547442     -0.847418369697509   0.015560716904513    71.0406773695746     
5.55705084439102     0.01570587855049     71.171429730091      0.995042168184445    -0.856002148236468   0.995042168184445    -0.856002148236468   0.01570587855049     71.171429730091      
5.61339764191382     0.015852587980406    71.3010684457678     0.995031041369726    -0.864672811390263   0.995031041369726    -0.864672811390263   0.015852587980406    71.3010684457678     
5.6703157787459      0.016000860351593    71.42959745603       0.995019823890868    -0.873431237256977   0.995019823890868    -0.873431237256977   0.016000860351593    71.42959745603       
5.72781104809328     0.016150710973962    71.5570207471219     0.995008514588775    -0.882278312777034   0.995008514588775    -0.882278312777034   0.016150710973962    71.5570207471219     
5.78588930190331     0.016302155311581    71.6833423496035     0.994997112284252    -0.89121493382142    0.994997112284252    -0.89121493382142    0.016302155311581    71.6833423496035     
5.8445564514603      0.016455208984282    71.8085663358926     0.994985615777613    -0.900242005280706   0.994985615777613    -0.900242005280706   0.016455208984282    71.8085663358926     
5.90381846798719     0.016609887769268    71.9326968178485     0.994974023848311    -0.909360441154987   0.994974023848311    -0.909360441154987   0.016609887769268    71.9326968178485     
5.96368138325326     0.016766207602741    72.0557379444009     0.994962335254465    -0.918571164644595   0.994962335254465    -0.918571164644595   0.016766207602741    72.0557379444009     
6.02415129018813     0.016924184581547    72.1776938992227     0.994950548732533    -0.927875108241896   0.994950548732533    -0.927875108241896   0.016924184581547    72.1776938992227     
6.08523434350185     0.01708383496482     72.2985688984435     0.994938662996819    -0.937273213823671   0.994938662996819    -0.937273213823671   0.01708383496482     72.2985688984435     
6.14693676031133     0.017245175175658    72.4183671884098     0.994926676739086    -0.946766432744696   0.994926676739086    -0.946766432744696   0.017245175175658    72.4183671884098     
6.20926482077317     0.017408221802802    72.5370930434853     0.99491458862809     -0.956355725932022   0.99491458862809     -0.956355725932022   0.017408221802802    72.5370930434853     
6.27222486872283     0.01757299160233     72.6547507638953     0.994902397309149    -0.966042063980231   0.994902397309149    -0.966042063980231   0.01757299160233     72.6547507638953     
6.33582331232032     0.017739501499369    72.771344673613      0.994890101403698    -0.975826427247646   0.994890101403698    -0.975826427247646   0.017739501499369    72.771344673613      
6.40006662470244     0.017907768589821    72.8868791182879     0.994877699508762    -0.985709805953357   0.994877699508762    -0.985709805953357   0.017907768589821    72.8868791182879     
6.46496134464163     0.018077810142097    73.0013584632159     0.994865190196556    -0.995693200275319   0.994865190196556    -0.995693200275319   0.018077810142097    73.0013584632159     
6.53051407721145     0.018249643598878    73.1147870913504     0.99485257201397     -1.00577762044931    0.99485257201397     -1.00577762044931    0.018249643598878    73.1147870913504     
6.59673149445892     0.018423286578878    73.2271694013551     0.994839843482055    -1.01596408686881    0.994839843482055    -1.01596408686881    0.018423286578878    73.2271694013551     
6.66362033608356     0.01859875687863     73.3385098056974     0.99482700309555     -1.02625363018597    0.99482700309555     -1.02625363018597    0.01859875687863     73.3385098056974     
6.7311874101234      0.018776072474283    73.4488127287806     0.994814049322354    -1.03664729141335    0.994814049322354    -1.03664729141335    0.018776072474283    73.4488127287806     
6.79943959364788     0.018955251523419    73.5580826051178     0.994800980602984    -1.04714612202681    0.994800980602984    -1.04714612202681    0.018955251523419    73.5580826051178     
6.86838383345784     0.019136312366881    73.6663238775439     0.994787795350088    -1.0577511840693     0.994787795350088    -1.0577511840693     0.019136312366881    73.6663238775439     
6.93802714679252     0.019319273530616    73.7735409954663     0.99477449194783     -1.06846355025562    0.99477449194783     -1.06846355025562    0.019319273530616    73.7735409954663     
7.00837662204388     0.019504153727536    73.8797384131556     0.994761068751403    -1.07928430407826    0.994761068751403    -1.07928430407826    0.019504153727536    73.8797384131556     
7.07943941947796     0.019690971859398    73.9849205880721     0.994747524086414    -1.09021453991418    0.994747524086414    -1.09021453991418    0.019690971859398    73.9849205880721     
7.15122277196373     0.019879747018693    74.0890919792317     0.994733856248328    -1.10125536313262    0.994733856248328    -1.10125536313262    0.019879747018693    74.0890919792317     
7.22373398570924     0.020070498490551    74.192257045607      0.994720063501864    -1.1124078902039     0.994720063501864    -1.1124078902039     0.020070498490551    74.192257045607      
7.29698044100525     0.020263245754674    74.2944202445664     0.994706144080398    -1.12367324880936    0.994706144080398    -1.12367324880936    0.020263245754674    74.2944202445664     
7.37096959297642     0.020458008487268    74.3955860303482     0.994692096185345    -1.13505257795223    0.994692096185345    -1.13505257795223    0.020458008487268    74.3955860303482     
7.44570897234009     0.020654806563005    74.4957588525706     0.994677917985552    -1.1465470280696     0.994677917985552    -1.1465470280696     0.020654806563005    74.4957588525706     
7.52120618617279     0.020853660056997    74.5949431547759     0.994663607616622    -1.15815776114542    0.994663607616622    -1.15815776114542    0.020853660056997    74.5949431547759     
7.59746891868446     0.021054589246783    74.6931433730104     0.994649163180288    -1.1698859508246     0.994649163180288    -1.1698859508246     0.021054589246783    74.6931433730104     
7.67450493200058     0.021257614614339    74.7903639344365     0.99463458274375     -1.18173278252815    0.99463458274375     -1.18173278252815    0.021257614614339    74.7903639344365     
7.75232206695223     0.021462756848102    74.8866092559796     0.994619864338982    -1.19369945356947    0.994619864338982    -1.19369945356947    0.021462756848102    74.8866092559796     
7.83092824387412     0.021670036845011    74.9818837430067     0.994605005962049    -1.20578717327159    0.994605005962049    -1.20578717327159    0.021670036845011    74.9818837430067     
7.9103314634107      0.021879475712565    75.0761917880378     0.994590005572386    -1.21799716308571    0.994590005572386    -1.21799716308571    0.021879475712565    75.0761917880378     
7.99053980733056     0.022091094770902    75.1695377694885     0.994574861092115    -1.23033065671065    0.994574861092115    -1.23033065671065    0.022091094770902    75.1695377694885     
8.07156143934892     0.022304915554887    75.2619260504445     0.99455957040526     -1.24278890021355    0.99455957040526     -1.24278890021355    0.022304915554887    75.2619260504445     
8.15340460595858     0.02252095981623     75.3533609774656     0.994544131357048    -1.25537315215166    0.994544131357048    -1.25537315215166    0.02252095981623     75.3533609774656     
8.23607763726927     0.022739249525608    75.4438468794205     0.994528541753095    -1.26808468369521    0.994528541753095    -1.26808468369521    0.022739249525608    75.4438468794205     
8.31958894785547     0.022959806874817    75.5333880663511     0.994512799358692    -1.28092477875154    0.994512799358692    -1.28092477875154    0.022959806874817    75.5333880663511     
8.40394703761291     0.023182654278936    75.6219888283655     0.994496901897934    -1.29389473409029    0.994496901897934    -1.29389473409029    0.023182654278936    75.6219888283655     
8.48916049262361     0.023407814378507    75.7096534345584     0.994480847052976    -1.30699585946973    0.994480847052976    -1.30699585946973    0.023407814378507    75.7096534345584     
8.57523798602989     0.02363531004174     75.7963861319622     0.994464632463161    -1.32022947776433    0.994464632463161    -1.32022947776433    0.02363531004174     75.7963861319622     
8.66218827891706     0.023865164366729    75.8821911445212     0.994448255724203    -1.3335969250935     0.994448255724203    -1.3335969250935     0.023865164366729    75.8821911445212     
8.75002022120515     0.024097400683696    75.9670726720968     0.994431714387317    -1.34709955095147    0.994431714387317    -1.34709955095147    0.024097400683696    75.9670726720968     
8.83874275254968     0.024332042557238    76.0510348894957     0.994415005958353    -1.36073871833841    0.994415005958353    -1.36073871833841    0.024332042557238    76.0510348894957     
8.92836490325156     0.024569113788613    76.1340819455256     0.994398127896869    -1.37451580389269    0.994398127896869    -1.37451580389269    0.024569113788613    76.1340819455256     
9.01889579517619     0.024808638418028    76.2162179620753     0.994381077615259    -1.38843219802443    0.994381077615259    -1.38843219802443    0.024808638418028    76.2162179620753     
9.11034464268187     0.025050640726954    76.2974470332194     0.994363852477824    -1.40248930505026    0.994363852477824    -1.40248930505026    0.025050640726954    76.2974470332194     
9.20272075355771     0.025295145240459    76.3777732243475     0.994346449799771    -1.41668854332922    0.994346449799771    -1.41668854332922    0.025295145240459    76.3777732243475     
9.29603352997094     0.025542176729556    76.4572005713165     0.994328866846292    -1.43103134539998    0.994328866846292    -1.43103134539998    0.025542176729556    76.4572005713165     
9.39029246942389     0.025791760213581    76.5357330796264     0.994311100831585    -1.44551915811933    0.994311100831585    -1.44551915811933    0.025791760213581    76.5357330796264     
9.48550716572069     0.026043920962577    76.613374723618      0.99429314891781     -1.46015344280183    0.99429314891781     -1.46015344280183    0.026043920962577    76.613374723618      
9.58168730994366     0.026298684499704    76.6901294456934     0.994275008214064    -1.47493567536078    0.994275008214064    -1.47493567536078    0.026298684499704    76.6901294456934     
9.67884269143979     0.026556076603672    76.7660011555572     0.994256675775382    -1.48986734645045    0.994256675775382    -1.48986734645045    0.026556076603672    76.7660011555572     
9.77698319881702     0.026816123311188    76.84099372948       0.994238148601619    -1.50494996160963    0.994238148601619    -1.50494996160963    0.026816123311188    76.84099372948       
9.87611882095077     0.027078850919424    76.9151110095805     0.994219423636396    -1.52018504140641    0.994219423636396    -1.52018504140641    0.027078850919424    76.9151110095805     
9.97625964800059     0.027344285988507    76.9883568031296     0.994200497765946    -1.5355741215842     0.994200497765946    -1.5355741215842     0.027344285988507    76.9883568031296     
10.0774158724372     0.027612455344026    77.060734881873      0.994181367818022    -1.55111875320923    0.994181367818022    -1.55111875320923    0.027612455344026    77.060734881873      
10.1795977900798     0.027883386079564    77.132248981373      0.994162030560741    -1.56682050281922    0.994162030560741    -1.56682050281922    0.027883386079564    77.132248981373      
10.2828158011441     0.028157105559242    77.2029028003689     0.994142482701383    -1.58268095257341    0.994142482701383    -1.58268095257341    0.028157105559242    77.2029028003689     
10.3870804113008     0.028433641420291    77.2727000001566     0.994122720885187    -1.59870170040388    0.994122720885187    -1.59870170040388    0.028433641420291    77.2727000001566     
10.4924022327448     0.028713021575641    77.341644203984      0.994102741694158    -1.61488436016825    0.994102741694158    -1.61488436016825    0.028713021575641    77.341644203984      
10.5987919852757     0.028995274216531    77.4097389964654     0.994082541645782    -1.63123056180377    0.994082541645782    -1.63123056180377    0.028995274216531    77.4097389964654     
10.7062604973883     0.029280427815137    77.4769879230115     0.994062117191801    -1.64774195148267    0.994062117191801    -1.64774195148267    0.029280427815137    77.4769879230115     
10.8148187073751     0.029568511127222    77.543394489277      0.994041464716831    -1.66442019176882    0.994041464716831    -1.66442019176882    0.029568511127222    77.543394489277      
10.9244776644396     0.029859553194813    77.608962160623      0.99402058053712     -1.68126696177594    0.99402058053712     -1.68126696177594    0.029859553194813    77.608962160623      
11.0352485298208     0.030153583348883    77.6736943615954     0.99399946089917     -1.69828395732704    0.99399946089917     -1.69828395732704    0.030153583348883    77.6736943615954     
11.1471425779293     0.030450631212071    77.7375944754188     0.993978101978316    -1.71547289111525    0.993978101978316    -1.71547289111525    0.030450631212071    77.7375944754188     
11.2601711974947     0.03075072670141     77.8006658435043     0.993956499877394    -1.73283549286611    0.993956499877394    -1.73283549286611    0.03075072670141     77.8006658435043     
11.3743458927249     0.031053900031084    77.8629117649725     0.993934650625247    -1.75037350950115    0.993934650625247    -1.75037350950115    0.031053900031084    77.8629117649725     
11.489678284477      0.031360181715197    77.9243354961892     0.993912550175307    -1.76808870530295    0.993912550175307    -1.76808870530295    0.031360181715197    77.9243354961892     
11.60618011144       0.031669602570574    77.9849402503162     0.993890194404059    -1.78598286208162    0.993890194404059    -1.78598286208162    0.031669602570574    77.9849402503162     
11.7238632313295     0.031982193719573    78.0447291968741     0.993867579109556    -1.80405777934255    0.993867579109556    -1.80405777934255    0.031982193719573    78.0447291968741     
11.8427396220948     0.032297986592921    78.1037054613177     0.993844700009869    -1.8223152744558     0.993844700009869    -1.8223152744558     0.032297986592921    78.1037054613177     
11.9628213831381     0.032617012932573    78.1618721246248     0.993821552741509    -1.84075718282677    0.993821552741509    -1.84075718282677    0.032617012932573    78.1618721246248     
12.0841207365456     0.032939304794588    78.2192322228962     0.993798132857761    -1.85938535806823    0.993798132857761    -1.85938535806823    0.032939304794588    78.2192322228962     
12.2066500283318     0.03326489455203     78.2757887469675     0.99377443582713     -1.87820167217404    0.99377443582713     -1.87820167217404    0.03326489455203     78.2757887469675     
12.3304217296961     0.033593814897885    78.3315446420324     0.993750457031581    -1.89720801569403    0.993750457031581    -1.89720801569403    0.033593814897885    78.3315446420324     
12.4554484382919     0.033926098848002    78.3865028072772     0.993726191764905    -1.91640629791057    0.993726191764905    -1.91640629791057    0.033926098848002    78.3865028072772     
12.5817428795092     0.034261779744056    78.4406660955249     0.993701635230911    -1.93579844701636    0.993701635230911    -1.93579844701636    0.034261779744056    78.4406660955249     
12.7093179077692     0.034600891256524    78.494037312891      0.993676782541696    -1.95538641029392    0.993676782541696    -1.95538641029392    0.034600891256524    78.494037312891      
12.8381865078334     0.034943467387693    78.5466192184482     0.993651628715795    -1.97517215429628    0.993651628715795    -1.97517215429628    0.034943467387693    78.5466192184482     
12.9683617961244     0.03528954247468     78.5984145239012     0.993626168676383    -1.99515766502944    0.993626168676383    -1.99515766502944    0.03528954247468     78.5984145239012     
13.0998570220618     0.035639151192472    78.6494258932708     0.993600397249345    -2.015344948136      0.993600397249345    -2.015344948136      0.035639151192472    78.6494258932708     
13.2326855694099     0.035992328556997    78.6996559425871     0.993574309161376    -2.03573602908047    0.993574309161376    -2.03573602908047    0.035992328556997    78.6996559425871     
13.3668609576403     0.0363491099282      78.7491072395914     0.993547899038028    -2.05633295333597    0.993547899038028    -2.05633295333597    0.0363491099282      78.7491072395914     
13.5023968433081     0.036709531013151    78.7977823034463     0.993521161401701    -2.07713778657243    0.993521161401701    -2.07713778657243    0.036709531013151    78.7977823034463     
13.6393070214416     0.03707362786917     78.8456836044543     0.993494090669605    -2.09815261484629    0.993494090669605    -2.09815261484629    0.03707362786917     78.8456836044543     
13.7776054269464     0.037441436906967    78.8928135637843     0.99346668115171     -2.11937954479165    0.99346668115171     -2.11937954479165    0.037441436906967    78.8928135637843     
13.9173061360239     0.037812994893813    78.9391745532051     0.993438927048609    -2.14082070381295    0.993438927048609    -2.14082070381295    0.037812994893813    78.9391745532051     
14.0584233676039     0.038188338956714    78.9847688948276     0.993410822449358    -2.1624782402791     0.993410822449358    -2.1624782402791     0.038188338956714    78.9847688948276     
14.2009714847916     0.038567506585624    79.029598860852      0.993382361329283    -2.18435432371913    0.993382361329283    -2.18435432371913    0.038567506585624    79.029598860852      
14.3449649963298     0.038950535636662    79.0736666733241     0.993353537547732    -2.20645114501932    0.993353537547732    -2.20645114501932    0.038950535636662    79.0736666733241     
14.4904185580758     0.039337464335357    79.1169745038964     0.993324344845814    -2.22877091662188    0.993324344845814    -2.22877091662188    0.039337464335357    79.1169745038964     
14.6373469744923     0.039728331279905    79.1595244735965     0.993294776844029    -2.25131587272498    0.993294776844029    -2.25131587272498    0.039728331279905    79.1595244735965     
14.7857652001551     0.040123175444455    79.2013186526011     0.993264827039919    -2.27408826948447    0.993264827039919    -2.27408826948447    0.040123175444455    79.2013186526011     
14.9356883412748     0.040522036182404    79.2423590600165     0.993234488805643    -2.29709038521693    0.993234488805643    -2.29709038521693    0.040522036182404    79.2423590600165     
15.0871316572342     0.040924953229713    79.2826476636635     0.993203755385479    -2.32032452060425    0.993203755385479    -2.32032452060425    0.040924953229713    79.2826476636635     
15.2401105621417     0.041331966708246    79.3221863798694     0.993172619893359    -2.34379299889981    0.993172619893359    -2.34379299889981    0.041331966708246    79.3221863798694     
15.3946406263999     0.041743117129121    79.3609770732635     0.993141075310254    -2.36749816613601    0.993141075310254    -2.36749816613601    0.041743117129121    79.3609770732635     
15.5507375782908     0.042158445396081    79.399021556579      0.993109114481576    -2.3914423913333     0.993109114481576    -2.3914423913333     0.042158445396081    79.399021556579      
15.7084173055761     0.04257799280888     79.4363215904586     0.993076730114518    -2.41562806671086    0.993076730114518    -2.41562806671086    0.04257799280888     79.4363215904586     
15.8676958571147     0.043001801066695    79.4728788832654     0.993043914775328    -2.4400576078985     0.993043914775328    -2.4400576078985     0.043001801066695    79.4728788832654     
16.028589444496      0.043429912271541    79.5086950908977     0.993010660886523    -2.4647334541502     0.993010660886523    -2.4647334541502     0.043429912271541    79.5086950908977     
16.1911144436899     0.043862368931711    79.5437718166084     0.992976960724098    -2.48965806855912    0.992976960724098    -2.48965806855912    0.043862368931711    79.5437718166084     
16.3552873967137     0.044299213965234    79.578110610828      0.992942806414626    -2.51483393827409    0.992942806414626    -2.51483393827409    0.044299213965234    79.578110610828      
16.5211250133157     0.044740490703341    79.6117129709917     0.992908189932291    -2.54026357471736    0.992908189932291    -2.54026357471736    0.044740490703341    79.6117129709917     
16.6886441726758     0.045186242893953    79.6445803413705     0.992873103095966    -2.56594951380409    0.992873103095966    -2.56594951380409    0.045186242893953    79.6445803413705     
16.857861925124      0.045636514705177    79.6767141129046     0.992837537566112    -2.59189431616308    0.992837537566112    -2.59189431616308    0.045636514705177    79.6767141129046     
17.0287954938749     0.046091350728824    79.7081156230416     0.99280148484168     -2.61810056735899    0.99280148484168     -2.61810056735899    0.046091350728824    79.7081156230416     
17.2014622767817     0.046550795983939    79.738786155577      0.992764936256937    -2.64457087811604    0.992764936256937    -2.64457087811604    0.046550795983939    79.738786155577      
17.3758798481063     0.047014895920338    79.7687269404978     0.992727882978275    -2.67130788454311    0.992727882978275    -2.67130788454311    0.047014895920338    79.7687269404978     
17.5520659603083     0.047483696422163    79.7979391538288     0.99269031600085     -2.69831424836009    0.99269031600085     -2.69831424836009    0.047483696422163    79.7979391538288     
17.7300385458517     0.047957243811452    79.8264239174827     0.992652226145308    -2.72559265712589    0.992652226145308    -2.72559265712589    0.047957243811452    79.8264239174827     
17.9098157190303     0.048435584851718    79.8541822991111     0.992613604054312    -2.7531458244677     0.992613604054312    -2.7531458244677     0.048435584851718    79.8541822991111     
18.0914157778114     0.048918766751531    79.8812153119593     0.992574440189054    -2.78097649031139    0.992574440189054    -2.78097649031139    0.048918766751531    79.8812153119593     
18.2748572056979     0.049406837168131    79.9075239147227     0.992534724825756    -2.80908742111382    0.992534724825756    -2.80908742111382    0.049406837168131    79.9075239147227     
18.46015867361       0.049899844211026    79.9331090114058     0.992494448052002    -2.83748141009592    0.992494448052002    -2.83748141009592    0.049899844211026    79.9331090114058     
18.647339041785      0.05039783644562     79.957971451183      0.992453599763073    -2.86616127747741    0.992453599763073    -2.86616127747741    0.05039783644562     79.957971451183      
18.8364173616977     0.050900862896837    79.9821120282613     0.992412169658192    -2.89512987071279    0.992412169658192    -2.89512987071279    0.050900862896837    79.9821120282613     
19.0274128779985     0.05140897305276     80.0055314817453     0.992370147236693    -2.92439006472851    0.992370147236693    -2.92439006472851    0.05140897305276     80.0055314817453     
19.2203450304732     0.051922216868267    80.0282304955033     0.992327521794089    -2.95394476216143    0.992327521794089    -2.95394476216143    0.051922216868267    80.0282304955033     
19.4152334560206     0.052440644768691    80.0502096980356     0.992284282418165    -2.98379689359873    0.992284282418165    -2.98379689359873    0.052440644768691    80.0502096980356     
19.612097990652      0.052964307653463    80.071469662344      0.992240417984849    -3.01394941781873    0.992240417984849    -3.01394941781873    0.052964307653463    80.071469662344      
19.8109586715098     0.053493256899781    80.0920109058026     0.992195917154144    -3.04440532203314    0.992195917154144    -3.04440532203314    0.053493256899781    80.0920109058026     
20.0118357389066     0.054027544366268    80.1118338900307     0.992150768365911    -3.0751676221305     0.992150768365911    -3.0751676221305     0.054027544366268    80.1118338900307     
20.2147496383858     0.054567222396635    80.130939020766      0.992104959835553    -3.10623936292047    0.992104959835553    -3.10623936292047    0.054567222396635    80.130939020766      
20.4197210228024     0.055112343823353    80.1493266477393     0.992058479549684    -3.13762361837969    0.992058479549684    -3.13762361837969    0.055112343823353    80.1493266477393     
20.6267707544249     0.055662961971321    80.1669970645513     0.992011315261671    -3.16932349189847    0.992011315261671    -3.16932349189847    0.055662961971321    80.1669970645513     
20.835919907059      0.056219130661529    80.1839505085483     0.991963454487094    -3.20134211652846    0.991963454487094    -3.20134211652846    0.056219130661529    80.1839505085483     
21.0471897681921     0.056780904214728    80.2001871607012     0.991914884499154    -3.23368265523168    0.991914884499154    -3.23368265523168    0.056780904214728    80.2001871607012     
21.2606018411606     0.057348337455093    80.2157071454839     0.991865592323958    -3.26634830113033    0.991865592323958    -3.26634830113033    0.057348337455093    80.2157071454839     
21.4761778473376     0.057921485713884    80.2305105307528     0.991815564735721    -3.29934227775756    0.991815564735721    -3.29934227775756    0.057921485713884    80.2305105307528     
21.6939397283449     0.058500404833096    80.2445973276277     0.991764788251887    -3.33266783930914    0.991764788251887    -3.33266783930914    0.058500404833096    80.2445973276277     
21.9139096482852     0.059085151169116    80.2579674903728     0.991713249128194    -3.3663282708964     0.991713249128194    -3.3663282708964     0.059085151169116    80.2579674903728     
22.1361099959986     0.059675781596356    80.2706209162784     0.991660933353575    -3.40032688879954    0.991660933353575    -3.40032688879954    0.059675781596356    80.2706209162784     
22.3605633873413     0.060272353510889    80.2825574455437     0.991607826645001    -3.43466704072187    0.991607826645001    -3.43466704072187    0.060272353510889    80.2825574455437     
22.587292667487      0.060874924834074    80.2937768611599     0.991553914442258    -3.46935210604524    0.991553914442258    -3.46935210604524    0.060874924834074    80.2937768611599     
22.816320913253      0.06148355401616     80.304278888794      0.991499181902585    -3.50438549608555    0.991499181902585    -3.50438549608555    0.06148355401616     80.304278888794      
23.0476714354481     0.062098300039888    80.3140631966727     0.991443613895222    -3.53977065434955    0.991443613895222    -3.53977065434955    0.062098300039888    80.3140631966727     
23.2813677812456     0.062719222424069    80.3231293954676     0.991387194995886    -3.57551105679182    0.991387194995886    -3.57551105679182    0.062719222424069    80.3231293954676     
23.5174337365801     0.063346381227154    80.3314770381804     0.991329909481079    -3.61161021207259    0.991329909481079    -3.61161021207259    0.063346381227154    80.3314770381804     
23.7558933285683     0.063979837050776    80.3391056200284     0.991271741322373    -3.64807166181596    0.991271741322373    -3.64807166181596    0.063979837050776    80.3391056200284     
23.9967708279543     0.064619651043281    80.3460145783309     0.991212674180561    -3.68489898086872    0.991212674180561    -3.68489898086872    0.064619651043281    80.3460145783309     
24.2400907515805     0.065265884903235    80.3522032923959     0.991152691399657    -3.72209577755961    0.991152691399657    -3.72209577755961    0.065265884903235    80.3522032923959     
24.4858778648822     0.065918600882899    80.3576710834073     0.991091776000841    -3.75966569395859    0.991091776000841    -3.75966569395859    0.065918600882899    80.3576710834073     
24.7341571844089     0.066577861791693    80.3624172143119     0.991029910676307    -3.79761240613703    0.991029910676307    -3.79761240613703    0.066577861791693    80.3624172143119     
24.9849539803701     0.067243730999619    80.3664408897086     0.990967077782891    -3.83593962442733    0.990967077782891    -3.83593962442733    0.067243730999619    80.3664408897086     
25.2382937792077     0.067916272440665    80.3697412557355     0.990903259335773    -3.87465109368369    0.990903259335773    -3.87465109368369    0.067916272440665    80.3697412557355     
25.4942023661938     0.068595550616167    80.37231739996       0.990838437001844    -3.91375059354202    0.990838437001844    -3.91375059354202    0.068595550616167    80.37231739996       
25.7527057880553     0.069281630598147    80.3741683512677     0.990772592093146    -3.95324193868045    0.990772592093146    -3.95324193868045    0.069281630598147    80.3741683512677     
26.0138303556249     0.069974578032605    80.3752930797523     0.990705705560069    -3.99312897907964    0.990705705560069    -3.99312897907964    0.069974578032605    80.3752930797523     
26.2776026465192     0.070674459142783    80.3756904966064     0.990637757984489    -4.03341560028302    0.990637757984489    -4.03341560028302    0.070674459142783    80.3756904966064     
26.5440495078436     0.071381340732375    80.3753594540126     0.990568729572773    -4.07410572365661    0.990568729572773    -4.07410572365661    0.071381340732375    80.3753594540126     
26.813198058925      0.072095290188708    80.3742987450349     0.990498600148625    -4.11520330664882    0.990498600148625    -4.11520330664882    0.072095290188708    80.3742987450349     
27.085075694072      0.072816375485863    80.3725071035113     0.990427349145854    -4.15671234304968    0.990427349145854    -4.15671234304968    0.072816375485863    80.3725071035113     
27.3597100853633     0.073544665187755    80.3699832039469     0.990354955600986    -4.19863686324967    0.990354955600986    -4.19863686324967    0.073544665187755    80.3699832039469     
27.6371291854635     0.074280228451159    80.3667256614073     0.990281398145767    -4.24098093449799    0.990281398145767    -4.24098093449799    0.074280228451159    80.3667256614073     
27.9173612304693     0.075023135028685    80.3627330314135     0.990206654999499    -4.28374866116027    0.990206654999499    -4.28374866116027    0.075023135028685    80.3627330314135     
28.2004347427824     0.075773455271687    80.3580038098375     0.990130703961261    -4.32694418497506    0.990130703961261    -4.32694418497506    0.075773455271687    80.3580038098375     
28.486378534013      0.076531260133117    80.3525364327978     0.990053522402035    -4.3705716853102     0.990053522402035    -4.3705716853102     0.076531260133117    80.3525364327978     
28.7752217079124     0.077296621170322    80.3463292765579     0.989975087256612    -4.41463537941766    0.989975087256612    -4.41463537941766    0.077296621170322    80.3463292765579     
29.0669936633347     0.078069610547755    80.3393806574239     0.989895375015441    -4.45913952268736    0.989895375015441    -4.45913952268736    0.078069610547755    80.3393806574239     
29.3617240972298     0.078850301039638    80.331688831644      0.98981436171627     -4.50408840890005    0.98981436171627     -4.50408840890005    0.078850301039638    80.331688831644      
29.6594430076654     0.079638766032529    80.3232519953102     0.98973202293567     -4.54948637047832    0.98973202293567     -4.54948637047832    0.079638766032529    80.3232519953102     
29.9601806968803     0.080435079527835    80.3140682842592     0.989648333780466    -4.59533777873714    0.989648333780466    -4.59533777873714    0.080435079527835    80.3140682842592     
30.263967774369      0.081239316144222    80.3041357739765     0.989563268878912    -4.64164704413169    0.989563268878912    -4.64164704413169    0.081239316144222    80.3041357739765     
30.5708351599968     0.082051551119954    80.2934524795017     0.989476802371809    -4.68841861650428    0.989476802371809    -4.68841861650428    0.082051551119954    80.2934524795017     
30.880814087147      0.082871860315139    80.2820163553342     0.989388907903456    -4.73565698532914    0.989388907903456    -4.73565698532914    0.082871860315139    80.2820163553342     
31.1939361058998     0.083700320213878    80.2698252953429     0.989299558612399    -4.78336667995518    0.989299558612399    -4.78336667995518    0.083700320213878    80.2698252953429     
31.5102330862437     0.084537007926328    80.256877132675      0.989208727122077    -4.83155226984681    0.989208727122077    -4.83155226984681    0.084537007926328    80.256877132675      
31.829737221319      0.085382001190646    80.2431696396695     0.989116385531291    -4.88021836482207    0.989116385531291    -4.88021836482207    0.085382001190646    80.2431696396695     
32.1524810306948     0.086235378374852    80.2287005277706     0.989022505404532    -4.92936961528919    0.989022505404532    -4.92936961528919    0.086235378374852    80.2287005277706     
32.4784973636785     0.087097218478553    80.2134674474444     0.988927057762118    -4.97901071247934    0.988927057762118    -4.97901071247934    0.087097218478553    80.2134674474444     
32.8078194026595     0.087967601134578    80.1974679880981     0.988830013070217    -5.02914638867772    0.988830013070217    -5.02914638867772    0.087967601134578    80.1974679880981     
33.1404806664865     0.088846606610471    80.1806996780017     0.988731341230624    -5.07978141745082    0.988731341230624    -5.07978141745082    0.088846606610471    80.1806996780017     
33.4765150138792     0.089734315809887    80.1631599842113     0.988631011570471    -5.13092061387159    0.988631011570471    -5.13092061387159    0.089734315809887    80.1631599842113     
33.8159566468742     0.090630810273822    80.1448463124966     0.988528992831734    -5.18256883474012    0.988528992831734    -5.18256883474012    0.090630810273822    80.1448463124966     
34.1588401143063     0.091536172181742    80.1257560072713     0.988425253160492    -5.23473097880169    0.988425253160492    -5.23473097880169    0.091536172181742    80.1257560072713     
34.505200315325      0.09245048435255     80.1058863515253     0.988319760096173    -5.28741198696105    0.988319760096173    -5.28741198696105    0.09245048435255     80.1058863515253     
34.8550725029466     0.093373830245419    80.0852345667623     0.988212480560468    -5.34061684249231    0.988212480560468    -5.34061684249231    0.093373830245419    80.0852345667623     
35.208492287642      0.094306293960463    80.0637978129393     0.988103380846172    -5.39435057124531    0.988103380846172    -5.39435057124531    0.094306293960463    80.0637978129393     
35.5654956409615     0.095247960239265    80.0415731884105     0.987992426605834    -5.44861824184749    0.987992426605834    -5.44861824184749    0.095247960239265    80.0415731884105     
35.9261188991961     0.09619891446522     80.0185577298757     0.987879582840196    -5.50342496590102    0.987879582840196    -5.50342496590102    0.09619891446522     80.0185577298757     
36.2903987670753     0.097159242663734    79.9947484123317     0.987764813886451    -5.5587758981755     0.987764813886451    -5.5587758981755     0.097159242663734    79.9947484123317     
36.6583723215038     0.09812903150223     79.9701421490286     0.987648083406401    -5.61467623679575    0.987648083406401    -5.61467623679575    0.09812903150223     79.9701421490286     
37.0300770153343     0.099108368289972    79.9447357914315     0.98752935437431     -5.67113122342382    0.98752935437431     -5.67113122342382    0.099108368289972    79.9447357914315     
37.4055506811805     0.100097340977703    79.918526129186      0.987408589064681    -5.72814614343598    0.987408589064681    -5.72814614343598    0.100097340977703    79.918526129186      
37.7848315352667     0.101096038157098    79.8915098900889     0.987285749039795    -5.78572632609428    0.987285749039795    -5.78572632609428    0.101096038157098    79.8915098900889     
38.1679581813185     0.102104549059986    79.863683740065      0.98716079513706     -5.84387714471113    0.98716079513706     -5.84387714471113    0.102104549059986    79.863683740065      
38.5549696144912     0.103122963557396    79.8350442831482     0.9870336874562      -5.9026040168088     0.9870336874562      -5.9026040168088     0.103122963557396    79.8350442831482     
38.9459052253392     0.104151372158355    79.8055880614703     0.986904385346252    -5.96191240427161    0.986904385346252    -5.96191240427161    0.104151372158355    79.8055880614703     
39.3408048038251     0.105189866008476    79.7753115552539     0.986772847392327    -6.02180781349105    0.986772847392327    -6.02180781349105    0.105189866008476    79.7753115552539     
39.7397085433694     0.106238536888313    79.7442111828132     0.986639031402288    -6.08229579550526    0.986639031402288    -6.08229579550526    0.106238536888313    79.7442111828132     
40.1426570449416     0.107297477211467    79.7122833005611     0.986502894393078    -6.14338194612907    0.986502894393078    -6.14338194612907    0.107297477211467    79.7122833005611     
40.549691321193      0.108366780022452    79.679524203023      0.98636439257702     -6.20507190607786    0.98636439257702     -6.20507190607786    0.108366780022452    79.679524203023      
40.9608528006301     0.109446538994285    79.6459301228579     0.986223481347814    -6.26737136108254    0.986223481347814    -6.26737136108254    0.109446538994285    79.6459301228579     
41.3761833318323     0.110536848425834    79.6114972308884     0.986080115266353    -6.33028604199656    0.986080115266353    -6.33028604199656    0.110536848425834    79.6114972308884     
41.7957251877105     0.111637803238871    79.5762216361363     0.985934248046445    -6.39382172489424    0.985934248046445    -6.39382172489424    0.111637803238871    79.5762216361363     
42.21952106981       0.112749498974844    79.5400993858693     0.985785832540162    -6.45798423115922    0.985785832540162    -6.45798423115922    0.112749498974844    79.5400993858693     
42.6476141126569     0.11387203179136     79.5031264656536     0.985634820723172    -6.52277942756481    0.985634820723172    -6.52277942756481    0.11387203179136     79.5031264656536     
43.0800478881481     0.115005498458361    79.4652987994187     0.985481163679753    -6.58821322634343    0.985481163679753    -6.58821322634343    0.115005498458361    79.4652987994187     
43.5168664099862     0.116149996353981    79.4266122495279     0.985324811587691    -6.65429158524618    0.985324811587691    -6.65429158524618    0.116149996353981    79.4266122495279     
43.9581141381593     0.11730562346009     79.3870626168619     0.985165713702915    -6.72102050759254    0.985165713702915    -6.72102050759254    0.11730562346009     79.3870626168619     
44.4038359834664     0.118472478357487    79.3466456409105     0.985003818343979    -6.7884060423074     0.985003818343979    -6.7884060423074     0.118472478357487    79.3466456409105     
44.8540773120879     0.119650660220776    79.3053569998758     0.984839072876382    -6.85645428394923    0.984839072876382    -6.85645428394923    0.119650660220776    79.3053569998758     
45.3088839502038     0.120840268812855    79.2631923107863     0.984671423696585    -6.92517137272406    0.984671423696585    -6.92517137272406    0.120840268812855    79.2631923107863     
45.7683021886572     0.122041404479052    79.2201471296219     0.984500816215951    -6.99456349448823    0.984500816215951    -6.99456349448823    0.122041404479052    79.2201471296219     
46.2323787876665     0.123254168140901    79.1762169514519     0.984327194844441    -7.06463688073929    0.984327194844441    -7.06463688073929    0.123254168140901    79.1762169514519     
46.7011609815842     0.124478661289482    79.1313972105837     0.984150502974078    -7.13539780859188    0.984150502974078    -7.13539780859188    0.124478661289482    79.1313972105837     
47.1746964837049     0.125714985978421    79.0856832807256     0.983970682962335    -7.20685260074204    0.983970682962335    -7.20685260074204    0.125714985978421    79.0856832807256     
47.6530334911214     0.126963244816418    79.0390704751625     0.983787676115196    -7.27900762541607    0.983787676115196    -7.27900762541607    0.126963244816418    79.0390704751625     
48.13622068963       0.128223540959396    78.9915540469454     0.983601422670145    -7.35186929630522    0.983601422670145    -7.35186929630522    0.128223540959396    78.9915540469454     
48.6243072586866     0.129495978102176    78.9431291890936     0.983411861778884    -7.42544407248598    0.983411861778884    -7.42544407248598    0.129495978102176    78.9431291890936     
49.1173428764112     0.130780660469723    78.8937910348153     0.983218931489925    -7.49973845832322    0.983218931489925    -7.49973845832322    0.130780660469723    78.8937910348153     
49.6153777246452     0.132077692807925    78.8435346577393     0.983022568730995    -7.57475900335948    0.983022568730995    -7.57475900335948    0.132077692807925    78.8435346577393     
50.1184624940585     0.133387180373881    78.7923550721647     0.982822709291216    -7.65051230218562    0.982822709291216    -7.65051230218562    0.133387180373881    78.7923550721647     
50.6266483893085     0.134709228925709    78.7402472333276     0.982619287803154    -7.72700499429492    0.982619287803154    -7.72700499429492    0.134709228925709    78.7402472333276     
51.1399871342526     0.136043944711854    78.6872060376825     0.982412237724717    -7.80424376392056    0.982412237724717    -7.80424376392056    0.136043944711854    78.6872060376825     
51.6585309772122     0.137391434459859    78.6332263232033     0.98220149132079     -7.8822353398529     0.98220149132079     -7.8822353398529     0.137391434459859    78.6332263232033     
52.1823326962907     0.138751805364609    78.578302869701      0.98198697964481     -7.96098649523875    0.98198697964481     -7.96098649523875    0.138751805364609    78.578302869701      
52.7114456047452     0.140125165076043    78.5224303991609     0.981768632520135    -8.0405040473621     0.981768632520135    -8.0405040473621     0.140125165076043    78.5224303991609     
53.2459235564131     0.141511621686265    78.4656035760984     0.981546378521215    -8.12079485740256    0.981546378521215    -8.12079485740256    0.141511621686265    78.4656035760984     
53.7858209511933     0.142911283716114    78.4078170079359     0.981320144954711    -8.20186583017492    0.981320144954711    -8.20186583017492    0.142911283716114    78.4078170079359     
54.3311927405829     0.144324260101114    78.3490652453986     0.981089857840358    -8.28372391384628    0.981089857840358    -8.28372391384628    0.144324260101114    78.3490652453986     
54.8820944332705     0.145750660176825    78.2893427829331     0.980855441891765    -8.36637609963196    0.980855441891765    -8.36637609963196    0.145750660176825    78.2893427829331     
55.4385821007857     0.147190593663556    78.2286440591469     0.980616820497038    -8.44982942146715    0.980616820497038    -8.44982942146715    0.147190593663556    78.2286440591469     
56.0007123832066     0.148644170650444    78.1669634572714     0.980373915699268    -8.53409095565681    0.980373915699268    -8.53409095565681    0.148644170650444    78.1669634572714     
56.5685424949238     0.15011150157887     78.1042953056471     0.980126648176964    -8.61916782050047    0.980126648176964    -8.61916782050047    0.15011150157887     78.1042953056471     
57.1421302304651     0.151592697225193    78.0406338782336     0.979874937224266    -8.7050671758924     0.979874937224266    -8.7050671758924     0.151592697225193    78.0406338782336     
57.7215339703764     0.153087868682796    77.9759733951445     0.979618700731125    -8.79179622289629    0.979618700731125    -8.79179622289629    0.153087868682796    77.9759733951445     
58.306812687165      0.154597127343407    77.9103080232075     0.979357855163329    -8.87936220329282    0.979357855163329    -8.87936220329282    0.154597127343407    77.9103080232075     
58.8980259513012     0.156120584877712    77.84363187655       0.979092315542538    -8.96777239910199    0.979092315542538    -8.96777239910199    0.156120584877712    77.84363187655       
59.4952339372818     0.157658353215193    77.7759390172136     0.978821995426082    -9.05703413207507    0.978821995426082    -9.05703413207507    0.157658353215193    77.7759390172136     
60.0984974297545     0.159210544523219    77.7072234557949     0.978546806886794    -9.14715476315979    0.978546806886794    -9.14715476315979    0.159210544523219    77.7072234557949     
60.7078778297048     0.160777271185344    77.6374791521154     0.978266660492766    -9.23814169193542    0.978266660492766    -9.23814169193542    0.160777271185344    77.6374791521154     
61.3234371607054     0.162358645778799    77.5667000159209     0.977981465287022    -9.33000235601716    0.977981465287022    -9.33000235601716    0.162358645778799    77.5667000159209     
61.945238075229      0.163954781051171    77.4948799076116     0.97769112876716     -9.42274423043019    0.97769112876716     -9.42274423043019    0.163954781051171    77.4948799076116     
62.5733438610253     0.165565789896224    77.4220126390027     0.977395556864958    -9.51637482695084    0.977395556864958    -9.51637482695084    0.165565789896224    77.4220126390027     
63.2078184475627     0.167191785328874    77.3480919741174     0.977094653925982    -9.61090169341582    0.977094653925982    -9.61090169341582    0.167191785328874    77.3480919741174     
63.8487264125344     0.168832880459269    77.2731116300133     0.976788322689131    -9.70633241299647    0.976788322689131    -9.70633241299647    0.168832880459269    77.2731116300133     
64.4961329884319     0.170489188465976    77.1970652776413     0.97647646426628     -9.80267460343983    0.97647646426628     -9.80267460343983    0.170489188465976    77.1970652776413     
65.1501040691844     0.172160822568256    77.1199465427404     0.976158978121876    -9.89993591627349    0.976158978121876    -9.89993591627349    0.172160822568256    77.1199465427404     
65.8107062168651     0.173847895997369    77.0417490067682     0.975835762052561    -9.99812403597313    0.975835762052561    -9.99812403597313    0.173847895997369    77.0417490067682     
66.4780066684665     0.175550521966945    76.9624662078672     0.975506712166895    -10.0972466790944    0.975506712166895    -10.0972466790944    0.175550521966945    76.9624662078672     
67.1520733427437     0.177268813642362    76.8820916418692     0.9751717228651      -10.1973115933646    0.9751717228651      -10.1973115933646    0.177268813642362    76.8820916418692     
67.8329748471269     0.179002884109123    76.8006187633379     0.974830686818958    -10.2983265567372    0.974830686818958    -10.2983265567372    0.179002884109123    76.8006187633379     
68.520780484705      0.1807528463402      76.7180409866513     0.974483494951702    -10.4002993764031    0.974483494951702    -10.4002993764031    0.1807528463402      76.7180409866513     
69.2155602612789     0.182518813162357    76.6343516871247     0.974130036418128    -10.5032378877638    0.974130036418128    -10.5032378877638    0.182518813162357    76.6343516871247     
69.9173848924871     0.184300897221383    76.5495442021749     0.973770198584792    -10.6071499533598    0.973770198584792    -10.6071499533598    0.184300897221383    76.5495442021749     
70.6263258110027     0.186099210946248    76.4636118325263     0.973403867010381    -10.7120434617574    0.973403867010381    -10.7120434617574    0.186099210946248    76.4636118325263     
71.3424551738047     0.187913866512161    76.3765478434627     0.973030925426254    -10.8179263263894    0.973030925426254    -10.8179263263894    0.187913866512161    76.3765478434627     
72.0658458695216     0.189744975802493    76.2883454661206     0.972651255717231    -10.9248064843527    0.972651255717231    -10.9248064843527    0.189744975802493    76.2883454661206     
72.7965715258502     0.191592650369545    76.1989978988309     0.972264737902534    -11.0326918951574    0.972264737902534    -11.0326918951574    0.191592650369545    76.1989978988309     
73.53470651705       0.193457001394157    76.1084983085056     0.971871250117017    -11.141590539429     0.971871250117017    -11.141590539429     0.193457001394157    76.1084983085056     
74.2803259715124     0.195338139644126    76.0168398320731     0.971470668592678    -11.2515104175633    0.971470668592678    -11.2515104175633    0.195338139644126    76.0168398320731     
75.033505779408      0.197236175431413    75.9240155779618     0.971062867640464    -11.3624595483301    0.971062867640464    -11.3624595483301    0.197236175431413    75.9240155779618     
75.7943226004104     0.199151218568103    75.8300186276341     0.970647719632355    -11.4744459674261    0.970647719632355    -11.4744459674261    0.199151218568103    75.8300186276341     
76.562853871499      0.201083378321151    75.7348420371713     0.970225094983877    -11.5874777259781    0.970225094983877    -11.5874777259781    0.201083378321151    75.7348420371713     
77.3391778148401     0.203032763365816    75.6384788389101     0.969794862136935    -11.701562888991     0.969794862136935    -11.701562888991     0.203032763365816    75.6384788389101     
78.1233734457495     0.204999481737828    75.5409220431334     0.969356887543072    -11.8167095337423    0.969356887543072    -11.8167095337423    0.204999481737828    75.5409220431334     
78.9155205807337     0.206983640784243    75.4421646398141     0.968911035647196    -11.9329257481234    0.968911035647196    -11.9329257481234    0.206983640784243    75.4421646398141     
79.7156998456143     0.208985347112958    75.3421996004155     0.968457168871738    -12.0502196289214    0.968457168871738    -12.0502196289214    0.208985347112958    75.3421996004155     
80.5239926837342     0.211004706540889    75.2410198797478     0.967995147601324    -12.1685992800468    0.967995147601324    -12.1685992800468    0.211004706540889    75.2410198797478     
81.3404813642468     0.213041824040772    75.1386184178824     0.967524830167999    -12.2880728107003    0.967524830167999    -12.2880728107003    0.213041824040772    75.1386184178824     
82.1652489904894     0.215096803686589    75.0349881421239     0.967046072837041    -12.4086483334819    0.967046072837041    -12.4086483334819    0.215096803686589    75.0349881421239     
82.9983795084423     0.217169748597592    74.9301219690445     0.96655872979331     -12.5303339624381    0.96655872979331     -12.5303339624381    0.217169748597592    74.9301219690445     
83.8399577152717     0.219260760880899    74.8240128065768     0.966062653128362    -12.6531378110481    0.966062653128362    -12.6531378110481    0.219260760880899    74.8240128065768     
84.6900692679618     0.221369941572662    74.7166535561702     0.965557692828098    -12.7770679901464    0.965557692828098    -12.7770679901464    0.221369941572662    74.7166535561702     
85.5488006920319     0.223497390577785    74.60803711501       0.965043696761284    -12.9021326057821    0.965043696761284    -12.9021326057821    0.223497390577785    74.60803711501       
86.4162393903439     0.225643206608181    74.4981563783013     0.964520510668729    -13.0283397570133    0.964520510668729    -13.0283397570133    0.225643206608181    74.4981563783013     
87.2924736519981     0.227807487119539    74.387004241617      0.963987978153344    -13.1556975336344    0.963987978153344    -13.1556975336344    0.227807487119539    74.387004241617      
88.177592661319      0.22999032824661     74.2745736033147     0.963445940670966    -13.2842140138369    0.963445940670966    -13.2842140138369    0.22999032824661     74.2745736033147     
89.0716865069333     0.232191824736985    74.1608573670179     0.962894237522167    -13.4138972618027    0.962894237522167    -13.4138972618027    0.232191824736985    74.1608573670179     
89.9748461909384     0.234412069883354    74.0458484441693     0.962332705844934    -13.5447553252255    0.962332705844934    -13.5447553252255    0.234412069883354    74.0458484441693     
90.8871636381655     0.236651155454254    73.9295397566502     0.961761180608376    -13.6767962327658    0.961761180608376    -13.6767962327658    0.236651155454254    73.9295397566502     
91.8087317055354     0.23890917162326     73.8119242394735     0.96117949460743     -13.8100279914304    0.96117949460743     -13.8100279914304    0.23890917162326     73.8119242394735     
92.7396441915095     0.241186206896667    73.6929948435458     0.960587478458699    -13.9444585838836    0.960587478458699    -13.9444585838836    0.241186206896667    73.6929948435458     
93.6799958456374     0.243482348039578    73.5727445385046     0.959984960597331    -14.0800959656812    0.959984960597331    -14.0800959656812    0.243482348039578    73.5727445385046     
94.6298823781997     0.245797680000495    73.4511663156261     0.959371767275222    -14.2169480624338    0.959371767275222    -14.2169480624338    0.245797680000495    73.4511663156261     
95.5894004699503     0.248132285834307    73.3282531908098     0.958747722560311    -14.355022766893     0.958747722560311    -14.355022766893     0.248132285834307    73.3282531908098     
96.5586477819563     0.250486246623736    73.2039982076377     0.958112648337258    -14.4943279359617    0.958112648337258    -14.4943279359617    0.250486246623736    73.2039982076377     
97.537722965538      0.252859641399232    73.0783944405083     0.957466364309428    -14.6348713876285    0.957466364309428    -14.6348713876285    0.252859641399232    73.0783944405083     
98.5267256723103     0.255252547057303    72.9514349978494     0.956808688002329    -14.7766608978241    0.956808688002329    -14.7766608978241    0.255252547057303    72.9514349978494     
99.5257565643249     0.257665038277287    72.8231130254071     0.956139434768415    -14.9197041971989    0.956139434768415    -14.9197041971989    0.257665038277287    72.8231130254071     
100.534917324316     0.260097187436578    72.6934217096146     0.955458417793485    -15.0640089678223    0.955458417793485    -15.0640089678223    0.260097187436578    72.6934217096146     
101.554310666049     0.262549064524312    72.5623542810381     0.954765448104675    -15.2095828398013    0.954765448104675    -15.2095828398013    0.262549064524312    72.5623542810381     
102.584040344776     0.265020737053517    72.4299040179045     0.954060334579982    -15.3564333878201    0.954060334579982    -15.3564333878201    0.265020737053517    72.4299040179045     
103.624211167797     0.267512269971736    72.2960642497077     0.953342883959602    -15.5045681275969    0.953342883959602    -15.5045681275969    0.267512269971736    72.2960642497077     
104.674929005124     0.270023725570155    72.1608283608968     0.952612900858966    -15.6539945122613    0.952612900858966    -15.6539945122613    0.270023725570155    72.1608283608968     
105.736300800258     0.272555163391218    72.0241897946446     0.951870187783622    -15.8047199286481    0.951870187783622    -15.8047199286481    0.272555163391218    72.0241897946446     
106.808434581078     0.275106640134795    71.886142056698      0.951114545146014    -15.9567516935102    0.951114545146014    -15.9567516935102    0.275106640134795    71.886142056698      
107.891439470828     0.277678209562873    71.7466787193107     0.950345771284192    -16.110097049648     0.950345771284192    -16.110097049648     0.277678209562873    71.7466787193107     
108.985425699232     0.28026992240282     71.6057934252578     0.949563662482549    -16.2647631619558    0.949563662482549    -16.2647631619558    0.28026992240282     71.6057934252578     
110.090504613709     0.282881826249271    71.4634798919323     0.948768012994684    -16.4207571133864    0.948768012994684    -16.4207571133864    0.282881826249271    71.4634798919323     
111.206788690705     0.2855139654646      71.3197319155249     0.947958615068337    -16.5780859008311    0.947958615068337    -16.5780859008311    0.2855139654646      71.3197319155249     
112.334391547145     0.288166381078102    71.1745433752846     0.947135258972666    -16.7367564309183    0.947135258972666    -16.7367564309183    0.288166381078102    71.1745433752846     
113.473427951993     0.290839110683824    71.0279082378643     0.946297733027686    -16.8967755157273    0.946297733027686    -16.8967755157273    0.290839110683824    71.0279082378643     
114.624013837937     0.293532188337147    70.879820561746      0.945445823636143    -17.05814986842      0.945445823636143    -17.05814986842      0.293532188337147    70.879820561746      
115.786266313186     0.296245644450168    70.730274501749      0.944579315317819    -17.2208860987913    0.944579315317819    -17.2208860987913    0.296245644450168    70.730274501749      
116.96030367339      0.298979505685866    70.5792643136192     0.943697990746294    -17.3849907087351    0.943697990746294    -17.3849907087351    0.298979505685866    70.5792643136192     
118.146245413683     0.301733794851168    70.4267843587009     0.942801630788294    -17.5504700876298    0.942801630788294    -17.5504700876298    0.301733794851168    70.4267843587009     
119.344212240839     0.304508530788924    70.2728291086866     0.941890014545702    -17.7173305076433    0.941890014545702    -17.7173305076433    0.304508530788924    70.2728291086866     
120.554326085567     0.307303728268887    70.1173931504477     0.940962919400204    -17.8855781189562    0.940962919400204    -17.8855781189562    0.307303728268887    70.1173931504477     
121.776710114912     0.310119397877698    69.9604711909457     0.940020121060782    -18.0552189449063    0.940020121060782    -18.0552189449063    0.310119397877698    69.9604711909457     
123.011488744797     0.31295554590802     69.802058062218      0.939061393613983    -18.2262588770543    0.939061393613983    -18.2262588770543    0.31295554590802     69.802058062218      
124.258787652684     0.315812174246826    69.6421487264438     0.93808650957716     -18.3987036701722    0.93808650957716     -18.3987036701722    0.315812174246826    69.6421487264438     
125.518733790366     0.318689280262942    69.4807382810832     0.937095239954632    -18.5725589371552    0.937095239954632    -18.5725589371552    0.318689280262942    69.4807382810832     
126.791455396889     0.321586856693926    69.3178219640915     0.93608735429693     -18.7478301438587    0.93608735429693     -18.7478301438587    0.321586856693926    69.3178219640915     
128.077082011604     0.324504891532337    69.1533951592076     0.935062620763094    -18.9245226038615    0.935062620763094    -18.9245226038615    0.324504891532337    69.1533951592076     
129.375744487349     0.327443367911527    68.9874534013104     0.934020806186199    -19.1026414731581    0.934020806186199    -19.1026414731581    0.327443367911527    68.9874534013104     
130.687575003772     0.330402263991       68.8199923818483     0.932961676142075    -19.2821917447804    0.932961676142075    -19.2821917447804    0.330402263991       68.8199923818483     
132.012707080783     0.333381552841466    68.6510079543314     0.931884995021352    -19.4631782433516    0.931884995021352    -19.4631782433516    0.333381552841466    68.6510079543314     
133.351275592141     0.336381202329664    68.4804961398944     0.930790526104783    -19.645605619574     0.930790526104783    -19.645605619574     0.336381202329664    68.4804961398944     
134.703416779185     0.339401175003101    68.3084531329174     0.929678031642102    -19.8294783446539    0.929678031642102    -19.8294783446539    0.339401175003101    68.3084531329174     
136.069268264699     0.342441427974753    68.1348753067099     0.928547272934206    -20.0148007046649    0.928547272934206    -20.0148007046649    0.342441427974753    68.1348753067099     
137.448969066919     0.345501912807912    67.9597592192517     0.927398010418956    -20.2015767948526    0.927398010418956    -20.2015767948526    0.345501912807912    67.9597592192517     
138.842659613687     0.348582575401246    67.7831016189888     0.926230003760505    -20.3898105138846    0.926230003760505    -20.3898105138846    0.348582575401246    67.7831016189888     
140.250481756735     0.351683355874224    67.6048994506811     0.925043011942209    -20.5795055580471    0.925043011942209    -20.5795055580471    0.351683355874224    67.6048994506811     
141.672578786133     0.354804188453026    67.425149861299      0.923836793363275    -20.7706654153926    0.923836793363275    -20.7706654153926    0.354804188453026    67.425149861299      
143.109095444866     0.357945001357079    67.2438502059648     0.922611105939008    -20.9632933598412    0.922611105939008    -20.9632933598412    0.357945001357079    67.2438502059648     
144.56017794357      0.36110571668635     67.0609980539364     0.921365707204876    -21.1573924452409    0.921365707204876    -21.1573924452409    0.36110571668635     67.0609980539364     
146.025973975411     0.364286250309545    66.8765911946281     0.920100354424286    -21.352965499387     0.920100354424286    -21.352965499387     0.364286250309545    66.8765911946281     
147.506632731119     0.367486511753359    66.6906276436659     0.918814804700176    -21.5500151180098    0.918814804700176    -21.5500151180098    0.367486511753359    66.6906276436659     
149.002304914173     0.37070640409296     66.5031056489715     0.917508815090465    -21.7485436587299    0.917508815090465    -21.7485436587299    0.37070640409296     66.5031056489715     
150.513142756138     0.373945823843795    66.3140236968727     0.916182142727243    -21.9485532349883    0.916182142727243    -21.9485532349883    0.373945823843795    66.3140236968727     
152.039300032161     0.377204660854975    66.1233805182339     0.91483454493994     -22.1500457099558    0.91483454493994     -22.1500457099558    0.377204660854975    66.1233805182339     
153.580932076624     0.380482798204334    65.9311750946005     0.913465779382279    -22.3530226904253    0.913465779382279    -22.3530226904253    0.380482798204334    65.9311750946005     
155.138195798949     0.383780112095376    65.7374066643574     0.912075604163118    -22.5574855206934    0.912075604163118    -22.5574855206934    0.383780112095376    65.7374066643574     
156.711249699573     0.387096471756244    65.5420747288903     0.910663777981164    -22.7634352764346    0.910663777981164    -22.7634352764346    0.387096471756244    65.5420747288903     
158.300253886079     0.390431739340986    65.3451790587463     0.909230060263591    -22.970872758578     0.909230060263591    -22.970872758578     0.390431739340986    65.3451790587463     
159.905370089493     0.393785769833157    65.1467196997912     0.907774211308401    -23.1797984871853    0.907774211308401    -23.1797984871853    0.393785769833157    65.1467196997912     
161.526761680743     0.397158410952092    64.9466969793531     0.906295992430734    -23.3902126953424    0.906295992430734    -23.3902126953424    0.397158410952092    64.9466969793531     
163.164593687287     0.400549503061972    64.7451115123473     0.90479516611292     -23.6021153230691    0.90479516611292     -23.6021153230691    0.400549503061972    64.7451115123473     
164.819032809914     0.403958879083858    64.5419642073792     0.903271496158271    -23.815506011249     0.903271496158271    -23.815506011249     0.403958879083858    64.5419642073792     
166.490247439706     0.407386364410966    64.3372562728143     0.90172474784867     -24.0303840955931    0.90172474784867     -24.0303840955931    0.407386364410966    64.3372562728143     
168.17840767518      0.410831776827321    64.1309892228113     0.900154688105775    -24.2467486006385    0.900154688105775    -24.2467486006385    0.410831776827321    64.1309892228113     
169.883685339599     0.414294926430042    63.9231648833103     0.898561085655904    -24.4645982337918    0.898561085655904    -24.4645982337918    0.414294926430042    63.9231648833103     
171.606253998462     0.417775615555429    63.713785397968      0.896943711198392    -24.6839313794239    0.896943711198392    -24.6839313794239    0.417775615555429    63.713785397968      
173.34628897717      0.421273638709089    63.5028532340365     0.895302337577521    -24.9047460930223    0.895302337577521    -24.9047460930223    0.421273638709089    63.5028532340365     
175.103967378868     0.42478878250032     63.2903711881712     0.893636739957788    -25.1270400954107    0.893636739957788    -25.1270400954107    0.42478878250032     63.2903711881712     
176.879468102475     0.42832082558093     63.0763423921673     0.891946696002491    -25.3508107670422    0.891946696002491    -25.3508107670422    0.42832082558093     63.0763423921673     
178.672971860889     0.431869538588779    62.8607703186104     0.890231986055572    -25.5760551423756    0.890231986055572    -25.5760551423756    0.431869538588779    62.8607703186104     
180.484661199381     0.435434684096145    62.64365878644       0.88849239332648     -25.8027699043387    0.88849239332648     -25.8027699043387    0.435434684096145    62.64365878644       
182.314720514177     0.43901601656326     62.4250119664109     0.886727704078071    -26.0309513788931    0.886727704078071    -26.0309513788931    0.43901601656326     62.4250119664109     
184.163336071223     0.442613282297162    62.2048343864467     0.884937707817348    -26.2605955297057    0.884937707817348    -26.2605955297057    0.442613282297162    62.2048343864467     
186.030696025146     0.446226219416055    61.9831309368806     0.883122197488905    -26.4916979529323    0.883122197488905    -26.4916979529323    0.446226219416055    61.9831309368806     
187.916990438402     0.449854557819489    61.7599068755656     0.88128096967095     -26.7242538721312    0.88128096967095     -26.7242538721312    0.449854557819489    61.7599068755656     
189.822411300623     0.453498019164452    61.5351678328558     0.879413824773717    -26.9582581333039    0.879413824773717    -26.9582581333039    0.453498019164452    61.5351678328558     
191.747152548158     0.457156316847686    61.3089198164422     0.877520567240128    -27.193705200082     0.877520567240128    -27.193705200082     0.457156316847686    61.3089198164422     
193.691410083809     0.460829155994393    61.0811692160359     0.875601005748532    -27.4305891490641    0.875601005748532    -27.4305891490641    0.460829155994393    61.0811692160359     
195.655381796776     0.464516233453522    60.851922807892      0.873654953417276    -27.6689036653129    0.873654953417276    -27.6689036653129    0.464516233453522    60.851922807892      
197.63926758279      0.468217237799877    60.621187759161      0.871682228010986    -27.9086420380223    0.871682228010986    -27.9086420380223    0.468217237799877    60.621187759161      
199.64326936447      0.471931849343198    60.3889716320627     0.86968265214828     -28.1497971563625    0.86968265214828     -28.1497971563625    0.471931849343198    60.3889716320627     
201.667591111863     0.475659740144495    60.1552823878658     0.867656053510789    -28.3923615055172    0.867656053510789    -28.3923615055172    0.475659740144495    60.1552823878658     
203.712438863213     0.479400574039678    59.9201283906755     0.86560226505309     -28.6363271629131    0.86560226505309     -28.6363271629131    0.479400574039678    59.9201283906755     
205.778020745928     0.483154006670792    59.6835184110081     0.863521125213506    -28.88168579466      0.863521125213506    -28.88168579466      0.483154006670792    59.6835184110081     
207.864546997765     0.486919685525017    59.4454616291481     0.861412478125411    -29.1284286522093    0.861412478125411    -29.1284286522093    0.486919685525017    59.4454616291481     
209.972229988226     0.490697249981485    59.2059676382821     0.859276173828778    -29.3765465692331    0.859276173828778    -29.3765465692331    0.490697249981485    59.2059676382821     
212.101284240177     0.494486331366238    58.9650464473918     0.857112068481741    -29.6260299587441    0.857112068481741    -29.6260299587441    0.494486331366238    58.9650464473918     
214.251926451679     0.498286553015346    58.7227084839036     0.85492002457191     -29.8768688104573    0.85492002457191     -29.8768688104573    0.498286553015346    58.7227084839036     
216.424375518044     0.502097530346372    58.4789645960843     0.852699911127061    -30.1290526884053    0.852699911127061    -30.1290526884053    0.502097530346372    58.4789645960843     
218.618852554118     0.505918870938349    58.2338260551703     0.85045160392506     -30.3825707288184    0.85045160392506     -30.3825707288184    0.505918870938349    58.2338260551703     
220.835580916784     0.509750174620314    57.987304557226      0.848174985702531    -30.637411638275     0.848174985702531    -30.637411638275     0.509750174620314    57.987304557226      
223.074786227692     0.51359103356856     57.7394122247191     0.845869946362133    -30.8935636921329    0.845869946362133    -30.8935636921329    0.51359103356856     57.7394122247191     
225.336696396231     0.51744103241269     57.4901616078073     0.843536383178012    -31.1510147332503    0.843536383178012    -31.1510147332503    0.51744103241269     57.4901616078073     
227.621541642718     0.521299748350536    57.2395656853244     0.841174200999119    -31.4097521710034    0.841174200999119    -31.4097521710034    0.521299748350536    57.2395656853244     
229.929554521836     0.525166751272049    56.9876378654599     0.838783312450178    -31.6697629806114    0.838783312450178    -31.6697629806114    0.525166751272049    56.9876378654599     
232.260969946301     0.529041603892152    56.7343919861258     0.836363638129754    -31.9310337027731    0.836363638129754    -31.9310337027731    0.529041603892152    56.7343919861258     
234.616025210772     0.532923861892695    56.4798423149964     0.833915106805296    -32.1935504436277    0.833915106805296    -32.1935504436277    0.532923861892695    56.4798423149964     
236.994960016002     0.536813074073419    56.2240035492227     0.831437655604689    -32.4572988750411    0.831437655604689    -32.4572988750411    0.536813074073419    56.2240035492227     
239.398016493239     0.540708782512034    55.9668908148074     0.828931230203971    -32.7222642352309    0.828931230203971    -32.7222642352309    0.540708782512034    55.9668908148074     
241.825439228865     0.544610522733343    55.7085196656366     0.826395785010884    -32.9884313297312    0.826395785010884    -32.9884313297312    0.544610522733343    55.7085196656366     
244.277475289295     0.548517823887444    55.4489060821602     0.823831283343938    -33.2557845327094    0.823831283343938    -33.2557845327094    0.548517823887444    55.4489060821602     
246.754374246122     0.552430208936905    55.1880664697192     0.821237697606579    -33.5243077886345    0.821237697606579    -33.5243077886345    0.552430208936905    55.1880664697192     
249.256388201518     0.556347194852899    54.9260176565078     0.818615009456086    -33.7939846143073    0.818615009456086    -33.7939846143073    0.556347194852899    54.9260176565078     
251.783771813895     0.560268292820204    54.6627768911728     0.815963209966932    -34.0647981012552    0.815963209966932    -34.0647981012552    0.560268292820204    54.6627768911728     
254.336782323821     0.564193008451004    54.3983618400371     0.813282299788155    -34.3367309184985    0.813282299788155    -34.3367309184985    0.564193008451004    54.3983618400371     
256.915679580208     0.568120842007322    54.1327905839513     0.810572289294454    -34.6097653156888    0.810572289294454    -34.6097653156888    0.568120842007322    54.1327905839513     
259.520726066753     0.572051288631981    53.8660816147654     0.807833198730609    -34.8838831266242    0.807833198730609    -34.8838831266242    0.572051288631981    53.8660816147654     
262.152186928663     0.575983838587984    53.598253831417      0.805065058348898    -35.1590657731487    0.805065058348898    -35.1590657731487    0.575983838587984    53.598253831417      
264.81032999963      0.579917977506073    53.3293265356359     0.802267908539211    -35.4352942694316    0.802267908539211    -35.4352942694316    0.579917977506073    53.3293265356359     
267.495425829101     0.5838531866403      53.0593194272627     0.799441799951415    -35.7125492266321    0.799441799951415    -35.7125492266321    0.5838531866403      53.0593194272627     
270.207747709812     0.587788943131443    52.7882525991777     0.796586793609768    -35.9908108579521    0.796586793609768    -35.9908108579521    0.587788943131443    52.7882525991777     
272.947571705604     0.591724720277996    52.5161465318403     0.79370296101899     -36.2700589840759    0.79370296101899     -36.2700589840759    0.591724720277996    52.5161465318403     
275.715176679519     0.59565998781448     52.2430220874429     0.790790384261645    -36.5502730389946    0.790790384261645    -36.5502730389946    0.59565998781448     52.2430220874429     
278.510844322187     0.599594212196843    51.9689005036728     0.787849156086617    -36.8314320762202    0.787849156086617    -36.8314320762202    0.599594212196843    51.9689005036728     
281.334859180494     0.603526856894672    51.6938033870864     0.784879379988343    -37.1135147753854    0.784879379988343    -37.1135147753854    0.603526856894672    51.6938033870864     
284.187508686545     0.607457382689859    51.4177527061004     0.781881170276478    -37.3964994492247    0.781881170276478    -37.3964994492247    0.607457382689859    51.4177527061004     
287.069083186917     0.61138524798144     51.1407707835978     0.778854652135817    -37.6803640509384    0.778854652135817    -37.6803640509384    0.61138524798144     51.1407707835978     
289.979875972215     0.615309909096305    50.8628802891536     0.775799961676148    -37.9650861819354    0.775799961676148    -37.9650861819354    0.615309909096305    50.8628802891536     
292.920183306921     0.619230820605314    50.5841042308861     0.772717245971798    -38.250643099948     0.772717245971798    -38.250643099948     0.619230820605314    50.5841042308861     
295.890304459545     0.623147435644632    50.3044659469308     0.769606663090703    -38.5370117275211    0.769606663090703    -38.5370117275211    0.623147435644632    50.3044659469308     
298.890541733093     0.627059206241643    50.0239890965565     0.766468382112713    -38.8241686608588    0.766468382112713    -38.8241686608588    0.627059206241643    50.0239890965565     
301.921200495828     0.6309655836453      49.7426976509121     0.763302583137049    -39.1120901790361    0.763302583137049    -39.1120901790361    0.6309655836453      49.7426976509121     
304.982589212353     0.634866018660331    49.4606158834231     0.760109457278584    -39.4007522535597    0.760109457278584    -39.4007522535597    0.634866018660331    49.4606158834231     
308.075019475012     0.638759961984904    49.1777683598414     0.756889206652973    -39.6901305582728    0.756889206652973    -39.6901305582728    0.638759961984904    49.1777683598414     
311.198806035597     0.642646864551366    48.8941799279529     0.753642044350334    -39.9802004795986    0.753642044350334    -39.9802004795986    0.642646864551366    48.8941799279529     
314.354266837386     0.646526177869514    48.6098757069587     0.750368194397524    -40.2709371271102    0.750368194397524    -40.2709371271102    0.646526177869514    48.6098757069587     
317.541723047507     0.650397354372016    48.3248810765309     0.747067891708741    -40.5623153444194    0.747067891708741    -40.5623153444194    0.650397354372016    48.3248810765309     
320.761499089625     0.654259847761454    48.0392216655587     0.743741382024544    -40.8543097203758    0.743741382024544    -40.8543097203758    0.654259847761454    48.0392216655587     
324.013922676959     0.658113113358521    47.7529233405954     0.740388921839125    -41.1468946005604    0.740388921839125    -41.1468946005604    0.658113113358521    47.7529233405954     
327.299324845643     0.661956608450876    47.466012194013      0.737010778315893    -41.4400440990694    0.737010778315893    -41.4400440990694    0.661956608450876    47.466012194013      
330.618039988414     0.665789792642197    47.1785145318788     0.733607229191273    -41.7337321105715    0.733607229191273    -41.7337321105715    0.665789792642197    47.1785145318788     
333.970405888649     0.669612128200878    46.8904568615693     0.730178562666843    -42.0279323226277    0.730178562666843    -42.0279323226277    0.669612128200878    46.8904568615693     
337.356763754748     0.673423080407888    46.6018658791271     0.726725077289731    -42.3226182282609    0.726725077289731    -42.3226182282609    0.673423080407888    46.6018658791271     
340.777458254857     0.677222117903261    46.3127684563855     0.723247081821484    -42.6177631387582    0.723247081821484    -42.6177631387582    0.677222117903261    46.3127684563855     
344.232837551954     0.681008713030794    46.0231916278586     0.719744895095341    -42.9133401967015    0.719744895095341    -42.9133401967015    0.681008713030794    46.0231916278586     
347.72325333928      0.684782342180304    45.7331625774285     0.716218845862149    -43.209322389199     0.716218845862149    -43.209322389199     0.684782342180304    45.7331625774285     
351.249060876142     0.688542486127038    45.442708624834      0.712669272624989    -43.5056825613102    0.712669272624989    -43.5056825613102    0.688542486127038    45.442708624834      
354.810619024065     0.692288630367724    45.1518572119773     0.709096523462692    -43.802393429651     0.709096523462692    -43.802393429651     0.692288630367724    45.1518572119773     
358.408290283321     0.696020265452681    44.860635889069      0.705500955842421    -44.0994275961537    0.705500955842421    -44.0994275961537    0.696020265452681    44.860635889069      
362.042440829824     0.699736887313613    44.5690723006217     0.701882936421564    -44.3967575619766    0.701882936421564    -44.3967575619766    0.699736887313613    44.5690723006217     
365.7134405524       0.70343799758645     44.2771941713161     0.6982428408391      -44.6943557415366    0.6982428408391      -44.6943557415366    0.70343799758645     44.2771941713161     
369.421663090434     0.707123103928949    43.9850292917434     0.694581053496715    -44.9921944766597    0.694581053496715    -44.9921944766597    0.707123103928949    43.9850292917434     
373.167485871901     0.710791720332331    43.69260550406       0.690897967329985    -45.2902460508156    0.690897967329985    -45.2902460508156    0.710791720332331    43.69260550406       
376.951290151781     0.714443367426724    43.3999506875533     0.687193983569884    -45.5884827034365    0.687193983569884    -45.5884827034365    0.714443367426724    43.3999506875533     
380.773461050862     0.71807757277983     43.1070927441466     0.683469511494858    -45.8868766442915    0.683469511494858    -45.8868766442915    0.71807757277983     43.1070927441466     
384.634387594937     0.721693871188406    42.8140595838588     0.67972496817396     -46.185400067902     0.67972496817396     -46.185400067902     0.721693871188406    42.8140595838588     
388.534462754407     0.725291804962147    42.520879110233      0.675960778201254    -46.4840251679808    0.675960778201254    -46.4840251679808    0.725291804962147    42.520879110233      
392.474083484268     0.728870924199549    42.2275792057574     0.672177373421928    -46.7827241518765    0.672177373421928    -46.7827241518765    0.728870924199549    42.2275792057574     
396.45365076452      0.732430787055353    41.9341877172916     0.668375192650459    -47.0814692550039    0.668375192650459    -47.0814692550039    0.732430787055353    41.9341877172916     
400.473569640978     0.735970959999219    41.6407324415175     0.664554681381323    -47.3802327552454    0.664554681381323    -47.3802327552454    0.735970959999219    41.6407324415175     
404.534249266497     0.739491018065249    41.3472411104332     0.660716291492509    -47.6789869873039    0.660716291492509    -47.6789869873039    0.739491018065249    41.3472411104332     
408.636102942619     0.742990545092006    41.0537413769074     0.656860480942459    -47.9777043569867    0.656860480942459    -47.9777043569867    0.742990545092006    41.0537413769074     
412.779548161633     0.746469133952772    40.7602608003094     0.652987713460699    -48.27635735541      0.652987713460699    -48.27635735541      0.746469133952772    40.7602608003094     
416.965006649078     0.749926386775668    40.4668268322344     0.649098458232768    -48.574918573098     0.649098458232768    -48.574918573098     0.749926386775668    40.4668268322344     
421.192904406656     0.753361915153378    40.1734668023442     0.645193189579799    -48.8733607139636    0.645193189579799    -48.8733607139636    0.753361915153378    40.1734668023442     
425.463671755599     0.7567753403423      39.8802079043288     0.641272386633281    -49.1716566091558    0.641272386633281    -49.1716566091558    0.7567753403423      39.8802079043288     
429.777743380464     0.760166293450766    39.5870771820191     0.637336533005471    -49.4697792307536    0.637336533005471    -49.4697792307536    0.760166293450766    39.5870771820191     
434.135558373378     0.763534415616205    39.294101515659      0.633386116455956    -49.7677017052881    0.633386116455956    -49.7677017052881    0.763534415616205    39.294101515659      
438.537560278723     0.766879358171019    39.0013076083553     0.629421628554864    -50.0653973270818    0.629421628554864    -50.0653973270818    0.766879358171019    39.0013076083553     
442.984197138292     0.770200782797087    38.7087219727142     0.625443564343164    -50.3628395713903    0.625443564343164    -50.3628395713903    0.770200782797087    38.7087219727142     
447.475921536881     0.773498361668594    38.4163709176952     0.621452421990649    -50.6600021073195    0.621452421990649    -50.6600021073195    0.773498361668594    38.4163709176952     
452.01319064836      0.776771777583264    38.1242805356772     0.617448702452038    -50.9568588105193    0.617448702452038    -50.9568588105193    0.776771777583264    38.1242805356772     
456.596466282198     0.780020724081772    37.8324766897653     0.613432909121711    -51.2533837756299    0.613432909121711    -51.2533837756299    0.780020724081772    37.8324766897653     
461.226214930476     0.783244905555292    37.5409850013462     0.609405547487595    -51.5495513284655    0.609405547487595    -51.5495513284655    0.783244905555292    37.5409850013462     
465.902907815358     0.786444037341189    37.2498308379045     0.605367124784696    -51.8453360379305    0.605367124784696    -51.8453360379305    0.786444037341189    37.2498308379045     
470.627020937061     0.78961784580676     36.9590393011153     0.601318149648746    -52.1407127276454    0.601318149648746    -52.1407127276454    0.78961784580676     36.9590393011153     
475.399035122295     0.792766068421074    36.6686352152227     0.597259131770494    -52.4356564872776    0.597259131770494    -52.4356564872776    0.792766068421074    36.6686352152227     
480.219436073207     0.79588845381495     36.3786431157141     0.59319058155108     -52.7301426835634    0.59319058155108     -52.7301426835634    0.79588845381495     36.3786431157141     
485.088714416817     0.798984761829048    36.0890872383065     0.589113009759021    -53.0241469710057    0.589113009759021    -53.0241469710057    0.798984761829048    36.0890872383065     
490.007365754951     0.802054763550232    35.7999915082478     0.585026927189224    -53.3176453022445    0.585026927189224    -53.3176453022445    0.802054763550232    35.7999915082478     
494.975890714686     0.805098241336252    35.5113795299464     0.580932844324524    -53.6106139380848    0.580932844324524    -53.6106139380848    0.805098241336252    35.5113795299464     
499.994794999307     0.808114988828841    35.2232745769384     0.576831271000169    -53.9030294571739    0.576831271000169    -53.9030294571739    0.808114988828841    35.2232745769384     
505.064589439772     0.81110481095542     34.9356995821965     0.572722716071691    -54.1948687653215    0.572722716071691    -54.1948687653215    0.81110481095542     34.9356995821965     
510.185790046714     0.814067523919496    34.6486771287932     0.56860768708661     -54.4861091044514    0.56860768708661     -54.4861091044514    0.814067523919496    34.6486771287932     
515.358918062951     0.817002955180004    34.3622294409185     0.564486689960352    -54.776728061181     0.564486689960352    -54.776728061181     0.817002955180004    34.3622294409185     
520.584500016547     0.819910943419686    34.0763783752651     0.560360228656807    -55.066703575019     0.560360228656807    -55.066703575019     0.819910943419686    34.0763783752651     
525.863067774398     0.822791338502837    33.7911454127793     0.556228804873837    -55.3560139461784    0.556228804873837    -55.3560139461784    0.822791338502837    33.7911454127793     
531.195158596369     0.825644001422515    33.5065516507897     0.55209291773424     -55.6446378429947    0.55209291773424     -55.6446378429947    0.825644001422515    33.5065516507897     
536.581315189975     0.828468804237588    33.2226177955078     0.547953063482348    -55.9325543089523    0.547953063482348    -55.9325543089523    0.828468804237588    33.2226177955078     
542.02208576562      0.831265629999739    32.939364154916      0.543809735186724    -56.2197427693048    0.543809735186724    -56.2197427693048    0.831265629999739    32.939364154916      
547.518024092395     0.834034372670833    32.6568106320318     0.539663422449229    -56.5061830372984    0.539663422449229    -56.5061830372984    0.834034372670833    32.6568106320318     
553.069689554437     0.836774937030828    32.3749767185628     0.535514611120708    -56.791855319982     0.535514611120708    -56.791855319982     0.836774937030828    32.3749767185628     
558.677647207871     0.839487238576559    32.093881488945      0.531363783023694    -57.0767402236129    0.531363783023694    -57.0767402236129    0.839487238576559    32.093881488945      
564.342467838315     0.84217120341175     31.8135435947662     0.527211415682246    -57.360818758652     0.527211415682246    -57.360818758652     0.84217120341175     31.8135435947662     
570.064728018983     0.844826768128474    31.5339812595799     0.523057982059276    -57.6440723443468    0.523057982059276    -57.6440723443468    0.844826768128474    31.5339812595799     
575.845010169361     0.847453879680462    31.2552122741024     0.518903950301567    -57.9264828129019    0.518903950301567    -57.9264828129019    0.847453879680462    31.2552122741024     
581.683902614493     0.850052495248585    30.9772539917938     0.51474978349262     -58.2080324132415    0.51474978349262     -58.2080324132415    0.850052495248585    30.9772539917938     
587.581999644858     0.852622582098807    30.7001233248231     0.510595939413608    -58.4887038143578    0.510595939413608    -58.4887038143578    0.852622582098807    30.7001233248231     
593.53990157686      0.855164117432999    30.423836740413      0.506442870312565    -58.7684801082513    0.506442870312565    -58.7684801082513    0.855164117432999    30.423836740413      
599.558214813928     0.857677088232953    30.1484102575599     0.502291022681936    -59.0473448124636    0.502291022681936    -59.0473448124636    0.857677088232953    30.1484102575599     
605.637551908234     0.860161491097931    29.8738594441295     0.498140837044673    -59.3252818722031    0.498140837044673    -59.3252818722031    0.860161491097931    29.8738594441295     
611.778531623045     0.862617332076137    29.6001994143202     0.493992747748918    -59.6022756620691    0.493992747748918    -59.6022756620691    0.862617332076137    29.6001994143202     
617.981778995697     0.865044626490454    29.3274448264904     0.489847182771457    -59.8783109873746    0.489847182771457    -59.8783109873746    0.865044626490454    29.3274448264904     
624.247925401213     0.867443398758797    29.0556098813489     0.485704563529931    -60.1533730850702    0.485704563529931    -60.1533730850702    0.867443398758797    29.0556098813489     
630.577608616567     0.869813682209484    28.784708320494      0.481565304703925    -60.4274476242802    0.481565304703925    -60.4274476242802    0.869813682209484    28.784708320494      
636.971472885596     0.872155518891916    28.5147534253058     0.477429814064936    -60.7005207064414    0.477429814064936    -60.7005207064414    0.872155518891916    28.5147534253058     
643.430168984573     0.874468959383013    28.2457580161766     0.473298492315299    -60.9725788650641    0.473298492315299    -60.9725788650641    0.874468959383013    28.2457580161766     
649.954354288443     0.876754062589683    27.9777344520788     0.469171732935978    -61.243609065108     0.469171732935978    -61.243609065108     0.876754062589683    27.9777344520788     
656.544692837733     0.879010895547719    27.7106946304596     0.465049922043341    -61.5135987019829    0.465049922043341    -61.5135987019829    0.879010895547719    27.7106946304596     
663.201855406137     0.881239533217463    27.4446499874574     0.4609334382548      -61.7825356001792    0.4609334382548      -61.7825356001792    0.881239533217463    27.4446499874574     
669.92651956879      0.883440058276596    27.1796114984305     0.456822652563301    -62.0504080115319    0.456822652563301    -62.0504080115319    0.883440058276596    27.1796114984305     
676.719369771231     0.885612560910365    26.9155896787915     0.452717928220648    -62.3172046131232    0.452717928220648    -62.3172046131232    0.885612560910365    26.9155896787915     
683.581097399069     0.887757138599614    26.6525945851376     0.448619620629527    -62.5829145048316    0.448619620629527    -62.5829145048316    0.887757138599614    26.6525945851376     
690.512400848351     0.889873895906914    26.3906358166721     0.444528077244225    -62.8475272065271    0.444528077244225    -62.8475272065271    0.889873895906914    26.3906358166721     
697.513985596645     0.891962944261152    26.1297225169027     0.440443637479876    -63.111032654925     0.440443637479876    -63.111032654925     0.891962944261152    26.1297225169027     
704.586564274849     0.894024401740848    25.8698633756133     0.436366632630202    -63.373421200098     0.436366632630202    -63.373421200098     0.894024401740848    25.8698633756133     
711.730856739719     0.896058392856557    25.6110666310965     0.432297385793565    -63.6346836016552    0.432297385793565    -63.6346836016552    0.896058392856557    25.6110666310965     
718.947590147139     0.898065048332587    25.3533400726417     0.428236211807262    -63.8948110245901    0.428236211807262    -63.8948110245901    0.898065048332587    25.3533400726417     
726.237499026128     0.900044504888407    25.0966910432639     0.424183417189878    -64.1537950348063    0.424183417189878    -64.1537950348063    0.900044504888407    25.0966910432639     
733.601325353612     0.901996905019948    24.8411264426698     0.420139300091585    -64.4116275943231    0.420139300091585    -64.4116275943231    0.901996905019948    24.8411264426698     
741.03981862993      0.9039223967811      24.5866527304488     0.416104150252218    -64.6683010561661    0.416104150252218    -64.6683010561661    0.9039223967811      24.5866527304488     
748.553735955127     0.905821133565678    24.3332759294797     0.412078248966961    -64.9238081589467    0.412078248966961    -64.9238081589467    0.905821133565678    24.3332759294797     
756.143842106014     0.907693273890092    24.0810016295441     0.408061869059482    -65.1781420211376    0.408061869059482    -65.1781420211376    0.907693273890092    24.0810016295441     
763.810909614001     0.909538981176965    23.8298349911375     0.404055274862328    -65.4312961350434    0.404055274862328    -65.4312961350434    0.909538981176965    23.8298349911375     
771.555718843732     0.911358423539924    23.5797807494675     0.400058722204417    -65.6832643604732    0.400058722204417    -65.6832643604732    0.911358423539924    23.5797807494675     
779.379058072512     0.913151773569814    23.3308432186313     0.396072458405408    -65.9340409181169    0.396072458405408    -65.9340409181169    0.913151773569814    23.3308432186313     
787.281723570534     0.914919208122501    23.0830262959624     0.392096722276792    -66.1836203826271    0.392096722276792    -66.1836203826271    0.914919208122501    23.0830262959624     
795.26451968193      0.916660908108514    22.8363334665357     0.388131744129456    -66.4319976754094    0.388131744129456    -66.4319976754094    0.916660908108514    22.8363334665357     
803.328258906632     0.918377058284669    22.5907678078254     0.384177745787585    -66.6791680571232    0.384177745787585    -66.6791680571232    0.918377058284669    22.5907678078254     
811.473761983079     0.920067847047899    22.3463319945033     0.380234940608634    -66.9251271198911    0.380234940608634    -66.9251271198911    0.920067847047899    22.3463319945033     
819.701857971741     0.921733466231423    22.1030283033701     0.376303533509189    -67.1698707792191    0.376303533509189    -67.1698707792191    0.921733466231423    22.1030283033701     
828.013384339512     0.923374110903438    21.8608586184096     0.372383720996525    -67.4133952656278    0.372383720996525    -67.4133952656278    0.923374110903438    21.8608586184096     
836.409187044941     0.924989979168476    21.6198244359595     0.368475691205605    -67.6556971159895    0.368475691205605    -67.6556971159895    0.924989979168476    21.6198244359595     
844.890120624342     0.926581271971561    21.379926869987      0.364579623941364    -67.8967731645731    0.364579623941364    -67.8967731645731    0.926581271971561    21.379926869987      
853.457048278762     0.928148192905292    21.1411666574638     0.360695690726007    -68.1366205337902    0.360695690726007    -68.1366205337902    0.928148192905292    21.1411666574638     
862.110841961847     0.929690948020006    20.9035441638288     0.35682405485116     -68.3752366246409    0.35682405485116     -68.3752366246409    0.929690948020006    20.9035441638288     
870.852382468584     0.93120974563706     20.6670593885345     0.352964871434625    -68.6126191068502    0.352964871434625    -68.6126191068502    0.93120974563706     20.6670593885345     
879.682559524951     0.932704796165417    20.4317119706658     0.349118287481546    -68.8487659086934    0.349118287481546    -68.8487659086934    0.932704796165417    20.4317119706658     
888.602271878478     0.934176311921566    20.1975011946241     0.345284441949772    -69.0836752064994    0.345284441949772    -69.0836752064994    0.934176311921566    20.1975011946241     
897.612427389719     0.93562450695288     19.9644259958707     0.341463465819199    -69.3173454138218    0.341463465819199    -69.3173454138218    0.93562450695288     19.9644259958707     
906.713943124658     0.937049596864494    19.7324849667205     0.337655482164909    -69.5497751702717    0.337655482164909    -69.5497751702717    0.937049596864494    19.7324849667205     
915.907745448045     0.93845179864975     19.5016763621793     0.333860606233861    -69.7809633299957    0.333860606233861    -69.7809633299957    0.93845179864975     19.5016763621793     
925.19477011769      0.939831330524275    19.2719981058183     0.330078945524983    -70.0109089497868    0.330078945524983    -70.0109089497868    0.939831330524275    19.2719981058183     
934.575962379696     0.941188411763746    19.043447795678      0.326310599872408    -70.2396112768135    0.326310599872408    -70.2396112768135    0.941188411763746    19.043447795678      
944.052277064676     0.942523262545372    18.8160227101951     0.322555661531721    -70.4670697359491    0.322555661531721    -70.4670697359491    0.942523262545372    18.8160227101951     
953.624678684934     0.943836103793142    18.5897198141473     0.318814215268969    -70.693283916679     0.318814215268969    -70.693283916679     0.943836103793142    18.5897198141473     
963.294141532632     0.945127157026831    18.3645357646095     0.31508633845227     -70.9182535595679    0.31508633845227     -70.9182535595679    0.945127157026831    18.3645357646095     
973.061649778957     0.946396644214837    18.1404669169127     0.311372101145853    -71.1419785422611    0.311372101145853    -71.1419785422611    0.946396644214837    18.1404669169127     
982.928197574294     0.947644787630809    17.9175093306048     0.307671566206304    -71.3644588649898    0.307671566206304    -71.3644588649898    0.947644787630809    17.9175093306048     
992.894789149405     0.948871809714106    17.6956587754042     0.303984789380893    -71.5856946355537    0.303984789380893    -71.5856946355537    0.948871809714106    17.6956587754042     
1002.96243891765     0.950077932934077    17.4749107371411     0.300311819407754    -71.8056860537484    0.300311819407754    -71.8056860537484    0.950077932934077    17.4749107371411     
1013.13217157822     0.951263379658142    17.2552604236849     0.296652698117811    -72.0244333951952    0.296652698117811    -72.0244333951952    0.951263379658142    17.2552604236849     
1023.40502222046     0.952428372023695    17.0367027708474     0.293007460538226    -72.2419369945404    0.293007460538226    -72.2419369945404    0.952428372023695    17.0367027708474     
1033.78203642919     0.953573131813771    16.8192324482627     0.28937613499727     -72.4581972279725    0.28937613499727     -72.4581972279725    0.953573131813771    16.8192324482627     
1044.26427039114     0.954697880336503    16.6028438652358     0.28575874323041     -72.6732144950133    0.28575874323041     -72.6732144950133    0.954697880336503    16.6028438652358     
1054.85279100247     0.955802838308294    16.3875311765564     0.282155300487494    -72.8869891995267    0.282155300487494    -72.8869891995267    0.955802838308294    16.3875311765564     
1065.54867597732     0.956888225740706    16.1732882882758     0.278565815640895    -73.0995217298844    0.278565815640895    -73.0995217298844    0.956888225740706    16.1732882882758     
1076.35301395752     0.95795426183103     15.9601088634406     0.274990291294453    -73.3108124382279    0.274990291294453    -73.3108124382279    0.95795426183103     15.9601088634406     
1087.26690462342     0.959001164856471    15.747986327782      0.271428723893094    -73.5208616187483    0.271428723893094    -73.5208616187483    0.959001164856471    15.747986327782      
1098.29145880577     0.960029152071944    15.5369138753545     0.267881103833005    -73.7296694849129    0.267881103833005    -73.7296694849129    0.960029152071944    15.5369138753545     
1109.42779859881     0.961038439611397    15.3268844741241     0.264347415572229    -73.9372361455455    0.264347415572229    -73.9372361455455    0.961038439611397    15.3268844741241     
1120.67705747448     0.962029242392648    15.1178908715013     0.260827637741574    -74.1435615796678    0.260827637741574    -74.1435615796678    0.962029242392648    15.1178908715013     
1132.04038039777     0.963001774025653    14.9099255998153     0.257321743255702    -74.3486456099982    0.257321743255702    -74.3486456099982    0.963001774025653    14.9099255998153     
1143.51892394327     0.963956246724169    14.7029809817291     0.253829699424333    -74.5524878749913    0.253829699424333    -74.5524878749913    0.963956246724169    14.7029809817291     
1155.11385641289     0.964892871220749    14.4970491355913     0.250351468063413    -74.755087799291     0.250351468063413    -74.755087799291     0.964892871220749    14.4970491355913     
1166.82635795474     0.965811856685011    14.2921219807229     0.246887005606187    -74.9564445624581    0.246887005606187    -74.9564445624581    0.965811856685011    14.2921219807229     
1178.6576206833      0.966713410645123    14.0881912426379     0.243436263214055    -75.1565570658196    0.243436263214055    -75.1565570658196    0.966713410645123    14.0881912426379     
1190.6088488007      0.967597738912427    13.8852484581932     0.239999186887163    -75.3554238972664    0.239999186887163    -75.3554238972664    0.967597738912427    13.8852484581932     
1202.68125871935     0.968465045509151    13.6832849806707     0.236575717574605    -75.5530432938146    0.236575717574605    -75.5530432938146    0.968465045509151    13.6832849806707     
1214.87607918566     0.969315532599149    13.4822919847844     0.233165791284193    -75.7494131017228    0.233165791284193    -75.7494131017228    0.969315532599149    13.4822919847844     
1227.19455140519     0.970149400421576    13.2822604716163     0.229769339191704    -75.9445307339331    0.229769339191704    -75.9445307339331    0.970149400421576    13.2822604716163     
1239.63792916894     0.970966847227459    13.0831812734759     0.22638628774956     -76.1383931245848    0.22638628774956     -76.1383931245848    0.970966847227459    13.0831812734759     
1252.20747898096     0.97176806921906     12.8850450586854     0.223016558794859    -76.330996680317     0.223016558794859    -76.330996680317     0.97176806921906     12.8850450586854     
1264.90448018725     0.972553260492015    12.687842336286      0.219660069656707    -76.5223372280487    0.219660069656707    -76.5223372280487    0.972553260492015    12.687842336286      
1277.73022510602     0.973322612980106    12.4915634606689     0.216316733262819    -76.7124099588856    0.216316733262819    -76.7124099588856    0.973322612980106    12.4915634606689     
1290.68601915917     0.974076316402662    12.2961986361255     0.212986458245314    -76.901209367771     0.212986458245314    -76.901209367771     0.974076316402662    12.2961986361255     
1303.77318100519     0.974814558214479    12.1017379213213     0.209669149045708    -77.088729188445     0.209669149045708    -77.088729188445     0.974814558214479    12.1017379213213     
1316.99304267334     0.975537523558192    11.9081712336882     0.206364706019013    -77.2749623232349    0.206364706019013    -77.2749623232349    0.975537523558192    11.9081712336882     
1330.34694969929     0.97624539521904     11.7154883537381     0.20307302553698     -77.4599007671347    0.20307302553698     -77.4599007671347    0.97624539521904     11.7154883537381     
1343.83626126199     0.976938353581947    11.5236789292961     0.199794000090403    -77.6435355255767    0.199794000090403    -77.6435355255767    0.976938353581947    11.5236789292961     
1357.46235032208     0.977616576590834    11.3327324796543     0.196527518390522    -77.825856525216     0.196527518390522    -77.825856525216     0.977616576590834    11.3327324796543     
1371.22660376159     0.978280239710113    11.142638399645      0.193273465469461    -78.0068525169734    0.193273465469461    -78.0068525169734    0.978280239710113    11.142638399645      
1385.1304225251      0.978929515888271    10.9533859636339     0.190031722779753    -78.1865109704847    0.190031722779753    -78.1865109704847    0.978929515888271    10.9533859636339     
1399.17522176236     0.9795645755235      10.7649643294342     0.186802168292902    -78.3648179589952    0.186802168292902    -78.3648179589952    0.9795645755235      10.7649643294342     
1413.36243097228     0.980185586431272    10.5773625421392     0.183584676597032    -78.5417580336205    0.183584676597032    -78.5417580336205    0.980185586431272    10.5773625421392     
1427.69349414848     0.980792713813809    10.3905695378784     0.180379118993615    -78.717314085745     0.180379118993615    -78.717314085745     0.980792713813809    10.3905695378784     
1442.16986992622     0.981386120231378    10.2045741474937     0.177185363593333    -78.8914671961756    0.177185363593333    -78.8914671961756    0.981386120231378    10.2045741474937     
1456.79303173088     0.981965965575342    10.0193651001358     0.174003275411054    -79.0641964694763    0.174003275411054    -79.0641964694763    0.981965965575342    10.0193651001358     
1471.56446792791     0.982532407042894    9.83493102678546     0.170832716460036    -79.2354788516936    0.170832716460036    -79.2354788516936    0.982532407042894    9.83493102678546     
1486.48568197434     0.983085599113416    9.65126046369649     0.167673545845358    -79.4052889294352    0.167673545845358    -79.4052889294352    0.983085599113416    9.65126046369649     
1501.55819257181     0.983625693526399    9.46834185576279     0.164525619856675    -79.5735987079733    0.164525619856675    -79.5735987079733    0.983625693526399    9.46834185576279     
1516.78353382111     0.984152839260845    9.28616355980946     0.161388792060359    -79.7403773657079    0.161388792060359    -79.7403773657079    0.984152839260845    9.28616355980946     
1532.16325537834     0.984667182516116    9.10471384780966     0.158262913391132    -79.9055909819326    0.158262913391132    -79.9055909819326    0.984667182516116    9.10471384780966     
1547.69892261267     0.985168866694132    8.92398091002877     0.155147832243306    -80.0692022343852    0.155147832243306    -80.0692022343852    0.985168866694132    8.92398091002877     
1563.39211676559     0.985658032382899    8.74395285809366     0.152043394561732    -80.2311700625348    0.152043394561732    -80.2311700625348    0.985658032382899    8.74395285809366     
1579.24443511194     0.986134817341262    8.56461772799204     0.148949443932661    -80.3914492919143    0.148949443932661    -80.3914492919143    0.986134817341262    8.56461772799204     
1595.25749112241     0.986599356484864    8.38596348300045     0.145865821674644    -80.5499902140732    0.145865821674644    -80.5499902140732    0.986599356484864    8.38596348300045     
1611.4329146278      0.987051781873239    8.20797801654344     0.142792366929721    -80.7067381158385    0.142792366929721    -80.7067381158385    0.987051781873239    8.20797801654344     
1627.7723519849      0.987492222697964    8.03064915498265     0.139728916755109    -80.8616327505315    0.139728916755109    -80.8616327505315    0.987492222697964    8.03064915498265     
1644.27746624403     0.987920805271857    7.85396466034086     0.136675306215708    -81.0146077425424    0.136675306215708    -81.0146077425424    0.987920805271857    7.85396466034086     
1660.94993731838     0.988337653019128    7.67791223295853     0.133631368477742    -81.165589915182     0.133631368477742    -81.165589915182     0.988337653019128    7.67791223295853     
1677.79146215489     0.988742886466451    7.50247951408668     0.130596934903914    -81.3144985299522    0.130596934903914    -81.3144985299522    0.988742886466451    7.50247951408668     
1694.80375490707     0.989136623234905    7.32765408841537     0.127571835150584    -81.4612444232369    0.127571835150584    -81.4612444232369    0.989136623234905    7.32765408841537     
1711.9885471094      0.989518978032731    7.15342348654071     0.124555897267468    -81.6057290238298    0.124555897267468    -81.6057290238298    0.989518978032731    7.15342348654071     
1729.34758785359     0.989890062648855    6.97977518737154     0.121548947800542    -81.7478432315864    0.121548947800542    -81.7478432315864    0.989890062648855    6.97977518737154     
1746.88264396661     0.990249985947134    6.80669662047594     0.118550811898915    -81.8874661336727    0.118550811898915    -81.8874661336727    0.990249985947134    6.80669662047594     
1764.59550019053     0.990598853861285    6.63417516837034     0.11556131342659     -82.0244635302162    0.11556131342659     -82.0244635302162    0.990598853861285    6.63417516837034     
1782.48795936413     0.99093676939043     6.4621981687521      0.112580275080238    -82.1586862354389    0.112580275080238    -82.1586862354389    0.99093676939043     6.4621981687521      
1800.56184260644     0.991263832595256    6.29075291667705     0.109607518514305    -82.2899681132731    0.109607518514305    -82.2899681132731    0.991263832595256    6.29075291667705     
1818.81898950209     0.991580140594696    6.11982666668325     0.106642864475092    -82.418123797687     0.106642864475092    -82.418123797687     0.991580140594696    6.11982666668325     
1837.26125828852     0.991885787563138    5.94940663486311     0.103686132945778    -82.542946036991     0.103686132945778    -82.542946036991     0.991885787563138    5.94940663486311     
1855.89052604513     0.992180864728095    5.77948000088448     0.100737143304794    -82.6642025876688    0.100737143304794    -82.6642025876688    0.992180864728095    5.77948000088448     
1874.70868888435     0.992465460368304    5.61003390996353     0.097795714500549    -82.7816325659382    0.097795714500549    -82.7816325659382    0.992465460368304    5.61003390996353     
1893.71766214458     0.992739659812231    5.44105547478868     0.094861665246154    -82.8949421432518    0.094861665246154    -82.8949421432518    0.992739659812231    5.44105547478868     
1912.9193805852      0.993003545436921    5.27253177740011     0.091934814238784    -83.0037994438279    0.091934814238784    -83.0037994438279    0.993003545436921    5.27253177740011     
1932.31579858344     0.993257196667196    5.10444987102423     0.089014980409393    -83.1078284661328    0.089014980409393    -83.1078284661328    0.993257196667196    5.10444987102423     
1951.90889033332     0.993500689975124    4.93679678186527     0.086101983210078    -83.2066018033508    0.086101983210078    -83.2066018033508    0.993500689975124    4.93679678186527     
1971.70065004658     0.993734098879769    4.76955951085552     0.083195642948308    -83.2996318766503    0.083195642948308    -83.2996318766503    0.993734098879769    4.76955951085552     
1991.69309215567     0.993957493947171    4.60272503536672     0.080295781179894    -83.3863603144298    0.080295781179894    -83.3863603144298    0.993957493947171    4.60272503536672     
2011.88825151876     0.994170942790531    4.43628031088228     0.077402221175944    -83.4661450036376    0.077402221175944    -83.4661450036376    0.994170942790531    4.43628031088228     
2032.28818362686     0.994374510070568    4.27021227263409     0.074514788483791    -83.5382441957013    0.074514788483791    -83.5382441957013    0.994374510070568    4.27021227263409     
2052.89496481303     0.994568257496038    4.1045078372039      0.071633311608038    -83.6017968552318    0.071633311608038    -83.6017968552318    0.994568257496038    4.1045078372039      
2073.71069246373     0.994752243824375    3.93915390409176     0.06875762284655     -83.6557981737268    0.06875762284655     -83.6557981737268    0.994752243824375    3.93915390409176     
2094.73748523224     0.99492652486244     3.77413735725292     0.065887559328066    -83.6990688024644    0.065887559328066    -83.6990688024644    0.99492652486244     3.77413735725292     
2115.97748325438     0.995091153467348    3.60944506660452     0.063022964314779    -83.7302158432411    0.063022964314779    -83.7302158432411    0.995091153467348    3.60944506660452     
2137.43284836627     0.995246179547354    3.44506388950426     0.060163688856949    -83.7475829038947    0.060163688856949    -83.7475829038947    0.995246179547354    3.44506388950426     
2159.10576432439     0.995391650062786    3.28098067220262     0.057309593920707    -83.7491854721757    0.057309593920707    -83.7491854721757    0.995391650062786    3.28098067220262     
2180.99843702784     0.995527609026999    3.11718225126914     0.054460553160144    -83.7326263215857    0.054460553160144    -83.7326263215857    0.995527609026999    3.11718225126914     
2203.11309474288     0.995654097507322    2.95365545499659     0.051616456579158    -83.6949833734943    0.051616456579158    -83.6949833734943    0.995654097507322    2.95365545499659     
2225.45198832968     0.995771153626014    2.79038710478224     0.048777215441148    -83.6326589737483    0.048777215441148    -83.6326589737483    0.995771153626014    2.79038710478224     
2248.01739147148     0.995878812561169    2.62736401648977     0.045942768959057    -83.5411741878547    0.045942768959057    -83.5411741878547    0.995878812561169    2.62736401648977     
2270.81160090593     0.995977106547601    2.46457300179287     0.043113093574077    -83.4148832634914    0.043113093574077    -83.4148832634914    0.995977106547601    2.46457300179287     
2293.83693665895     0.996066064877663    2.30200086950097     0.040288216078687    -83.246569725861     0.040288216078687    -83.246569725861     0.996066064877663    2.30200086950097     
2317.09574228077     0.996145713901999    2.13963442687138     0.037468232585644    -83.0268628171959    0.037468232585644    -83.0268628171959    0.996145713901999    2.13963442687138     
2340.59038508451     0.996216077030228    1.97746048090674     0.034653336627218    -82.7433739834723    0.034653336627218    -82.7433739834723    0.996216077030228    1.97746048090674     
2364.32325638716     0.996277174731532    1.81546583964137     0.031843861953687    -82.379383905181     0.031843861953687    -82.379383905181     0.996277174731532    1.81546583964137     
2388.29677175288     0.996329024535158    1.653637313417       0.029040349834566    -81.9117829162888    0.029040349834566    -81.9117829162888    0.996329024535158    1.653637313417       
2412.51337123894     0.996371641030815    1.49196171615056     0.026243658882549    -81.3077214868439    0.026243658882549    -81.3077214868439    0.996371641030815    1.49196171615056     
2436.97551964406     0.996405035868956    1.33042586659436     0.023455152233221    -80.5189277466917    0.023455152233221    -80.5189277466917    0.996405035868956    1.33042586659436     
2461.68570675922     0.996429217760962    1.16901658959213     0.020677033533156    -79.4715723526587    0.020677033533156    -79.4715723526587    0.996429217760962    1.16901658959213     
2486.64644762118     0.996444192479194    1.00772071733057     0.017912989090218    -78.0470731151588    0.017912989090218    -78.0470731151588    0.996444192479194    1.00772071733057     
2511.86028276835     0.996449962856934    0.846525090589676    0.015169513897785    -76.0429893613394    0.015169513897785    -76.0429893613394    0.996449962856934    0.846525090589676    
2537.32977849945     0.996446528788202    0.685416559992651    0.012458929721908    -73.0859077730727    0.012458929721908    -73.0859077730727    0.996446528788202    0.685416559992651    
2563.05752713467     0.996433887227447    0.524381987257774    0.009807165396245    -68.4151671334618    0.009807165396245    -68.4151671334618    0.996433887227447    0.524381987257774    
2589.04614727957     0.996412032189126    0.363408246452376    0.00727725942706     -60.2779807924715    0.00727725942706     -60.2779807924715    0.996412032189126    0.363408246452376    
2615.29828409153     0.996380954747149    0.202482225252913    0.005053840375238    -44.1655896458952    0.005053840375238    -44.1655896458952    0.996380954747149    0.202482225252913    
2641.81660954903     0.996340643034219    0.041590826210798    0.00373040097232     -11.1791524415063    0.00373040097232     -11.1791524415063    0.996340643034219    0.041590826210798    
2668.6038227236      0.996291082241049    -0.119279031973347   0.004251345160881    29.2004518775536     0.004251345160881    29.2004518775536     0.996291082241049    -0.119279031973347   
2695.66265005453     0.996232254615478    -0.280140413166166   0.006165367016993    52.1899273323807     0.006165367016993    52.1899273323807     0.996232254615478    -0.280140413166166   
2722.99584562637     0.996164139461477    -0.441006362505007   0.00858663454484     63.245980170592      0.00858663454484     63.245980170592      0.996164139461477    -0.441006362505007   
2750.60619144924     0.996086713138061    -0.60188990509038    0.011190851277974    69.2312238358465     0.011190851277974    69.2312238358465     0.996086713138061    -0.60188990509038    
2778.49649774201     0.995999949058119    -0.76280404466129    0.013875753717657    72.86419142388       0.013875753717657    72.86419142388       0.995999949058119    -0.76280404466129    
2806.66960321829     0.995903817687157    -0.923761762255931   0.016602689058274    75.2552078705095     0.016602689058274    75.2552078705095     0.995903817687157    -0.923761762255931   
2835.12837537539     0.99579828654198     -1.08477601485272    0.019354400177501    76.9198086268908     0.019354400177501    76.9198086268908     0.99579828654198     -1.08477601485272    
2863.87571078617     0.995683320189313    -1.24585973399275    0.022122186228091    78.1254850338683     0.022122186228091    78.1254850338683     0.995683320189313    -1.24585973399275    
2892.91453539383     0.995558880244388    -1.40702582437917    0.0249012615944      79.0236505820129     0.0249012615944      79.0236505820129     0.995558880244388    -1.40702582437917    
2922.24780480977     0.995424925369485    -1.56828716245499    0.027688825921466    79.7060547315586     0.027688825921466    79.7060547315586     0.995424925369485    -1.56828716245499    
2951.87850461437     0.995281411272481    -1.72965659495478    0.030483168950195    80.2313888191706     0.030483168950195    80.2313888191706     0.995281411272481    -1.72965659495478    
2981.8096506609      0.99512829070538     -1.89114693743033    0.03328321802056     80.6388823628207     0.03328321802056     80.6388823628207     0.99512829070538     -1.89114693743033    
3012.04428938242     0.994965513462874    -2.05277097274802    0.036088292971179    80.9557231633325     0.036088292971179    80.9557231633325     0.994965513462874    -2.05277097274802    
3042.58549810194     0.994793026380949    -2.21454144955591    0.038897965645915    81.2013334283275     0.038897965645915    81.2013334283275     0.994793026380949    -2.21454144955591    
3073.43638534556     0.994610773335528    -2.37647108072012    0.041711975472747    81.3899493057023     0.041711975472747    81.3899493057023     0.994610773335528    -2.37647108072012    
3104.60009115888     0.994418695241216    -2.53857254172705    0.044530176671056    81.5322385874337     0.044530176671056    81.5322385874337     0.994418695241216    -2.53857254172705    
3136.07978742662     0.994216730050137    -2.70085846905114    0.047352504089018    81.6363496489987     0.047352504089018    81.6363496489987     0.994216730050137    -2.70085846905114    
3167.87867819542     0.99400481275089     -2.86334145848611    0.050178950430924    81.7086115840338     0.050178950430924    81.7086115840338     0.99400481275089     -2.86334145848611    
3200                 0.993782875367672    -3.02603406343805    0.053009550676785    81.7540135286676     0.053009550676785    81.7540135286676     0.993782875367672    -3.02603406343805    
