# MHz S MA R 50      
!Freq                MagS11               AngS11               MagS21               AngS21               MagS12               AngS12               MagS22               AngS22               
1                    0.112941098235147    68.8775268287963     0.965067961547717    -6.26725523292739    0.965067961547717    -6.26725523292739    0.112941098235147    68.8775268287963     
1.00628294955873     0.113600211082096    68.9125737479561     0.964966372521966    -6.30613920654918    0.964966372521966    -6.30613920654918    0.113600211082096    68.9125737479561     
1.01260537457262     0.114263451837268    68.9470182717089     0.964863808661945    -6.34526007526423    0.964863808661945    -6.34526007526423    0.114263451837268    68.9470182717089     
1.01896752306396     0.11493084268379     68.9808604508057     0.964760259069899    -6.38461920672507    0.964760259069899    -6.38461920672507    0.11493084268379     68.9808604508057     
1.02536964461336     0.115602405893361    69.0141003314237     0.964655712724897    -6.42421797511843    0.964655712724897    -6.42421797511843    0.115602405893361    69.0141003314237     
1.03181199036952     0.116278163825938    69.0467379550093     0.964550158481584    -6.46405776117126    0.964550158481584    -6.46405776117126    0.116278163825938    69.0467379550093     
1.0382948130591      0.116958138929389    69.0787733581237     0.964443585068893    -6.50413995215558    0.964443585068893    -6.50413995215558    0.116958138929389    69.0787733581237     
1.04481836699664     0.117642353739131    69.1102065722918     0.964335981088724    -6.54446594189236    0.964335981088724    -6.54446594189236    0.117642353739131    69.1102065722918     
1.05138290809452     0.118330830877754    69.1410376238531     0.964227335014662    -6.58503713075629    0.964227335014662    -6.58503713075629    0.118330830877754    69.1410376238531     
1.05798869387299     0.119023593054619    69.1712665338177     0.964117635190612    -6.62585492567799    0.964117635190612    -6.62585492567799    0.119023593054619    69.1712665338177     
1.0646359834703      0.119720663065441    69.2008933177225     0.964006869829492    -6.66692074014673    0.964006869829492    -6.66692074014673    0.119720663065441    69.2008933177225     
1.07132503765286     0.120422063791856    69.2299179854927     0.963895027011914    -6.70823599421319    0.963895027011914    -6.70823599421319    0.120422063791856    69.2299179854927     
1.07805611882543     0.121127818200958    69.2583405413045     0.963782094684768    -6.7498021144892     0.963782094684768    -6.7498021144892     0.121127818200958    69.2583405413045     
1.0848294910415      0.121837949344831    69.2861609834527     0.963668060659923    -6.79162053414985    0.963668060659923    -6.79162053414985    0.121837949344831    69.2861609834527     
1.09164542001353     0.122552480360044    69.313379304219      0.963552912612815    -6.83369269293234    0.963552912612815    -6.83369269293234    0.122552480360044    69.313379304219      
1.0985041731235      0.123271434467133    69.3399954897444     0.963436638081061    -6.87602003713566    0.963436638081061    -6.87602003713566    0.123271434467133    69.3399954897444     
1.10540601943329     0.123994834970071    69.3660095199053     0.963319224463119    -6.91860401961904    0.963319224463119    -6.91860401961904    0.123994834970071    69.3660095199053     
1.11235122969531     0.124722705255698    69.3914213681906     0.96320065901682     -6.96144609979971    0.96320065901682     -6.96144609979971    0.124722705255698    69.3914213681906     
1.11934007636307     0.125455068793138    69.4162310015835     0.963080928857978    -7.00454774364979    0.963080928857978    -7.00454774364979    0.125455068793138    69.4162310015835     
1.12637283360193     0.126191949133201    69.440438380445      0.962960020958986    -7.0479104236928     0.962960020958986    -7.0479104236928     0.126191949133201    69.440438380445      
1.13344977729978     0.126933369907745    69.4640434584008     0.962837922147371    -7.09153561899907    0.962837922147371    -7.09153561899907    0.126933369907745    69.4640434584008     
1.14057118507791     0.127679354829031    69.4870461822313     0.962714619104333    -7.13542481518018    0.962714619104333    -7.13542481518018    0.127679354829031    69.4870461822313     
1.14773733630189     0.128429927689049    69.509446491764      0.962590098363337    -7.1795795043837     0.962590098363337    -7.1795795043837     0.128429927689049    69.509446491764      
1.15494851209255     0.129185112358812    69.5312443197694     0.962464346308592    -7.22400118528499    0.962464346308592    -7.22400118528499    0.129185112358812    69.5312443197694     
1.16220499533696     0.129944932787632    69.5524395918584     0.962337349173629    -7.26869136308053    0.962337349173629    -7.26869136308053    0.129944932787632    69.5524395918584     
1.16950707069957     0.130709413002386    69.5730322263851     0.962209093039824    -7.31365154947907    0.962209093039824    -7.31365154947907    0.130709413002386    69.5730322263851     
1.17685502463335     0.131478577106721    69.5930221343493     0.962079563834854    -7.35888326269167    0.962079563834854    -7.35888326269167    0.131478577106721    69.5930221343493     
1.18424914539106     0.132252449280265    69.6124092193044     0.961948747331262    -7.40438802742171    0.961948747331262    -7.40438802742171    0.132252449280265    69.6124092193044     
1.19168972303652     0.133031053777801    69.6311933772677     0.961816629144895    -7.45016737485352    0.961816629144895    -7.45016737485352    0.133031053777801    69.6311933772677     
1.19917704945602     0.133814414928414    69.6493744966316     0.96168319473344     -7.49622284264042    0.96168319473344     -7.49622284264042    0.133814414928414    69.6493744966316     
1.20671141836974     0.1346025571346      69.6669524580806     0.961548429394834    -7.54255597489069    0.961548429394834    -7.54255597489069    0.1346025571346      69.6669524580806     
1.2142931253433      0.135395504871376    69.6839271345092     0.961412318265789    -7.58916832215439    0.961412318265789    -7.58916832215439    0.135395504871376    69.6839271345092     
1.22192246779935     0.136193282685331    69.7002983909432     0.961274846320212    -7.63606144140774    0.961274846320212    -7.63606144140774    0.136193282685331    69.7002983909432     
1.22959974502921     0.136995915193661    69.7160660844632     0.961135998367667    -7.68323689603691    0.961135998367667    -7.68323689603691    0.136995915193661    69.7160660844632     
1.23732525820466     0.137803427083182    69.7312300641325     0.9609957590518      -7.73069625582104    0.9609957590518      -7.73069625582104    0.137803427083182    69.7312300641325     
1.2450993103897      0.138615843109302    69.7457901709265     0.960854112848788    -7.77844109691404    0.960854112848788    -7.77844109691404    0.138615843109302    69.7457901709265     
1.25292220655249     0.139433188094971    69.7597462376649     0.960711044065748    -7.82647300182508    0.960711044065748    -7.82647300182508    0.139433188094971    69.7597462376649     
1.26079425357728     0.14025548692959     69.7730980889481     0.960566536839147    -7.87479355939839    0.960566536839147    -7.87479355939839    0.14025548692959     69.7730980889481     
1.26871576027644     0.141082764567903    69.7858455410949     0.960420575133212    -7.92340436479152    0.960420575133212    -7.92340436479152    0.141082764567903    69.7858455410949     
1.27668703740263     0.141915046028844    69.7979884020833     0.960273142738348    -7.97230701945301    0.960273142738348    -7.97230701945301    0.141915046028844    69.7979884020833     
1.28470839766091     0.142752356394364    69.809526471495      0.960124223269496    -8.02150313109864    0.960124223269496    -8.02150313109864    0.142752356394364    69.809526471495      
1.29278015572109     0.143594720808213    69.8204595404626     0.959973800164522    -8.07099431368597    0.959973800164522    -8.07099431368597    0.143594720808213    69.8204595404626     
1.30090262823002     0.144442164474699    69.8307873916187     0.959821856682605    -8.12078218738863    0.959821856682605    -8.12078218738863    0.144442164474699    69.8307873916187     
1.30907613382401     0.145294712657414    69.8405097990482     0.959668375902617    -8.1708683785691     0.959668375902617    -8.1708683785691     0.145294712657414    69.8405097990482     
1.31730099314136     0.146152390677906    69.8496265282442     0.95951334072144     -8.22125451974941    0.95951334072144     -8.22125451974941    0.146152390677906    69.8496265282442     
1.32557752883494     0.147015223914348    69.858137336066      0.95935673385237     -8.27194224958194    0.95935673385237     -8.27194224958194    0.147015223914348    69.858137336066      
1.33390606558479     0.147883237800143    69.8660419707003     0.959198537823418    -8.32293321281774    0.959198537823418    -8.32293321281774    0.147883237800143    69.8660419707003     
1.34228693011095     0.148756457822513    69.8733401716248     0.959038734975691    -8.37422906027432    0.959038734975691    -8.37422906027432    0.148756457822513    69.8733401716248     
1.35072045118618     0.149634909521039    69.8800316695753     0.958877307461714    -8.42583144880188    0.958877307461714    -8.42583144880188    0.149634909521039    69.8800316695753     
1.35920695964893     0.150518618486169    69.886116186515      0.958714237243746    -8.47774204124781    0.958714237243746    -8.47774204124781    0.150518618486169    69.886116186515      
1.36774678841628     0.151407610357688    69.8915934356075     0.958549506092123    -8.52996250642035    0.958549506092123    -8.52996250642035    0.151407610357688    69.8915934356075     
1.37634027249702     0.152301910823148    69.8964631211918     0.958383095583558    -8.58249451905031    0.958383095583558    -8.58249451905031    0.152301910823148    69.8964631211918     
1.38498774900477     0.153201545616268    69.9007249387605     0.95821498709948     -8.63533975975238    0.95821498709948     -8.63533975975238    0.153201545616268    69.9007249387605     
1.39368955717122     0.154106540515271    69.9043785749408     0.958045161824305    -8.68849991498277    0.958045161824305    -8.68849991498277    0.154106540515271    69.9043785749408     
1.40244603835946     0.155016921341219    69.9074237074795     0.957873600743778    -8.74197667699874    0.957873600743778    -8.74197667699874    0.155016921341219    69.9074237074795     
1.41125753607732     0.155932713956268    69.9098600052283     0.957700284643264    -8.79577174381309    0.957700284643264    -8.79577174381309    0.155932713956268    69.9098600052283     
1.42012439599087     0.156853944261908    69.9116871281354     0.957525194106003    -8.84988681914945    0.957525194106003    -8.84988681914945    0.156853944261908    69.9116871281354     
1.429046965938       0.157780638197145    69.9129047272363     0.957348309511464    -8.90432361239519    0.957348309511464    -8.90432361239519    0.157780638197145    69.9129047272363     
1.43802559594205     0.158712821736662    69.9135124446516     0.95716961103359     -8.95908383855265    0.95716961103359     -8.95908383855265    0.158712821736662    69.9135124446516     
1.44706063822552     0.159650520888906    69.9135099135834     0.956989078639096    -9.01416921818913    0.956989078639096    -9.01416921818913    0.159650520888906    69.9135099135834     
1.45615244722391     0.160593761694165    69.9128967583186     0.956806692085773    -9.06958147738495    0.956806692085773    -9.06958147738495    0.160593761694165    69.9128967583186     
1.46530137959964     0.16154257022257     69.9116725942323     0.956622430920723    -9.12532234767964    0.956622430920723    -9.12532234767964    0.16154257022257     69.9116725942323     
1.47450779425601     0.16249697257207     69.9098370277953     0.956436274478668    -9.18139356601693    0.956436274478668    -9.18139356601693    0.16249697257207     69.9098370277953     
1.48377205235127     0.163456994866368    69.9073896565851     0.956248201880241    -9.2377968746877     0.956248201880241    -9.2377968746877     0.163456994866368    69.9073896565851     
1.49309451731285     0.164422663252781    69.9043300692986     0.956058192030214    -9.2945340212712     0.956058192030214    -9.2945340212712     0.164422663252781    69.9043300692986     
1.50247555485155     0.165394003900089    69.9006578457689     0.955866223615819    -9.35160675857428    0.955866223615819    -9.35160675857428    0.165394003900089    69.9006578457689     
1.51191553297591     0.166371042996311    69.8963725569839     0.955672275105008    -9.40901684456945    0.955672275105008    -9.40901684456945    0.166371042996311    69.8963725569839     
1.52141482200666     0.167353806746441    69.8914737651096     0.955476324744714    -9.46676604232989    0.955476324744714    -9.46676604232989    0.167353806746441    69.8914737651096     
1.53097379459123     0.168342321370142    69.8859610235151     0.955278350559136    -9.5248561199643     0.955278350559136    -9.5248561199643     0.168342321370142    69.8859610235151     
1.54059282571839     0.169336613099374    69.8798338768007     0.95507833034802     -9.58328885054784    0.95507833034802     -9.58328885054784    0.169336613099374    69.8798338768007     
1.55027229273292     0.170336708175995    69.8730918608295     0.954876241684942    -9.64206601205307    0.954876241684942    -9.64206601205307    0.170336708175995    69.8730918608295     
1.56001257535046     0.171342632849285    69.8657345027626     0.954672061915558    -9.70118938727726    0.954672061915558    -9.70118938727726    0.171342632849285    69.8657345027626     
1.56981405567237     0.172354413373434    69.8577613210955     0.954465768155915    -9.7606607637686     0.954465768155915    -9.7606607637686     0.172354413373434    69.8577613210955     
1.57967711820075     0.173372076004982    69.8491718257001     0.954257337290725    -9.82048193375046    0.954257337290725    -9.82048193375046    0.173372076004982    69.8491718257001     
1.58960214985348     0.174395647000187    69.8399655178675     0.954046745971644    -9.88065469404289    0.954046745971644    -9.88065469404289    0.174395647000187    69.8399655178675     
1.59958953997946     0.175425152612365    69.8301418903552     0.953833970615588    -9.94118084598282    0.953833970615588    -9.94118084598282    0.175425152612365    69.8301418903552     
1.60963968037383     0.176460619089153    69.8197004274378     0.953618987403008    -10.0020621953415    0.953618987403008    -10.0020621953415    0.176460619089153    69.8197004274378     
1.61975296529335     0.177502072669717    69.8086406049597     0.953401772276179    -10.0633005522397    0.953401772276179    -10.0633005522397    0.177502072669717    69.8086406049597     
1.62992979147189     0.17854953958194     69.7969618903911     0.953182300937562    -10.1248977310617    0.953182300937562    -10.1248977310617    0.17854953958194     69.7969618903911     
1.64017055813598     0.179603046039497    69.784663742889      0.952960548848043    -10.1868555503658    0.952960548848043    -10.1868555503658    0.179603046039497    69.784663742889      
1.65047566702047     0.180662618238923    69.7717456133583     0.952736491225315    -10.2491758327933    0.952736491225315    -10.2491758327933    0.180662618238923    69.7717456133583     
1.66084552238427     0.18172828235659     69.7582069445193     0.952510103042175    -10.3118604049749    0.952510103042175    -10.3118604049749    0.18172828235659     69.7582069445193     
1.67128053102626     0.182800064545642    69.7440471709766     0.952281359024849    -10.3749110974346    0.952281359024849    -10.3749110974346    0.182800064545642    69.7440471709766     
1.68178110230118     0.183877990932875    69.729265719291      0.952050233651381    -10.4383297444925    0.952050233651381    -10.4383297444925    0.183877990932875    69.729265719291      
1.69234764813577     0.184962087615537    69.7138620080564     0.951816701149948    -10.5021181841628    0.951816701149948    -10.5021181841628    0.184962087615537    69.7138620080564     
1.70298058304484     0.186052380658082    69.6978354479785     0.951580735497214    -10.5662782580514    0.951580735497214    -10.5662782580514    0.186052380658082    69.6978354479785     
1.71368032414761     0.187148896088865    69.6811854419575     0.951342310416751    -10.6308118112504    0.951342310416751    -10.6308118112504    0.187148896088865    69.6811854419575     
1.72444729118402     0.188251659896768    69.6639113851735     0.951101399377385    -10.6957206922298    0.951101399377385    -10.6957206922298    0.188251659896768    69.6639113851735     
1.73528190653122     0.189360698027758    69.6460126651767     0.950857975591617    -10.761006752727     0.950857975591617    -10.761006752727     0.189360698027758    69.6460126651767     
1.74618459522014     0.190476036381401    69.6274886619789     0.95061201201402     -10.8266718476336    0.95061201201402     -10.8266718476336    0.190476036381401    69.6274886619789     
1.75715578495214     0.191597700807289    69.6083387481506     0.950363481339676    -10.8927178348795    0.950363481339676    -10.8927178348795    0.191597700807289    69.6083387481506     
1.76819590611583     0.192725717101422    69.5885622889199     0.95011235600262     -10.9591465753147    0.95011235600262     -10.9591465753147    0.192725717101422    69.5885622889199     
1.77930539180391     0.193860111002497    69.5681586422757     0.949858608174255    -11.0259599325871    0.949858608174255    -11.0259599325871    0.193860111002497    69.5681586422757     
1.79048467783019     0.195000908188179    69.5471271590742     0.949602209761897    -11.0931597730205    0.949602209761897    -11.0931597730205    0.195000908188179    69.5471271590742     
1.80173420274668     0.196148134271244    69.5254671831486     0.949343132407203    -11.1607479654859    0.949343132407203    -11.1607479654859    0.196148134271244    69.5254671831486     
1.81305440786078     0.197301814795704    69.503178051423      0.949081347484698    -11.2287263812734    0.949081347484698    -11.2287263812734    0.197301814795704    69.503178051423      
1.8244457372526      0.198461975232841    69.4802590940291     0.94881682610031     -11.2970968939593    0.94881682610031     -11.2970968939593    0.198461975232841    69.4802590940291     
1.8359086377924      0.199628640977174    69.4567096344273     0.948549539089909    -11.365861379271     0.948549539089909    -11.365861379271     0.199628640977174    69.4567096344273     
1.84744355915809     0.200801837342357    69.4325289895306     0.948279457017862    -11.4350217149488    0.948279457017862    -11.4350217149488    0.200801837342357    69.4325289895306     
1.85905095385288     0.201981589557013    69.4077164698323     0.948006550175661    -11.5045797806053    0.948006550175661    -11.5045797806053    0.201981589557013    69.4077164698323     
1.87073127722305     0.203167922760492    69.382271379538      0.947730788580485    -11.5745374575808    0.947730788580485    -11.5745374575808    0.203167922760492    69.382271379538      
1.88248498747578     0.204360861998548    69.3561930167012     0.94745214197386     -11.6448966287963    0.94745214197386     -11.6448966287963    0.204360861998548    69.3561930167012     
1.89431254569716     0.20556043221897     69.329480673361      0.947170579820334    -11.715659178604     0.947170579820334    -11.715659178604     0.20556043221897     69.329480673361      
1.90621441587025     0.206766658267106    69.3021336356857     0.946886071306137    -11.7868269926329    0.946886071306137    -11.7868269926329    0.206766658267106    69.3021336356857     
1.91819106489329     0.207979564881343    69.2741511841192     0.946598585337903    -11.8584019576338    0.946598585337903    -11.8584019576338    0.207979564881343    69.2741511841192     
1.93024296259802     0.20919917668849     69.2455325935311     0.946308090541412    -11.9303859613183    0.946308090541412    -11.9303859613183    0.20919917668849     69.2455325935311     
1.94237058176812     0.210425518199114    69.2162771333703     0.946014555260389    -12.0027808921977    0.946014555260389    -12.0027808921977    0.210425518199114    69.2162771333703     
1.95457439815773     0.211658613802761    69.1863840678238     0.945717947555238    -12.0755886394152    0.945717947555238    -12.0755886394152    0.211658613802761    69.1863840678238     
1.96685489051015     0.212898487763142    69.1558526559778     0.945418235201943    -12.1488110925779    0.945418235201943    -12.1488110925779    0.212898487763142    69.1558526559778     
1.97921254057656     0.214145164213209    69.1246821519833     0.945115385690878    -12.2224501415833    0.945115385690878    -12.2224501415833    0.214145164213209    69.1246821519833     
1.99164783313501     0.215398667150188    69.092871805226      0.944809366225773    -12.2965076764443    0.944809366225773    -12.2965076764443    0.215398667150188    69.092871805226      
2.00416125600936     0.216659020430493    69.0604208605        0.944500143722562    -12.3709855871086    0.944500143722562    -12.3709855871086    0.216659020430493    69.0604208605        
2.01675330008843     0.217926247764594    69.0273285581842     0.944187684808422    -12.4458857632767    0.944187684808422    -12.4458857632767    0.217926247764594    69.0273285581842     
2.02942445934529     0.219200372711801    68.9935941344255     0.943871955820747    -12.5212100942151    0.943871955820747    -12.5212100942151    0.219200372711801    68.9935941344255     
2.04217523085661     0.220481418674954    68.9592168213226     0.943552922806217    -12.5969604685668    0.943552922806217    -12.5969604685668    0.220481418674954    68.9592168213226     
2.05500611482217     0.221769408895053    68.9241958471167     0.943230551519866    -12.6731387741581    0.943230551519866    -12.6731387741581    0.221769408895053    68.9241958471167     
2.06791761458449     0.223064366445782    68.8885304363851     0.942904807424199    -12.7497468978005    0.942904807424199    -12.7497468978005    0.223064366445782    68.8885304363851     
2.08091023664853     0.224366314227984    68.8522198102381     0.942575655688406    -12.8267867250914    0.942575655688406    -12.8267867250914    0.224366314227984    68.8522198102381     
2.09398449070164     0.225675274964027    68.815263186522      0.942243061187542    -12.9042601402091    0.942243061187542    -12.9042601402091    0.225675274964027    68.815263186522      
2.10714088963348     0.226991271192107    68.7776597800246     0.941906988501786    -12.982169025705     0.941906988501786    -12.982169025705     0.226991271192107    68.7776597800246     
2.12037994955619     0.228314325260457    68.7394088026853     0.941567401915785    -13.0605152622919    0.941567401915785    -13.0605152622919    0.228314325260457    68.7394088026853     
2.1337021898246      0.22964445932148     68.7005094638102     0.941224265417964    -13.1393007286285    0.941224265417964    -13.1393007286285    0.22964445932148     68.7005094638102     
2.14710813305662     0.230981695325798    68.6609609702903     0.940877542699981    -13.2185273011003    0.940877542699981    -13.2185273011003    0.230981695325798    68.6609609702903     
2.16059830515376     0.232326055016216    68.6207625268244     0.940527197156149    -13.2981968535961    0.940527197156149    -13.2981968535961    0.232326055016216    68.6207625268244     
2.17417323532172     0.233677559921599    68.5799133361472     0.94017319188296     -13.3783112572812    0.94017319188296     -13.3783112572812    0.233677559921599    68.5799133361472     
2.18783345609119     0.235036231350681    68.5384125992598     0.939815489678661    -13.4588723803665    0.939815489678661    -13.4588723803665    0.235036231350681    68.5384125992598     
2.20157950333871     0.236402090385764    68.4962595156669     0.939454053042854    -13.5398820878738    0.939454053042854    -13.5398820878738    0.236402090385764    68.4962595156669     
2.21541191630773     0.237775157876362    68.4534532836157     0.939088844176219    -13.6213422413966    0.939088844176219    -13.6213422413966    0.237775157876362    68.4534532836157     
2.2293312376297      0.239155454432733    68.4099931003419     0.938719824980205    -13.7032546988577    0.938719824980205    -13.7032546988577    0.239155454432733    68.4099931003419     
2.24333801334543     0.240543000419345    68.3658781623178     0.938346957056878    -13.785621314262     0.938346957056878    -13.785621314262     0.240543000419345    68.3658781623178     
2.25743279292647     0.241937815948251    68.321107665507      0.937970201708742    -13.8684439374455    0.937970201708742    -13.8684439374455    0.241937815948251    68.321107665507      
2.27161612929665     0.243339920872372    68.2756808056216     0.937589519938697    -13.9517244138207    0.937589519938697    -13.9517244138207    0.243339920872372    68.2756808056216     
2.28588857885382     0.244749334778708    68.2295967783848     0.937204872450034    -14.0354645841167    0.937204872450034    -14.0354645841167    0.244749334778708    68.2295967783848     
2.30025070149164     0.246166076981459    68.1828547797985     0.936816219646498    -14.1196662841168    0.936816219646498    -14.1196662841168    0.246166076981459    68.1828547797985     
2.31470306062154     0.247590166515046    68.135454006414      0.936423521632409    -14.2043313443898    0.936423521632409    -14.2043313443898    0.247590166515046    68.135454006414      
2.32924622319487     0.249021622127074    68.0873936556093     0.936026738212882    -14.2894615900192    0.936026738212882    -14.2894615900192    0.249021622127074    68.0873936556093     
2.34388075972507     0.250460462271179    68.0386729258686     0.935625828894093    -14.3750588403266    0.935625828894093    -14.3750588403266    0.250460462271179    68.0386729258686     
2.3586072443101      0.251906705099823    67.9892910170687     0.935220752883655    -14.461124908592     0.935220752883655    -14.461124908592     0.251906705099823    67.9892910170687     
2.37342625465496     0.253360368456972    67.9392471307678     0.934811469091032    -14.5476616017684    0.934811469091032    -14.5476616017684    0.253360368456972    67.9392471307678     
2.38833837209433     0.254821469870705    67.8885404705011     0.934397936128045    -14.6346707201935    0.934397936128045    -14.6346707201935    0.254821469870705    67.8885404705011     
2.40334418161538     0.256290026545745    67.8371702420794     0.9339801123095      -14.7221540572961    0.9339801123095      -14.7221540572961    0.256290026545745    67.8371702420794     
2.41844427188074     0.257766055355882    67.785135653893      0.933557955653805    -14.8101133992985    0.933557955653805    -14.8101133992985    0.257766055355882    67.785135653893      
2.43363923525156     0.259249572836341    67.7324359172203     0.933131423883793    -14.8985505249151    0.933131423883793    -14.8985505249151    0.259249572836341    67.7324359172203     
2.4489296678108      0.260740595176037    67.6790702465411     0.932700474427528    -14.9874672050445    0.932700474427528    -14.9874672050445    0.260740595176037    67.6790702465411     
2.46431616938654     0.262239138209773    67.6250378598544     0.932265064419257    -15.0768652024602    0.932265064419257    -15.0768652024602    0.262239138209773    67.6250378598544     
2.47979934357556     0.263745217410322    67.5703379790013     0.931825150700416    -15.1667462714939    0.931825150700416    -15.1667462714939    0.263745217410322    67.5703379790013     
2.49537979776702     0.265258847880467    67.514969829992      0.931380689820785    -15.2571121577166    0.931380689820785    -15.2571121577166    0.265258847880467    67.514969829992      
2.51105814316626     0.266780044344929    67.4589326433378     0.930931638039698    -15.3479645976142    0.930931638039698    -15.3479645976142    0.266780044344929    67.4589326433378     
2.52683499481882     0.268308821142208    67.4022256543894     0.930477951327308    -15.4393053182575    0.930477951327308    -15.4393053182575    0.268308821142208    67.4022256543894     
2.5427109716345      0.269845192216375    67.3448481036762     0.93001958536606     -15.5311360369707    0.93001958536606     -15.5311360369707    0.269845192216375    67.3448481036762     
2.55868669641171     0.271389171108756    67.2867992372547     0.929556495552171    -15.6234584609922    0.929556495552171    -15.6234584609922    0.271389171108756    67.2867992372547     
2.57476279586186     0.272940770949538    67.2280783070586     0.929088636997252    -15.7162742871324    0.929088636997252    -15.7162742871324    0.272940770949538    67.2280783070586     
2.59093990063396     0.274500004449307    67.1686845712549     0.928615964530026    -15.809585201427     0.928615964530026    -15.809585201427     0.274500004449307    67.1686845712549     
2.60721864533935     0.276066883890504    67.1086172946051     0.928138432698179    -15.9033928787855    0.928138432698179    -15.9033928787855    0.276066883890504    67.1086172946051     
2.6235996685766      0.2776414211188      67.0478757488299     0.927655995770268    -15.9976989826348    0.927655995770268    -15.9976989826348    0.2776414211188      67.0478757488299     
2.64008361295657     0.279223627534387    66.9864592129804     0.927168607737793    -16.0925051645584    0.927168607737793    -16.0925051645584    0.279223627534387    66.9864592129804     
2.65667112512761     0.280813514083214    66.9243669738123     0.926676222317358    -16.1878130639317    0.926676222317358    -16.1878130639317    0.280813514083214    66.9243669738123     
2.67336285580092     0.282411091248134    66.8615983261658     0.92617879295295     -16.2836243075518    0.92617879295295     -16.2836243075518    0.282411091248134    66.8615983261658     
2.69015945977611     0.284016369039971    66.7981525733509     0.925676272818354    -16.3799405092628    0.925676272818354    -16.3799405092628    0.284016369039971    66.7981525733509     
2.70706159596682     0.285629356988536    66.7340290275361     0.925168614819654    -16.4767632695778    0.925168614819654    -16.4767632695778    0.285629356988536    66.7340290275361     
2.72406992742666     0.287250064133548    66.6692270101427     0.924655771597892    -16.5740941752941    0.924655771597892    -16.5740941752941    0.287250064133548    66.6692270101427     
2.74118512137514     0.288878499015509    66.603745852243      0.924137695531851    -16.6719347991063    0.924137695531851    -16.6719347991063    0.288878499015509    66.603745852243      
2.75840784922388     0.290514669666484    66.5375848949648     0.923614338740912    -16.7702866992125    0.923614338740912    -16.7702866992125    0.290514669666484    66.5375848949648     
2.77573878660297     0.292158583600836    66.4707434898991     0.923085653088122    -16.8691514189177    0.923085653088122    -16.8691514189177    0.292158583600836    66.4707434898991     
2.79317861338741     0.293810247805893    66.4032209995132     0.92255159018334     -16.9685304862322    0.92255159018334     -16.9685304862322    0.293810247805893    66.4032209995132     
2.81072801372385     0.295469668732535    66.3350167975684     0.922012101386532    -17.0684254134649    0.922012101386532    -17.0684254134649    0.295469668732535    66.3350167975684     
2.82838767605739     0.29713685228574     66.2661302695415     0.921467137811198    -17.168837696813     0.921467137811198    -17.168837696813     0.29713685228574     66.2661302695415     
2.84615829315859     0.298811803815054    66.1965608130524     0.920916650327954    -17.2697688159462    0.920916650327954    -17.2697688159462    0.298811803815054    66.1965608130524     
2.86404056215067     0.300494528105009    66.1263078382961     0.920360589568226    -17.3712202335875    0.920360589568226    -17.3712202335875    0.300494528105009    66.1263078382961     
2.88203518453682     0.302185029365479    66.0553707684773     0.919798905928103    -17.4731933950885    0.919798905928103    -17.4731933950885    0.302185029365479    66.0553707684773     
2.90014286622776     0.303883311222005    65.9837490402521     0.919231549572383    -17.5756897280016    0.919231549572383    -17.5756897280016    0.303883311222005    65.9837490402521     
2.91836431756938     0.305589376706021    65.9114421041725     0.918658470438648    -17.6787106416464    0.918658470438648    -17.6787106416464    0.305589376706021    65.9114421041725     
2.93670025337067     0.307303228245079    65.8384494251368     0.918079618241616    -17.7822575266728    0.918079618241616    -17.7822575266728    0.307303228245079    65.8384494251368     
2.95515139293171     0.309024867652991    65.7647704828425     0.917494942477561    -17.8863317546191    0.917494942477561    -17.8863317546191    0.309024867652991    65.7647704828425     
2.97371846007191     0.310754296119948    65.6904047722454     0.916904392428951    -17.9909346774665    0.916904392428951    -17.9909346774665    0.310754296119948    65.6904047722454     
2.99240218315841     0.312491514202576    65.6153518040221     0.916307917169158    -18.0960676271883    0.916307917169158    -18.0960676271883    0.312491514202576    65.6153518040221     
3.01120329513464     0.314236521813972    65.5396111050371     0.915705465567439    -18.2017319152969    0.915705465567439    -18.2017319152969    0.314236521813972    65.5396111050371     
3.03012253354905     0.315989318213676    65.4631822188146     0.915096986293947    -18.3079288323837    0.915096986293947    -18.3079288323837    0.315989318213676    65.4631822188146     
3.04916064058411     0.317749901997645    65.3860647060124     0.914482427825053    -18.4146596476579    0.914482427825053    -18.4146596476579    0.317749901997645    65.3860647060124     
3.06831836308537     0.319518271088141    65.3082581449037     0.91386173844867     -18.5219256084789    0.91386173844867     -18.5219256084789    0.319518271088141    65.3082581449037     
3.08759645259077     0.321294422723646    65.2297621318591     0.913234866269901    -18.6297279398864    0.913234866269901    -18.6297279398864    0.321294422723646    65.2297621318591     
3.10699566536011     0.323078353448718    65.1505762818352     0.912601759216757    -18.738067844126     0.912601759216757    -18.738067844126     0.323078353448718    65.1505762818352     
3.12651676240477     0.324870059103812    65.0707002288662     0.911962365046038    -18.8469465001697    0.911962365046038    -18.8469465001697    0.324870059103812    65.0707002288662     
3.14616050951748     0.326669534815119    64.9901336265591     0.911316631349479    -18.9563650632348    0.911316631349479    -18.9563650632348    0.326669534815119    64.9901336265591     
3.16592767730245     0.328476774984352    64.9088761485935     0.910664505559987    -19.0663246642975    0.910664505559987    -19.0663246642975    0.328476774984352    64.9088761485935     
3.18581904120554     0.33029177327854     64.8269274892244     0.910005934958087    -19.1768264096038    0.910005934958087    -19.1768264096038    0.33029177327854     64.8269274892244     
3.20583538154468     0.33211452261979     64.7442873637897     0.909340866678522    -19.2878713801748    0.909340866678522    -19.2878713801748    0.33211452261979     64.7442873637897     
3.22597748354052     0.333945015175071    64.6609555092199     0.908669247717088    -19.3994606313118    0.908669247717088    -19.3994606313118    0.333945015175071    64.6609555092199     
3.2462461373472      0.335783242345968    64.5769316845517     0.907991024937604    -19.5115951920952    0.907991024937604    -19.5115951920952    0.335783242345968    64.5769316845517     
3.26664213808338     0.337629194758447    64.4922156714468     0.907306145079055    -19.6242760648809    0.907306145079055    -19.6242760648809    0.337629194758447    64.4922156714468     
3.28716628586339     0.339482862252626    64.4068072747106     0.906614554762991    -19.7375042247939    0.906614554762991    -19.7375042247939    0.339482862252626    64.4068072747106     
3.30781938582863     0.341344233872557    64.3207063228178     0.905916200501032    -19.8512806192184    0.905916200501032    -19.8512806192184    0.341344233872557    64.3207063228178     
3.32860224817918     0.343213297856005    64.2339126684376     0.905211028702616    -19.9656061672844    0.905211028702616    -19.9656061672844    0.343213297856005    64.2339126684376     
3.34951568820557     0.345090041624254    64.1464261889656     0.904498985682904    -20.0804817593517    0.904498985682904    -20.0804817593517    0.345090041624254    64.1464261889656     
3.37056052632075     0.346974451771951    64.0582467870547     0.903780017670923    -20.1959082564922    0.903780017670923    -20.1959082564922    0.346974451771951    64.0582467870547     
3.39173758809227     0.34886651405693     63.9693743911521     0.903054070817837    -20.3118864899668    0.903054070817837    -20.3118864899668    0.34886651405693     63.9693743911521     
3.4130477042747      0.350766213390115    63.8798089560374     0.902321091205477    -20.4284172607021    0.902321091205477    -20.4284172607021    0.350766213390115    63.8798089560374     
3.43449171084221     0.352673533825416    63.7895504633635     0.901581024855018    -20.5455013387631    0.901581024855018    -20.5455013387631    0.352673533825416    63.7895504633635     
3.45607044902131     0.354588458549704    63.6985989221991     0.90083381773589     -20.663139462825     0.90083381773589     -20.663139462825     0.354588458549704    63.6985989221991     
3.47778476532393     0.35651096987279     63.6069543695757     0.900079415774863    -20.7813323396412    0.900079415774863    -20.7813323396412    0.35651096987279     63.6069543695757     
3.49963551158058     0.35844104921747     63.514616871035      0.899317764865338    -20.900080643509     0.899317764865338    -20.900080643509     0.35844104921747     63.514616871035      
3.52162354497379     0.36037867710964     63.4215865211776     0.898548810876844    -21.0193850157355    0.898548810876844    -21.0193850157355    0.36037867710964     63.4215865211776     
3.5437497280717      0.362323833168438    63.3278634442164     0.897772499664744    -21.1392460640996    0.897772499664744    -21.1392460640996    0.362323833168438    63.3278634442164     
3.56601492886194     0.364276496096467    63.233447794529      0.896988777080103    -21.2596643623121    0.896988777080103    -21.2596643623121    0.364276496096467    63.233447794529      
3.58842002078566     0.36623664367009     63.1383397572135     0.896197588979816    -21.3806404494762    0.896197588979816    -21.3806404494762    0.36623664367009     63.1383397572135     
3.6109658827718      0.368204252729793    63.0425395486443     0.895398881236895    -21.5021748295446    0.895398881236895    -21.5021748295446    0.368204252729793    63.0425395486443     
3.63365339927156     0.370179299170625    62.9460474170306     0.894592599750983    -21.6242679707761    0.894592599750983    -21.6242679707761    0.370179299170625    62.9460474170306     
3.65648346029309     0.372161757932723    62.8488636429754     0.893778690459048    -21.746920305191     0.893778690459048    -21.746920305191     0.372161757932723    62.8488636429754     
3.67945696143645     0.374151602991945    62.7509885400347     0.892957099346324    -21.8701322280261    0.892957099346324    -21.8701322280261    0.374151602991945    62.7509885400347     
3.70257480392867     0.376148807350582    62.6524224552788     0.892127772457406    -21.9939040971878    0.892127772457406    -21.9939040971878    0.376148807350582    62.6524224552788     
3.72583789465919     0.378153343028171    62.5531657698536     0.89129065590759     -22.1182362327056    0.89129065590759     -22.1182362327056    0.378153343028171    62.5531657698536     
3.74924714621534     0.380165181052435    62.4532188995422     0.890445695894399    -22.2431289161846    0.890445695894399    -22.2431289161846    0.380165181052435    62.4532188995422     
3.77280347691823     0.382184291450317    62.3525822953268     0.889592838709303    -22.3685823902582    0.889592838709303    -22.3685823902582    0.382184291450317    62.3525822953268     
3.79650781085871     0.384210643239146    62.251256443951      0.888732030749674    -22.4945968580399    0.888732030749674    -22.4945968580399    0.384210643239146    62.251256443951      
3.82036107793366     0.386244204417942    62.1492418684816     0.887863218530915    -22.6211724825769    0.887863218530915    -22.6211724825769    0.386244204417942    62.1492418684816     
3.84436421388246     0.388284941958812    62.0465391288706     0.886986348698793    -22.7483093863011    0.886986348698793    -22.7483093863011    0.388284941958812    62.0465391288706     
3.86851816032368     0.390332821798551    61.9431488225149     0.886101368042023    -22.876007650485     0.886101368042023    -22.876007650485     0.390332821798551    61.9431488225149     
3.89282386479203     0.392387808830328    61.8390715848186     0.885208223504977    -23.0042673146935    0.885208223504977    -23.0042673146935    0.392387808830328    61.8390715848186     
3.91728228077554     0.394449866895552    61.7343080897507     0.884306862200628    -23.1330883762403    0.884306862200628    -23.1330883762403    0.394449866895552    61.7343080897507     
3.94189436775296     0.396518958775911    61.6288590504038     0.883397231423745    -23.2624707896438    0.883397231423745    -23.2624707896438    0.396518958775911    61.6288590504038     
3.9666610912314      0.398595046185551    61.522725219551      0.882479278664186    -23.3924144660847    0.882479278664186    -23.3924144660847    0.398595046185551    61.522725219551      
3.99158342278419     0.400678089763434    61.4159073902016     0.881552951620463    -23.5229192728648    0.881552951620463    -23.5229192728648    0.400678089763434    61.4159073902016     
4.01666234008901     0.402768049065898    61.3084063961526     0.880618198213475    -23.653985032869     0.880618198213475    -23.653985032869     0.402768049065898    61.3084063961526     
4.04189882696624     0.40486488255937     61.2002231125422     0.879674966600447    -23.7856115240275    0.879674966600447    -23.7856115240275    0.40486488255937     61.2002231125422     
4.06729387341757     0.406968547613304    61.0913584563964     0.878723205189037    -23.917798478782     0.878723205189037    -23.917798478782     0.406968547613304    61.0913584563964     
4.09284847566479     0.409079000493291    60.9818133871774     0.877762862651653    -24.050545583553     0.877762862651653    -24.050545583553     0.409079000493291    60.9818133871774     
4.11856363618892     0.411196196354406    60.8715889073258     0.87679388793995     -24.1838524782107    0.87679388793995     -24.1838524782107    0.411196196354406    60.8715889073258     
4.14444036376952     0.413320089234737    60.7606860628015     0.875816230299508    -24.3177187555487    0.875816230299508    -24.3177187555487    0.413320089234737    60.7606860628015     
4.17047967352425     0.41545063204918     60.6491059436206     0.874829839284717    -24.4521439607622    0.874829839284717    -24.4521439607622    0.41545063204918     60.6491059436206     
4.19668258694872     0.417587776583418    60.5368496843888     0.873834664773799    -24.587127590927     0.873834664773799    -24.587127590927     0.417587776583418    60.5368496843888     
4.22305013195652     0.419731473488155    60.4239184648322     0.872830656984024    -24.7226690944847    0.872830656984024    -24.7226690944847    0.419731473488155    60.4239184648322     
4.2495833429196      0.421881672273616    60.3103135103209     0.871817766487142    -24.8587678707317    0.871817766487142    -24.8587678707317    0.421881672273616    60.3103135103209     
4.27628326070879     0.424038321304247    60.1960360923924     0.87079594422488     -24.9954232693105    0.87079594422488     -24.9954232693105    0.424038321304247    60.1960360923924     
4.30315093273467     0.426201367793733    60.0810875292663     0.869765141524754    -25.1326345897094    0.869765141524754    -25.1326345897094    0.426201367793733    60.0810875292663     
4.33018741298865     0.428370757800239    59.965469186357      0.868725310115902    -25.2704010807631    0.868725310115902    -25.2704010807631    0.428370757800239    59.965469186357      
4.35739376208431     0.430546436221927    59.8491824767802     0.867676402145145    -25.4087219401607    0.867676402145145    -25.4087219401607    0.430546436221927    59.8491824767802     
4.38477104729901     0.432728346792786    59.7322288618529     0.866618370193219    -25.5475963139593    0.866618370193219    -25.5475963139593    0.432728346792786    59.7322288618529     
4.41232034261578     0.434916432078718    59.6146098515888     0.86555116729112     -25.6870232961021    0.86555116729112     -25.6870232961021    0.434916432078718    59.6146098515888     
4.44004272876539     0.437110633473917    59.4963270051883     0.864474746936593    -25.8270019279434    0.864474746936593    -25.8270019279434    0.437110633473917    59.4963270051883     
4.46793929326884     0.439310891197587    59.3773819315195     0.863389063110811    -25.96753119778      0.863389063110811    -25.96753119778      0.439310891197587    59.3773819315195     
4.49601113047992     0.441517144290912    59.2577762895962     0.862294070295109    -26.1086100403879    0.862294070295109    -26.1086100403879    0.441517144290912    59.2577762895962     
4.52425934162822     0.443729330614409    59.1375117890451     0.861189723487948    -26.2502373365686    0.861189723487948    -26.2502373365686    0.443729330614409    59.1375117890451     
4.55268503486229     0.445947386845552    59.0165901905679     0.860075978221938    -26.3924119126997    0.860075978221938    -26.3924119126997    0.445947386845552    59.0165901905679     
4.58128932529312     0.448171248476747    58.8950133063969     0.85895279058098     -26.5351325402948    0.85895279058098     -26.5351325402948    0.448171248476747    58.8950133063969     
4.61007333503789     0.450400849813658    58.7727830007389     0.857820117217579    -26.6783979355709    0.857820117217579    -26.6783979355709    0.450400849813658    58.7727830007389     
4.63903819326398     0.452636123973843    58.6499011902158     0.856677915370191    -26.8222067590228    0.856677915370191    -26.8222067590228    0.452636123973843    58.6499011902158     
4.66818503623329     0.454877002885793    58.526369844292      0.855526142880744    -26.9665576150086    0.855526142880744    -26.9665576150086    0.454877002885793    58.526369844292      
4.69751500734676     0.457123417288283    58.4021909856963     0.854364758212224    -27.1114490513414    0.854364758212224    -27.1114490513414    0.457123417288283    58.4021909856963     
4.72702925718931     0.459375296730118    58.2773666908334     0.853193720466328    -27.2568795588905    0.853193720466328    -27.2568795588905    0.459375296730118    58.2773666908334     
4.75672894357487     0.461632569570237    58.1518990901856     0.852012989401252    -27.4028475711935    0.852012989401252    -27.4028475711935    0.461632569570237    58.1518990901856     
4.78661523159191     0.463895162978203    58.0257903687056     0.850822525449506    -27.5493514640763    0.850822525449506    -27.5493514640763    0.463895162978203    58.0257903687056     
4.81668929364906     0.466163002935093    57.8990427661987     0.849622289735861    -27.6963895552848    0.849622289735861    -27.6963895552848    0.466163002935093    57.8990427661987     
4.84695230952113     0.468436014234738    57.7716585776949     0.848412244095271    -27.8439601041244    0.848412244095271    -27.8439601041244    0.468436014234738    57.7716585776949     
4.87740546639543     0.470714120485426    57.6436401538088     0.847192351090945    -27.9920613111144    0.847192351090945    -27.9920613111144    0.470714120485426    57.6436401538088     
4.90804995891827     0.472997244111954    57.5149899010914     0.845962574032397    -28.1406913176486    0.845962574032397    -28.1406913176486    0.472997244111954    57.5149899010914     
4.93888698924189     0.475285306358109    57.385710282368      0.844722876993556    -28.2898482056702    0.844722876993556    -28.2898482056702    0.475285306358109    57.385710282368      
4.96991776707157     0.477578227289592    57.2558038170647     0.843473224830939    -28.4395299973581    0.843473224830939    -28.4395299973581    0.477578227289592    57.2558038170647     
5.00114350971312     0.479875925797318    57.1252730815249     0.842213583201782    -28.5897346548234    0.842213583201782    -28.5897346548234    0.479875925797318    57.1252730815249     
5.03256544212063     0.482178319601193    56.9941207093101     0.840943918582267    -28.7404600798203    0.840943918582267    -28.7404600798203    0.482178319601193    56.9941207093101     
5.06418479694448     0.4844853252543      56.8623493914909     0.839664198285681    -28.8917041134691    0.839664198285681    -28.8917041134691    0.4844853252543      56.8623493914909     
5.09600281457978     0.486796858147499    56.729961876925      0.838374390480587    -29.0434645359893    0.838374390480587    -29.0434645359893    0.486796858147499    56.729961876925      
5.12802074321494     0.489112832514556    56.5969609725188     0.837074464209063    -29.1957390664517    0.837074464209063    -29.1957390664517    0.489112832514556    56.5969609725188     
5.16023983888068     0.491433161437618    56.4633495434786     0.835764389404804    -29.3485253625377    0.835764389404804    -29.3485253625377    0.491433161437618    56.4633495434786     
5.19266136549933     0.493757756853206    56.3291305135482     0.834444136911238    -29.5018210203159    0.834444136911238    -29.5018210203159    0.493757756853206    56.3291305135482     
5.22528659493433     0.496086529558673    56.1943068652285     0.833113678499667    -29.6556235740342    0.833113678499667    -29.6556235740342    0.496086529558673    56.1943068652285     
5.25811680704022     0.498419389219068    56.0588816399869     0.831772986887233    -29.809930495921     0.831772986887233    -29.809930495921     0.498419389219068    56.0588816399869     
5.29115328971277     0.500756244374544    55.9228579384485     0.830422035754943    -29.9647391960078    0.830422035754943    -29.9647391960078    0.500756244374544    55.9228579384485     
5.32439733893955     0.503097002448168    55.786238920575      0.829060799765552    -30.1200470219615    0.829060799765552    -30.1200470219615    0.503097002448168    55.786238920575      
5.35785025885075     0.505441569754253    55.6490278058256     0.827689254581392    -30.2758512589351    0.827689254581392    -30.2758512589351    0.505441569754253    55.6490278058256     
5.39151336177034     0.50778985150715     55.5112278733041     0.8263073768821      -30.432149129433     0.8263073768821      -30.432149129433     0.50778985150715     55.5112278733041     
5.42538796826757     0.510141751830511    55.3728424618888     0.824915144382273    -30.5889377931921    0.824915144382273    -30.5889377931921    0.510141751830511    55.3728424618888     
5.45947540720874     0.512497173767071    55.2338749703465     0.82351253584897     -30.7462143470795    0.82351253584897     -30.7462143470795    0.512497173767071    55.2338749703465     
5.49377701580937     0.514856019288867    55.0943288574306     0.822099531119102    -30.9039758250064    0.822099531119102    -30.9039758250064    0.514856019288867    55.0943288574306     
5.52829413968661     0.517218189307999    54.9542076419606     0.820676111116744    -31.0622191978593    0.820676111116744    -31.0622191978593    0.517218189307999    54.9542076419606     
5.56302813291209     0.519583583687849    54.8135149028855     0.819242257870224    -31.2209413734481    0.819242257870224    -31.2209413734481    0.519583583687849    54.8135149028855     
5.59798035806498     0.521952101254792    54.6722542793313     0.817797954529081    -31.3801391964704    0.817797954529081    -31.3801391964704    0.521952101254792    54.6722542793313     
5.63315218628547     0.524323639810415    54.5304294706274     0.816343185380897    -31.5398094484949    0.816343185380897    -31.5398094484949    0.524323639810415    54.5304294706274     
5.66854499732856     0.526698096144247    54.3880442363173     0.814877935867921    -31.699948847963     0.814877935867921    -31.699948847963     0.526698096144247    54.3880442363173     
5.70416017961817     0.529075366046922    54.2451023961527     0.81340219260347     -31.860554050205     0.81340219260347     -31.860554050205     0.529075366046922    54.2451023961527     
5.73999913030164     0.53145534432393     54.1016078300646     0.811915943388205    -32.0216216474801    0.811915943388205    -32.0216216474801    0.53145534432393     54.1016078300646     
5.77606325530448     0.533837924809774    53.9575644781202     0.810419177226134    -32.1831481690296    0.810419177226134    -32.1831481690296    0.533837924809774    53.9575644781202     
5.8123539693856      0.536223000382703    53.812976340458      0.808911884340403    -32.3451300811529    0.808911884340403    -32.3451300811529    0.536223000382703    53.812976340458      
5.84887269619274     0.53861046297987     53.6678474772058     0.807394056188882    -32.5075637873       0.807394056188882    -32.5075637873       0.53861046297987     53.6678474772058     
5.88562086831836     0.541000203613043    53.5221820083784     0.80586568547947     -32.6704456281843    0.80586568547947     -32.6704456281843    0.541000203613043    53.5221820083784     
5.92259992735582     0.543392112384776    53.3759841137551     0.804326766185171    -32.8337718819146    0.804326766185171    -32.8337718819146    0.543392112384776    53.3759841137551     
5.95981132395594     0.545786078505076    53.2292580327392     0.802777293558852    -32.9975387641471    0.802777293558852    -32.9975387641471    0.545786078505076    53.2292580327392     
5.99725651788391     0.548181990308576    53.082008064196      0.801217264147775    -33.1617424282559    0.801217264147775    -33.1617424282559    0.548181990308576    53.082008064196      
6.03493697807655     0.550579735272176    52.9342385662723     0.799646675807821    -33.3263789655251    0.799646675807821    -33.3263789655251    0.550579735272176    52.9342385662723     
6.07285418269993     0.552979200033187    52.785953956193      0.798065527717371    -33.4914444053606    0.798065527717371    -33.4914444053606    0.552979200033187    52.785953956193      
6.11100961920736     0.555380270407933    52.6371587100412     0.796473820390919    -33.6569347155206    0.796473820390919    -33.6569347155206    0.555380270407933    52.6371587100412     
6.14940478439776     0.557782831410854    52.4878573625146     0.794871555692332    -33.8228458023687    0.794871555692332    -33.8228458023687    0.557782831410854    52.4878573625146     
6.18804118447435     0.560186767274075    52.3380545066618     0.793258736847769    -33.9891735111466    0.793258736847769    -33.9891735111466    0.560186767274075    52.3380545066618     
6.22692033510376     0.562591961467448    52.1877547935985     0.791635368458263    -34.155913626268     0.791635368458263    -34.155913626268     0.562591961467448    52.1877547935985     
6.26604376147545     0.564998296719039    52.0369629322031     0.790001456511928    -34.3230618716317    0.790001456511928    -34.3230618716317    0.564998296719039    52.0369629322031     
6.3054129983616      0.567405655036112    51.8856836887899     0.788357008395794    -34.490613910958     0.788357008395794    -34.490613910958     0.567405655036112    51.8856836887899     
6.34502959017728     0.569813917726532    51.7339218867625     0.786702032907256    -34.6585653481438    0.786702032907256    -34.6585653481438    0.569813917726532    51.7339218867625     
6.38489509104102     0.57222296542064     51.5816824062443     0.785036540265141    -34.8269117276412    0.785036540265141    -34.8269117276412    0.57222296542064     51.5816824062443     
6.42501106483582     0.574632678093552    51.428970183691      0.783360542120342    -34.9956485348542    0.783360542120342    -34.9956485348542    0.574632678093552    51.428970183691      
6.46537908527047     0.577042935087917    51.2757902114772     0.781674051566048    -35.1647711965598    0.781674051566048    -35.1647711965598    0.577042935087917    51.2757902114772     
6.5060007359413      0.579453615137085    51.1221475374653     0.779977083147552    -35.3342750813486    0.779977083147552    -35.3342750813486    0.579453615137085    51.1221475374653     
6.54687761039429     0.581864596388694    50.9680472645521     0.778269652871613    -35.5041555000861    0.778269652871613    -35.5041555000861    0.581864596388694    50.9680472645521     
6.58801131218758     0.584275756428677    50.8134945501933     0.776551778215348    -35.6744077063963    0.776551778215348    -35.6744077063963    0.584275756428677    50.8134945501933     
6.62940345495441     0.5866869723057      50.6584946059052     0.774823478134708    -35.8450268971682    0.774823478134708    -35.8450268971682    0.5866869723057      50.6584946059052     
6.67105566246636     0.58909812055593     50.50305269675       0.773084773072442    -36.0160082130788    0.773084773072442    -36.0160082130788    0.58909812055593     50.50305269675       
6.71296956869713     0.59150907722826     50.3471741407938     0.771335684965595    -36.1873467391425    0.771335684965595    -36.1873467391425    0.59150907722826     50.3471741407938     
6.75514681788655     0.59391971790988     50.1908643085461     0.769576237252543    -36.3590375052798    0.769576237252543    -36.3590375052798    0.59391971790988     50.1908643085461     
6.79758906460515     0.5963299177522      50.0341286223784     0.767806454879467    -36.5310754869052    0.767806454879467    -36.5310754869052    0.5963299177522      50.0341286223784     
6.84029797381905     0.598739551497172    49.8769725559211     0.766026364306394    -36.7034556055393    0.766026364306394    -36.7034556055393    0.598739551497172    49.8769725559211     
6.88327522095524     0.601148493503911    49.7194016334377     0.764235993512656    -36.8761727294401    0.764235993512656    -36.8761727294401    0.601148493503911    49.7194016334377     
6.92652249196737     0.603556617775719    49.5614214291796     0.762435372001884    -37.0492216742572    0.762435372001884    -37.0492216742572    0.603556617775719    49.5614214291796     
6.97004148340182     0.605963797987333    49.4030375667205     0.760624530806394    -37.2225972037025    0.760624530806394    -37.2225972037025    0.605963797987333    49.4030375667205     
7.0138339024643      0.6083699075126      49.2442557182673     0.758803502491112    -37.3962940302473    0.758803502491112    -37.3962940302473    0.6083699075126      49.2442557182673     
7.0579014670868      0.610774819452366    49.0850816039528     0.756972321156901    -37.5703068158359    0.756972321156901    -37.5703068158359    0.610774819452366    49.0850816039528     
7.102245905995       0.6131784066627      48.9255209911071     0.755131022443324    -37.7446301726206    0.755131022443324    -37.7446301726206    0.6131784066627      48.9255209911071     
7.14686895877607     0.615580541783374    48.7655796935072     0.753279643530898    -37.9192586637189    0.753279643530898    -37.9192586637189    0.615580541783374    48.7655796935072     
7.19177237594693     0.617981097266616    48.6052635706088     0.751418223142696    -38.094186803987     0.751418223142696    -38.094186803987     0.617981097266616    48.6052635706088     
7.23695791902288     0.620379945406117    48.4445785267551     0.74954680154546     -38.2694090608178    0.74954680154546     -38.2694090608178    0.620379945406117    48.4445785267551     
7.28242736058676     0.622776958366245    48.2835305103699     0.747665420550062    -38.4449198549538    0.747665420550062    -38.4449198549538    0.622776958366245    48.2835305103699     
7.32818248435845     0.625172008211514    48.1221255131261     0.745774123511414    -38.6207135613231    0.745774123511414    -38.6207135613231    0.625172008211514    48.1221255131261     
7.37422508526485     0.62756496693627     47.9603695690978     0.74387295532778     -38.7967845098942    0.74387295532778     -38.7967845098942    0.62756496693627     47.9603695690978     
7.4205569695103      0.629955706494516    47.7982687538935     0.741961962439461    -38.9731269865473    0.741961962439461    -38.9731269865473    0.629955706494516    47.7982687538935     
7.46717995464742     0.632344098829964    47.6358291837691     0.740041192826937    -39.1497352339666    0.740041192826937    -39.1497352339666    0.632344098829964    47.6358291837691     
7.51409586964844     0.634730015906245    47.4730570147222     0.73811069600832     -39.3266034525512    0.73811069600832     -39.3266034525512    0.634730015906245    47.4730570147222     
7.56130655497691     0.63711332973725     47.3099584415693     0.736170523036288    -39.5037258013427    0.736170523036288    -39.5037258013427    0.63711332973725     47.3099584415693     
7.60881386265994     0.639493912417604    47.1465396970045     0.734220726494324    -39.6810963989707    0.734220726494324    -39.6810963989707    0.639493912417604    47.1465396970045     
7.6566196563608      0.641871636153273    46.9828070506403     0.732261360492395    -39.8587093246171    0.732261360492395    -39.8587093246171    0.641871636153273    46.9828070506403     
7.70472581145211     0.64424637329228     46.8187668080295     0.73029248066198     -40.0365586189979    0.73029248066198     -40.0365586189979    0.64424637329228     46.8187668080295     
7.75313421508931     0.646617996355465    46.6544253096738     0.728314144150483    -40.2146382853589    0.728314144150483    -40.2146382853589    0.646617996355465    46.6544253096738     
7.80184676628479     0.64898637806736     46.4897889300116     0.726326409615055    -40.3929422904918    0.726326409615055    -40.3929422904918    0.64898637806736     46.4897889300116     
7.85086537598231     0.651351391387071    46.3248640763939     0.724329337215735    -40.5714645657617    0.724329337215735    -40.5714645657617    0.651351391387071    46.3248640763939     
7.900191967132       0.653712909539255    46.1596571880388     0.722322988608022    -40.7501990081565    0.722322988608022    -40.7501990081565    0.653712909539255    46.1596571880388     
7.94982847476578     0.656070806045052    45.994174734976      0.720307426934801    -40.9291394813453    0.720307426934801    -40.9291394813453    0.656070806045052    45.994174734976      
7.9997768460733      0.658424954753062    45.8284232169725     0.718282716817604    -41.1082798167561    0.718282716817604    -41.1082798167561    0.658424954753062    45.8284232169725     
8.05003904047828     0.660775229870302    45.6624091624447     0.71624892434737     -41.2876138146658    0.71624892434737     -41.2876138146658    0.660775229870302    45.6624091624447     
8.10061702971542     0.663121505993099    45.4961391273577     0.714206117074418    -41.4671352453047    0.714206117074418    -41.4671352453047    0.663121505993099    45.4961391273577     
8.15151279790772     0.665463658137989    45.3296196941075     0.712154363997946    -41.6468378499757    0.712154363997946    -41.6468378499757    0.665463658137989    45.3296196941075     
8.20272834164433     0.667801561772491    45.1628574703944     0.710093735554828    -41.826715342184     0.710093735554828    -41.826715342184     0.667801561772491    45.1628574703944     
8.25426567005885     0.670135092845854    44.9958590880778     0.708024303607828    -42.0067614087831    0.708024303607828    -42.0067614087831    0.670135092845854    44.9958590880778     
8.3061268049082      0.672464127819656    44.8286312020246     0.705946141433195    -42.1869697111293    0.705946141433195    -42.1869697111293    0.672464127819656    44.8286312020246     
8.35831378065187     0.674788543698304    44.6611804889418     0.703859323707655    -42.36733388625      0.703859323707655    -42.36733388625      0.674788543698304    44.6611804889418     
8.41082864453175     0.677108218059427    44.4935136461978     0.70176392649479     -42.5478475480239    0.70176392649479     -42.5478475480239    0.677108218059427    44.4935136461978     
8.46367345665247     0.679423029084058    44.3256373906354     0.69966002723085     -42.7285042883689    0.69966002723085     -42.7285042883689    0.679423029084058    44.3256373906354     
8.51685029006219     0.681732855586697    44.1575584573722     0.697547704709919    -42.9092976784428    0.697547704709919    -42.9092976784428    0.681732855586697    44.1575584573722     
8.57036123083392     0.684037577045184    43.98928359859       0.695427039068534    -43.090221269854     0.695427039068534    -43.090221269854     0.684037577045184    43.98928359859       
8.62420837814735     0.686337073630321    43.8208195823202     0.693298111769729    -43.271268595877     0.693298111769729    -43.271268595877     0.686337073630321    43.8208195823202     
8.67839384437124     0.688631226235344    43.6521731912126     0.691161005586448    -43.4524331726831    0.691161005586448    -43.4524331726831    0.688631226235344    43.6521731912126     
8.73291975514623     0.690919916505109    43.4833512213029     0.689015804584465    -43.6337085005729    0.689015804584465    -43.6337085005729    0.690919916505109    43.4833512213029     
8.78778824946826     0.693203026865028    43.3143604807697     0.686862594104689    -43.8150880652191    0.686862594104689    -43.8150880652191    0.693203026865028    43.3143604807697     
8.84300147977248     0.69548044054978     43.1452077886819     0.684701460744929    -43.9965653389179    0.684701460744929    -43.9965653389179    0.69548044054978     43.1452077886819     
8.89856161201767     0.697752041631657    42.9758999737463     0.682532492341135    -44.1781337818409    0.682532492341135    -44.1781337818409    0.697752041631657    42.9758999737463     
8.95447082577124     0.700017715048705    42.8064438730402     0.680355777948084    -44.3597868433007    0.680355777948084    -44.3597868433007    0.700017715048705    42.8064438730402     
9.01073131429469     0.702277346632455    42.6368463307471     0.678171407819535    -44.5415179630139    0.678171407819535    -44.5415179630139    0.702277346632455    42.6368463307471     
9.06734528462968     0.704530823135384    42.4671141968824     0.67597947338789     -44.723320572374     0.67597947338789     -44.723320572374     0.704530823135384    42.4671141968824     
9.12431495768461     0.706778032257993    42.2972543260165     0.673780067243328    -44.905188095725     0.673780067243328    -44.905188095725     0.706778032257993    42.2972543260165     
9.18164256832172     0.709018862675541    42.1272735759941     0.671573283112446    -45.0871139516406    0.671573283112446    -45.0871139516406    0.709018862675541    42.1272735759941     
9.23933036544478     0.711253204064399    41.9571788066496     0.669359215836437    -45.2690915542063    0.669359215836437    -45.2690915542063    0.711253204064399    41.9571788066496     
9.29738061208733     0.713480947127965    41.786976878524      0.66713796134876     -45.4511143142983    0.66713796134876     -45.4511143142983    0.713480947127965    41.786976878524      
9.3557955855014      0.715701983622264    41.6166746515724     0.664909616652368    -45.6331756408737    0.664909616652368    -45.6331756408737    0.715701983622264    41.6166746515724     
9.4145775772469      0.717916206381024    41.4462789838784     0.66267427979649     -45.8152689422518    0.66267427979649     -45.8152689422518    0.717916206381024    41.4462789838784     
9.47372889328151     0.720123509340379    41.2757967303628     0.660432049852959    -45.9973876274017    0.660432049852959    -45.9973876274017    0.720123509340379    41.2757967303628     
9.53325185405109     0.722323787563117    41.1052347414929     0.658183026892132    -46.1795251072286    0.658183026892132    -46.1795251072286    0.722323787563117    41.1052347414929     
9.59314879458077     0.724516937262432    40.9345998619947     0.655927311958371    -46.361674795857     0.655927311958371    -46.361674795857     0.724516937262432    40.9345998619947     
9.65342206456653     0.726702855825235    40.7638989295637     0.653665007045174    -46.5438301119142    0.653665007045174    -46.5438301119142    0.726702855825235    40.7638989295637     
9.71407402846734     0.728881441834958    40.593138773579      0.65139621506987     -46.7259844798121    0.65139621506987     -46.7259844798121    0.728881441834958    40.593138773579      
9.77510706559798     0.731052595093892    40.4223262138172     0.649121039847948    -46.9081313310263    0.649121039847948    -46.9081313310263    0.731052595093892    40.4223262138172     
9.83652357022233     0.733216216644936    40.2514680591753     0.646839586067088    -47.0902641053677    0.646839586067088    -47.0902641053677    0.733216216644936    40.2514680591753     
9.89832595164731     0.735372208792938    40.0805711063884     0.644551959260756    -47.2723762522587    0.644551959260756    -47.2723762522587    0.735372208792938    40.0805711063884     
9.96051663431739     0.737520475125383    39.9096421387602     0.642258265781563    -47.4544612319951    0.642258265781563    -47.4544612319951    0.737520475125383    39.9096421387602     
10.0230980579097     0.739660920532637    39.7386879248913     0.639958612774233    -47.6365125170107    0.639958612774233    -47.6365125170107    0.739660920532637    39.7386879248913     
10.0860726774298     0.741793451227576    39.5677152174174     0.637653108148337    -47.8185235931319    0.637653108148337    -47.8185235931319    0.741793451227576    39.5677152174174     
10.1494429633078     0.743917974764679    39.3967307517515     0.635341860550688    -48.0004879608274    0.635341860550688    -48.0004879608274    0.743917974764679    39.3967307517515     
10.2132114014954     0.746034400058535    39.2257412448326     0.633024979337538    -48.1823991364502    0.633024979337538    -48.1823991364502    0.746034400058535    39.2257412448326     
10.2773804935637     0.748142637401794    39.0547533938815     0.630702574546428    -48.3642506534742    0.630702574546428    -48.3642506534742    0.748142637401794    39.0547533938815     
10.3419527568006     0.7502425984825      38.8837738751647     0.62837475686791     -48.5460360637205    0.62837475686791     -48.5460360637205    0.7502425984825      38.8837738751647     
10.4069307243104     0.752334196400841    38.7128093427662     0.626041637616957    -48.7277489385752    0.626041637616957    -48.7277489385752    0.752334196400841    38.7128093427662     
10.4723169451124     0.754417345685314    38.5418664273669     0.623703328704239    -48.9093828702008    0.623703328704239    -48.9093828702008    0.754417345685314    38.5418664273669     
10.5381139842416     0.756491962308245    38.3709517350352     0.621359942607159    -49.0909314727345    0.621359942607159    -49.0909314727345    0.756491962308245    38.3709517350352     
10.6043244228488     0.758557963700724    38.2000718460263     0.619011592340762    -49.2723883834782    0.619011592340762    -49.2723883834782    0.758557963700724    38.2000718460263     
10.670950858302      0.760615268766901    38.0292333135912     0.616658391428461    -49.453747264077     0.616658391428461    -49.453747264077     0.760615268766901    38.0292333135912     
10.7379959042884     0.762663797897664    37.8584426627979     0.614300453872616    -49.6350018016871    0.614300453872616    -49.6350018016871    0.762663797897664    37.8584426627979     
10.8054621909169     0.764703472983689    37.6877063893621     0.611937894125046    -49.816145710132     0.611937894125046    -49.816145710132     0.764703472983689    37.6877063893621     
10.8733523648212     0.766734217427841    37.5170309584922     0.609570827057364    -49.9971727310446    0.609570827057364    -49.9971727310446    0.766734217427841    37.5170309584922     
10.9416690892637     0.768755956156944    37.3464228037443     0.607199367931282    -50.178076634998     0.607199367931282    -50.178076634998     0.768755956156944    37.3464228037443     
11.0104150442398     0.77076861563291     37.1758883258913     0.604823632368808    -50.3588512226237    0.604823632368808    -50.3588512226237    0.77076861563291     37.1758883258913     
11.0795929265835     0.772772123863249    37.0054338918026     0.602443736322396    -50.5394903257159    0.602443736322396    -50.5394903257159    0.772772123863249    37.0054338918026     
11.1492054500725     0.77476641041085     36.8350658333438     0.600059796045083    -50.7199878083174    0.600059796045083    -50.7199878083174    0.77476641041085     36.8350658333438     
11.2192553455352     0.776751406403223    36.6647904462829     0.597671928060559    -50.9003375677975    0.597671928060559    -50.9003375677975    0.776751406403223    36.6647904462829     
11.2897453609578     0.778727044541006    36.4946139892157     0.595280249133253    -51.0805335359101    0.595280249133253    -51.0805335359101    0.778727044541006    36.4946139892157     
11.3606782615916     0.780693259105863    36.3245426825057     0.592884876238451    -51.2605696798376    0.592884876238451    -51.2605696798376    0.780693259105863    36.3245426825057     
11.4320568300621     0.782649985967726    36.1545827072369     0.590485926532394    -51.4404400032194    0.590485926532394    -51.4404400032194    0.782649985967726    36.1545827072369     
11.503883866478      0.784597162591365    35.9847402041869     0.588083517322451    -51.620138547162     0.588083517322451    -51.620138547162     0.784597162591365    35.9847402041869     
11.5761621885405     0.786534728042348    35.8150212728104     0.585677766037344    -51.7996593912362    0.585677766037344    -51.7996593912362    0.786534728042348    35.8150212728104     
11.6488946316548     0.788462622992301    35.6454319702453     0.583268790197436    -51.9789966544511    0.583268790197436    -51.9789966544511    0.788462622992301    35.6454319702453     
11.7220840490405     0.790380789723585    35.4759783103299     0.580856707385124    -52.158144496218     0.580856707385124    -52.158144496218     0.790380789723585    35.4759783103299     
11.7957333118438     0.792289172133252    35.3066662626431     0.578441635215314    -52.3370971172889    0.578441635215314    -52.3370971172889    0.792289172133252    35.3066662626431     
11.8698453092504     0.79418771573643     35.1375017515569     0.576023691306049    -52.5158487606825    0.576023691306049    -52.5158487606825    0.79418771573643     35.1375017515569     
11.9444229485983     0.796076367669033    34.9684906553101     0.57360299324923     -52.6943937125889    0.57360299324923     -52.6943937125889    0.796076367669033    34.9684906553101     
12.0194691554925     0.797955076689842    34.7996388050983     0.571179658581521    -52.8727263032564    0.571179658581521    -52.8727263032564    0.797955076689842    34.7996388050983     
12.0949868739192     0.799823793181944    34.630951984185      0.568753804755411    -53.0508409078573    0.568753804755411    -53.0508409078573    0.799823793181944    34.630951984185      
12.1709790663616     0.801682469153561    34.4624359270285     0.566325549110438    -53.2287319473362    0.566325549110438    -53.2287319473362    0.801682469153561    34.4624359270285     
12.2474487139159     0.803531058238255    34.2940963184293     0.563895008844616    -53.406393889238     0.563895008844616    -53.406393889238     0.803531058238255    34.2940963184293     
12.3243988164086     0.805369515694513    34.1259387926956     0.561462300986077    -53.5838212485166    0.561462300986077    -53.5838212485166    0.805369515694513    34.1259387926956     
12.4018323925138     0.8071977984047      33.9579689328316     0.559027542364925    -53.76100858832      0.559027542364925    -53.76100858832      0.8071977984047      33.9579689328316     
12.4797524798718     0.809015864873452    33.79019226974       0.556590849585306    -53.93795052076      0.556590849585306    -53.93795052076      0.809015864873452    33.79019226974       
12.5581621352082     0.81082367522542     33.6226142814502     0.554152338997768    -54.1146417076562    0.554152338997768    -54.1146417076562    0.81082367522542     33.6226142814502     
12.6370644344541     0.812621191202466    33.4552403923619     0.551712126671819    -54.2910768612628    0.551712126671819    -54.2910768612628    0.812621191202466    33.4552403923619     
12.7164624728662     0.814408376160234    33.2880759725121     0.549270328368815    -54.4672507449721    0.549270328368815    -54.4672507449721    0.814408376160234    33.2880759725121     
12.7963593651488     0.816185195064176    33.1211263368612     0.546827059515101    -54.643158173997     0.546827059515101    -54.643158173997     0.816185195064176    33.1211263368612     
12.8767582455754     0.817951614484997    32.954396744599      0.544382435175444    -54.8187940160336    0.544382435175444    -54.8187940160336    0.817951614484997    32.954396744599      
12.9576622681123     0.81970760259352     32.7878923984739     0.541936570026778    -54.9941531918986    0.541936570026778    -54.9941531918986    0.81970760259352     32.7878923984739     
13.0390746065419     0.821453129155033    32.6216184441392     0.53948957833227     -55.1692306761501    0.53948957833227     -55.1692306761501    0.821453129155033    32.6216184441392     
13.1209984545874     0.82318816552306     32.4555799695241     0.53704157391572     -55.3440214976811    0.53704157391572     -55.3440214976811    0.82318816552306     32.4555799695241     
13.2034370260377     0.824912684632611    32.2897820042238     0.534592670136279    -55.5185207402938    0.534592670136279    -55.5185207402938    0.824912684632611    32.2897820042238     
13.2863935548742     0.826626660992915    32.1242295189095     0.532142979863535    -55.692723543253     0.532142979863535    -55.692723543253     0.826626660992915    32.1242295189095     
13.3698712953969     0.828330070679614    31.9589274247621     0.529692615452942    -55.8666251018144    0.529692615452942    -55.8666251018144    0.828330070679614    31.9589274247621     
13.4538735223526     0.830022891326456    31.7938805729265     0.527241688721625    -56.040220667731     0.527241688721625    -56.040220667731     0.830022891326456    31.7938805729265     
13.5384035310631     0.831705102116523    31.6290937539845     0.524790310924563    -56.2135055497405    0.524790310924563    -56.2135055497405    0.831705102116523    31.6290937539845     
13.6234646375546     0.833376683772916    31.4645716974529     0.522338592731152    -56.3864751140259    0.522338592731152    -56.3864751140259    0.833376683772916    31.4645716974529     
13.7090601786875     0.835037618549017    31.3003190712999     0.519886644202153    -56.5591247846565    0.519886644202153    -56.5591247846565    0.835037618549017    31.3003190712999     
13.7951935122878     0.836687890218249    31.1363404814847     0.517434574767069    -56.7314500440041    0.517434574767069    -56.7314500440041    0.836687890218249    31.1363404814847     
13.8818680172784     0.838327484063412    30.9726404715154     0.514982493201875    -56.9034464331415    0.514982493201875    -56.9034464331415    0.838327484063412    30.9726404715154     
13.9690870938119     0.839956386865551    30.8092235220319     0.512530507607238    -57.0751095522122    0.512530507607238    -57.0751095522122    0.839956386865551    30.8092235220319     
14.0568541634039     0.841574586892398    30.6460940504076     0.510078725387095    -57.2464350607816    0.510078725387095    -57.2464350607816    0.841574586892398    30.6460940504076     
14.145172669067      0.843182073886404    30.4832564103727     0.50762725322768     -57.4174186781649    0.50762725322768     -57.4174186781649    0.843182073886404    30.4832564103727     
14.2340460754463     0.844778839052354    30.3207148916574     0.505176197077002    -57.5880561837337    0.505176197077002    -57.5880561837337    0.844778839052354    30.3207148916574     
14.323477868955      0.846364875044586    30.1584737196585     0.502725662124733    -57.7583434171977    0.502725662124733    -57.7583434171977    0.846364875044586    30.1584737196585     
14.4134715579112     0.847940175953812    29.996537055125      0.500275752782564    -57.9282762788658    0.500275752782564    -57.9282762788658    0.847940175953812    29.996537055125      
14.5040306726758     0.849504737293598    29.8349089938642     0.497826572664988    -58.0978507298862    0.497826572664988    -58.0978507298862    0.849504737293598    29.8349089938642     
14.5951587657905     0.85105855598644     29.67359356647       0.495378224570567    -58.2670627924605    0.495378224570567    -58.2670627924605    0.85105855598644     29.67359356647       
14.6868594121176     0.852601630349529    29.5125947380692     0.492930810463613    -58.4359085500412    0.492930810463613    -58.4359085500412    0.852601630349529    29.5125947380692     
14.7791362089801     0.85413396008014     29.3519164080921     0.490484431456382    -58.6043841475012    0.490484431456382    -58.6043841475012    0.85413396008014     29.3519164080921     
14.8719927763028     0.855655546240736    29.1915624100579     0.488039187791684    -58.7724857912871    0.488039187791684    -58.7724857912871    0.855655546240736    29.1915624100579     
14.9654327567541     0.857166391243723    29.0315365113853     0.485595178825984    -58.9402097495464    0.485595178825984    -58.9402097495464    0.857166391243723    29.0315365113853     
15.0594598158894     0.858666498835917    28.8718424132205     0.483152503012982    -59.1075523522351    0.483152503012982    -59.1075523522351    0.858666498835917    28.8718424132205     
15.1540776422943     0.86015587408274     28.7124837502835     0.48071125788763     -59.2745099912048    0.48071125788763     -59.2745099912048    0.86015587408274     28.7124837502835     
15.24928994773       0.8616345233521      28.5534640907368     0.478271540050658    -59.4410791202664    0.478271540050658    -59.4410791202664    0.8616345233521      28.5534640907368     
15.345100467278      0.863102454298038    28.3947869360727     0.475833445153563    -59.6072562552323    0.475833445153563    -59.6072562552323    0.863102454298038    28.3947869360727     
15.4415129594876     0.864559675844112    28.2364557210177     0.473397067884059    -59.773037973941     0.473397067884059    -59.773037973941     0.864559675844112    28.2364557210177     
15.5385312065225     0.866006198166533    28.0784738134584     0.470962501952021    -59.9384209162562    0.470962501952021    -59.9384209162562    0.866006198166533    28.0784738134584     
15.6361590143099     0.867442032677084    27.9208445143839     0.468529840075907    -60.1034017840491    0.468529840075907    -60.1034017840491    0.867442032677084    27.9208445143839     
15.7344002126891     0.86886719200582     27.763571057848      0.466099173969639    -60.267977341158     0.466099173969639    -60.267977341158     0.86886719200582     27.763571057848      
15.8332586555623     0.870281689983555    27.6066566109498     0.463670594329985    -60.4321444133276    0.463670594329985    -60.4321444133276    0.870281689983555    27.6066566109498     
15.9327382210455     0.87168554162416     27.4501042738303     0.461244190824386    -60.5958998881292    0.461244190824386    -60.5958998881292    0.87168554162416     27.4501042738303     
16.0328428116208     0.873078763106684    27.2939170796901     0.458820052079296    -60.7592407148596    0.458820052079296    -60.7592407148596    0.873078763106684    27.2939170796901     
16.1335763542893     0.874461371757304    27.1380979948204     0.456398265668968    -60.9221639044212    0.456398265668968    -60.9221639044212    0.874461371757304    27.1380979948204     
16.2349428007253     0.87583338603112     26.9826499186544     0.453978918104717    -61.0846665291824    0.453978918104717    -61.0846665291824    0.87583338603112     26.9826499186544     
16.3369461274311     0.877194825493786    26.8275756838348     0.451562094824662    -61.2467457228175    0.451562094824662    -61.2467457228175    0.877194825493786    26.8275756838348     
16.4395903358935     0.878545710803034    26.6728780562973     0.44914788018394     -61.4083986801283    0.44914788018394     -61.4083986801283    0.878545710803034    26.6728780562973     
16.5428794527401     0.879886063690055    26.5185597353707     0.446736357445361    -61.5696226568467    0.446736357445361    -61.5696226568467    0.879886063690055    26.5185597353707     
16.6468175298978     0.881215906940776    26.3646233538932     0.444327608770563    -61.7304149694192    0.444327608770563    -61.7304149694192    0.881215906940776    26.3646233538932     
16.7514086447516     0.882535264377021    26.2110714783456     0.441921715211597    -61.8907729947693    0.441921715211597    -61.8907729947693    0.882535264377021    26.2110714783456     
16.8566569003042     0.883844160837611    26.0579066089979     0.439518756702998    -62.0506941700468    0.439518756702998    -62.0506941700468    0.883844160837611    26.0579066089979     
16.9625664253377     0.885142622159351    25.9051311800721     0.437118812054268    -62.2101759923549    0.437118812054268    -62.2101759923549    0.885142622159351    25.9051311800721     
17.0691413745747     0.886430675157969    25.7527475599212     0.434721958942869    -62.3692160184602    0.434721958942869    -62.3692160184602    0.886430675157969    25.7527475599212     
17.176385928842      0.887708347608988    25.6007580512204     0.432328273907603    -62.5278118644862    0.432328273907603    -62.5278118644862    0.887708347608988    25.6007580512204     
17.2843042952342     0.888975668228554    25.4491648911745     0.429937832342478    -62.685961205588     0.429937832342478    -62.685961205588     0.888975668228554    25.4491648911745     
17.3929007072789     0.890232666654214    25.2979702517389     0.427550708490998    -62.8436617756093    0.427550708490998    -62.8436617756093    0.890232666654214    25.2979702517389     
17.5021794251028     0.891479373425683    25.147176239853      0.425166975440877    -63.0009113667244    0.425166975440877    -63.0009113667244    0.891479373425683    25.147176239853      
17.6121447355986     0.89271581996558     24.996784897689      0.422786705119199    -63.1577078290606    0.422786705119199    -63.1577078290606    0.89271581996558     24.996784897689      
17.7228009525934     0.89394203856015     24.8467982029128     0.420409968287996    -63.3140490703053    0.420409968287996    -63.3140490703053    0.89394203856015     24.8467982029128     
17.834152417018      0.895158062340001    24.6972180689569     0.418036834540236    -63.4699330552967    0.418036834540236    -63.4699330552967    0.895158062340001    24.6972180689569     
17.9462034970768     0.896363925260833    24.5480463453071     0.415667372296251    -63.6253578055977    0.415667372296251    -63.6253578055977    0.896363925260833    24.5480463453071     
18.0589585884197     0.897559662084206    24.3992848178006     0.413301648800545    -63.7803213990534    0.413301648800545    -63.7803213990534    0.897559662084206    24.3992848178006     
18.172422114314      0.898745308358304    24.2509352089361     0.410939730119019    -63.9348219693335    0.410939730119019    -63.9348219693335    0.898745308358304    24.2509352089361     
18.2865985258182     0.899920900398769    24.1029991781947     0.408581681136603    -64.0888577054585    0.408581681136603    -64.0888577054585    0.899920900398769    24.1029991781947     
18.4014923019567     0.901086475269544    23.9554783223737     0.406227565555262    -64.2424268513099    0.406227565555262    -64.2424268513099    0.901086475269544    23.9554783223737     
18.5171079498952     0.902242070763801    23.8083741759285     0.403877445892396    -64.395527705126     0.403877445892396    -64.395527705126     0.902242070763801    23.8083741759285     
18.633450005118      0.903387725384899    23.6616882113284     0.401531383479628    -64.5481586189817    0.401531383479628    -64.5481586189817    0.903387725384899    23.6616882113284     
18.7505230316053     0.904523478327434    23.5154218394187     0.399189438461948    -64.700317998254     0.399189438461948    -64.700317998254     0.904523478327434    23.5154218394187     
18.8683316220127     0.905649369458335    23.3695764097976     0.396851669797251    -64.8520043010707    0.396851669797251    -64.8520043010707    0.905649369458335    23.3695764097976     
18.9868803978512     0.906765439298072    23.224153211197      0.3945181352562      -65.0032160377475    0.3945181352562      -65.0032160377475    0.906765439298072    23.224153211197      
19.1061740096686     0.90787172900194     23.0791534718768     0.392188891422478    -65.1539517702088    0.392188891422478    -65.1539517702088    0.90787172900194     23.0791534718768     
19.2262171372317     0.908968280341425    22.9345783600274     0.389863993693376    -65.3042101113927    0.389863993693376    -65.3042101113927    0.908968280341425    22.9345783600274     
19.3470144897101     0.910055135685697    22.7904289841787     0.387543496280711    -65.4539897246448    0.387543496280711    -65.4539897246448    0.910055135685697    22.7904289841787     
19.468570805861      0.911132337983196    22.6467063936199     0.385227452212094    -65.6032893230948    0.385227452212094    -65.6032893230948    0.911132337983196    22.6467063936199     
19.5908908542148     0.912199930743341    22.5034115788257     0.382915913332521    -65.7521076690226    0.382915913332521    -65.7521076690226    0.912199930743341    22.5034115788257     
19.7139794332624     0.913257958018347    22.3605454718911     0.380608930306284    -65.9004435732062    0.380608930306284    -65.9004435732062    0.913257958018347    22.3605454718911     
19.8378413716435     0.914306464385188    22.2181089469736     0.378306552619198    -66.0482958942583    0.378306552619198    -66.0482958942583    0.914306464385188    22.2181089469736     
19.9624815283357     0.915345494927672    22.0761028207415     0.376008828581137    -66.19566353795      0.376008828581137    -66.19566353795      0.915345494927672    22.0761028207415     
20.0879047928453     0.916375095218677    21.9345278528297     0.37371580532886     -66.3425454565189    0.37371580532886     -66.3425454565189    0.916375095218677    21.9345278528297     
20.2141160853993     0.917395311302504    21.7933847463024     0.371427528829146    -66.4889406479641    0.371427528829146    -66.4889406479641    0.917395311302504    21.7933847463024     
20.3411203571382     0.918406189677396    21.6526741481212     0.369144043882213    -66.6348481553281    0.369144043882213    -66.6348481553281    0.918406189677396    21.6526741481212     
20.4689225903102     0.919407777278203    21.5123966496191     0.366865394125399    -66.7802670659653    0.366865394125399    -66.7802670659653    0.919407777278203    21.5123966496191     
20.5975277984667     0.920400121459205    21.3725527869812     0.364591622037136    -66.925196510796     0.364591622037136    -66.925196510796     0.920400121459205    21.3725527869812     
20.726941026659      0.921383269977094    21.2331430417294     0.362322768941178    -67.0696356635483    0.362322768941178    -67.0696356635483    0.921383269977094    21.2331430417294     
20.8571673516363     0.922357270974125    21.0941678412124     0.360058875011096    -67.213583739986     0.360058875011096    -67.213583739986     0.922357270974125    21.0941678412124     
20.9882118820447     0.923322172961436    20.9556275591014     0.357799979275018    -67.3570399971224    0.357799979275018    -67.3570399971224    0.923322172961436    20.9556275591014     
21.1200797586275     0.924278024802535    20.8175225158891     0.355546119620605    -67.5000037324217    0.355546119620605    -67.5000037324217    0.924278024802535    20.8175225158891     
21.2527761544273     0.925224875696969    20.6798529793941     0.353297332800288    -67.6424742829855    0.353297332800288    -67.6424742829855    0.925224875696969    20.6798529793941     
21.3863062749886     0.926162775164176    20.5426191652672     0.351053654436711    -67.7844510247277    0.351053654436711    -67.7844510247277    0.926162775164176    20.5426191652672     
21.5206753585619     0.927091773027508    20.4058212375049     0.34881511902841     -67.9259333715334    0.34881511902841     -67.9259333715334    0.927091773027508    20.4058212375049     
21.6558886763096     0.928011919398456    20.2694593089619     0.346581759955707    -68.0669207744067    0.346581759955707    -68.0669207744067    0.928011919398456    20.2694593089619     
21.7919515325124     0.928923264661047    20.1335334418705     0.344353609486814    -68.207412720601     0.344353609486814    -68.207412720601     0.928923264661047    20.1335334418705     
21.9288692647775     0.929825859456443    19.9980436483613     0.342130698784133    -68.3474087327392    0.342130698784133    -68.3474087327392    0.929825859456443    19.9980436483613     
22.0666472442481     0.930719754667733    19.8629898909861     0.339913057910759    -68.4869083679173    0.339913057910759    -68.4869083679173    0.930719754667733    19.8629898909861     
22.205290875814      0.931605001404914    19.7283720832443     0.337700715837172    -68.6259112167943    0.337700715837172    -68.6259112167943    0.931605001404914    19.7283720832443     
22.3448055983237     0.932481650990078    19.5941900901108     0.335493700448108    -68.7644169026674    0.335493700448108    -68.7644169026674    0.932481650990078    19.5941900901108     
22.4851968847976     0.933349754942787    19.4604437285667     0.333292038549606    -68.9024250805328    0.333292038549606    -68.9024250805328    0.933349754942787    19.4604437285667     
22.6264702426429     0.934209364965669    19.3271327681299     0.331095755876228    -69.0399354361317    0.331095755876228    -69.0399354361317    0.934209364965669    19.3271327681299     
22.7686312138696     0.935060532930196    19.1942569313893     0.328904877098434    -69.17694768498      0.328904877098434    -69.17694768498      0.935060532930196    19.1942569313893     
22.9116853753077     0.935903310862673    19.0618158945394     0.32671942583013     -69.313461571383     0.32671942583013     -69.313461571383     0.935903310862673    19.0618158945394     
23.0556383388263     0.936737750930447    18.9298092879149     0.324539424636337    -69.449476867436     0.324539424636337    -69.449476867436     0.936737750930447    18.9298092879149     
23.2004957515535     0.937563905428295    18.7982366965278     0.322364895041034    -69.5849933720047    0.322364895041034    -69.5849933720047    0.937563905428295    18.7982366965278     
23.346263296098      0.938381826765041    18.667097660605      0.32019585753512     -69.7200109096927    0.32019585753512     -69.7200109096927    0.938381826765041    18.667097660605      
23.4929466907723     0.939191567450379    18.5363916761244     0.318032331584512    -69.8545293297911    0.318032331584512    -69.8545293297911    0.939191567450379    18.5363916761244     
23.6405516898163     0.939993180081894    18.4061181953539     0.315874335638367    -69.9885485052094    0.315874335638367    -69.9885485052094    0.939993180081894    18.4061181953539     
23.789084083624      0.940786717332297    18.2762766273883     0.313721887137433    -70.1220683313887    0.313721887137433    -70.1220683313887    0.940786717332297    18.2762766273883     
23.9385496989699     0.941572231936885    18.1468663386867     0.311575002522486    -70.2550887251996    0.311575002522486    -70.2550887251996    0.941572231936885    18.1468663386867     
24.0889543992377     0.942349776681179    18.0178866536102     0.309433697242907    -70.3876096238168    0.309433697242907    -70.3876096238168    0.942349776681179    18.0178866536102     
24.2403040846507     0.9431194043888      17.8893368549594     0.307297985765348    -70.5196309835758    0.307297985765348    -70.5196309835758    0.9431194043888      17.8893368549594     
24.3926046925028     0.943881167909551    17.761216184508      0.305167881582481    -70.6511527788117    0.305167881582481    -70.6511527788117    0.943881167909551    17.761216184508      
24.5458621973919     0.94463512010769     17.6335238435399     0.303043397221851    -70.7821750006746    0.303043397221851    -70.7821750006746    0.94463512010769     17.6335238435399     
24.7000826114537     0.945381313850435    17.5062589933827     0.300924544254814    -70.9126976559233    0.300924544254814    -70.9126976559233    0.945381313850435    17.5062589933827     
24.8552719845979     0.946119801996664    17.3794207559405     0.298811333305561    -71.0427207656993    0.298811333305561    -71.0427207656993    0.946119801996664    17.3794207559405     
25.0114364047457     0.946850637385833    17.2530082142251     0.296703774060182    -71.1722443642757    0.296703774060182    -71.1722443642757    0.946850637385833    17.2530082142251     
25.1685819980681     0.947573872827091    17.1270204128863     0.294601875275852    -71.3012684977832    0.294601875275852    -71.3012684977832    0.947573872827091    17.1270204128863     
25.3267149292268     0.94828956108862     17.00145635874       0.292505644790029    -71.4297932229112    0.292505644790029    -71.4297932229112    0.94828956108862     17.00145635874       
25.4858414016155     0.948997754887155    16.8763150212946     0.290415089529754    -71.5578186055834    0.290415089529754    -71.5578186055834    0.948997754887155    16.8763150212946     
25.6459676576037     0.949698506877737    16.751595333276      0.288330215520976    -71.6853447196059    0.288330215520976    -71.6853447196059    0.949698506877737    16.751595333276      
25.8070999787812     0.950391869643657    16.6272961911489     0.286251027897936    -71.8123716452897    0.286251027897936    -71.8123716452897    0.950391869643657    16.6272961911489     
25.969244686205      0.951077895686601    16.5034164556384     0.284177530912601    -71.9388994680423    0.284177530912601    -71.9388994680423    0.951077895686601    16.5034164556384     
26.1324081406468     0.951756637417004    16.3799549522468     0.282109727944134    -72.0649282769301    0.282109727944134    -72.0649282769301    0.951756637417004    16.3799549522468     
26.2965967428427     0.952428147144604    16.2569104717695     0.280047621508392    -72.1904581632106    0.280047621508392    -72.1904581632106    0.952428147144604    16.2569104717695     
26.4618169337442     0.953092477069196    16.1342817708072     0.277991213267469    -72.3154892188304    0.277991213267469    -72.3154892188304    0.953092477069196    16.1342817708072     
26.6280751947713     0.953749679271575    16.0120675722768     0.275940504039257    -72.4400215348905    0.275940504039257    -72.4400215348905    0.953749679271575    16.0120675722768     
26.7953780480662     0.954399805704699    15.8902665659176     0.273895493807033    -72.5640552000764    0.273895493807033    -72.5640552000764    0.954399805704699    15.8902665659176     
26.9637320567493     0.95504290818502     15.7688774087964     0.27185618172906     -72.6875902990504    0.27185618172906     -72.6875902990504    0.95504290818502     15.7688774087964     
27.133143825177      0.955679038384024    15.6478987258089     0.26982256614822     -72.8106269108058    0.26982256614822     -72.8106269108058    0.955679038384024    15.6478987258089     
27.3036199992004     0.956308247819966    15.5273291101769     0.267794644601625    -72.9331651069816    0.267794644601625    -72.9331651069816    0.956308247819966    15.5273291101769     
27.4751672664261     0.956930587849784    15.4071671239443     0.265772413830275    -73.0552049501342    0.265772413830275    -73.0552049501342    0.956930587849784    15.4071671239443     
27.6477923564788     0.957546109661214    15.2874112984675     0.263755869788688    -73.1767464919655    0.263755869788688    -73.1767464919655    0.957546109661214    15.2874112984675     
27.8215020412648     0.95815486426508     15.1680601349052     0.261745007654543    -73.2977897715055    0.261745007654543    -73.2977897715055    0.95815486426508     15.1680601349052     
27.9963031352382     0.958756902487773    15.0491121047017     0.259739821838331    -73.4183348132455    0.259739821838331    -73.4183348132455    0.958756902487773    15.0491121047017     
28.1722024956679     0.959352274963926    14.9305656500684     0.257740305992966    -73.5383816252231    0.257740305992966    -73.5383816252231    0.959352274963926    14.9305656500684     
28.3492070229065     0.959941032129245    14.8124191844621     0.255746453023429    -73.6579301970519    0.255746453023429    -73.6579301970519    0.959941032129245    14.8124191844621     
28.5273236606615     0.960523224213536    14.6946710930576     0.253758255096366    -73.7769804978986    0.253758255096366    -73.7769804978986    0.960523224213536    14.6946710930576     
28.706559396267      0.961098901233913    14.5773197332187     0.25177570364968     -73.8955324743996    0.25177570364968     -73.8955324743996    0.961098901233913    14.5773197332187     
28.8869212609585     0.961668112988164    14.4603634349638     0.249798789402115    -74.0135860485195    0.249798789402115    -74.0135860485195    0.961668112988164    14.4603634349638     
29.0684163301481     0.9622309090483      14.3438005014283     0.247827502362797    -74.131141115344     0.247827502362797    -74.131141115344     0.9622309090483      14.3438005014283     
29.2510517237026     0.962787338754279    14.2276292093228     0.245861831840775    -74.2481975408069    0.245861831840775    -74.2481975408069    0.962787338754279    14.2276292093228     
29.4348346062225     0.963337451207886    14.1118478093876     0.24390176645451     -74.3647551593476    0.24390176645451     -74.3647551593476    0.963337451207886    14.1118478093876     
29.619772187323      0.963881295266787    13.9964545268428     0.241947294141355    -74.4808137714931    0.241947294141355    -74.4808137714931    0.963881295266787    13.9964545268428     
29.8058717219171     0.964418919538748    13.8814475618341     0.239998402166994    -74.5963731413662    0.239998402166994    -74.5963731413662    0.964418919538748    13.8814475618341     
29.9931405104999     0.964950372376009    13.7668250898748     0.238055077134844    -74.7114329941095    0.238055077134844    -74.7114329941095    0.964950372376009    13.7668250898748     
30.1815858994353     0.965475701869822    13.652585262284      0.236117304995422    -74.8259930132251    0.236117304995422    -74.8259930132251    0.965475701869822    13.652585262284      
30.3712152812439     0.965994955845147    13.5387262066186     0.234185071055681    -74.9400528378267    0.234185071055681    -74.9400528378267    0.965994955845147    13.5387262066186     
30.5620360948934     0.966508181855494    13.4252460271042     0.232258359988299    -75.0536120597947    0.232258359988299    -75.0536120597947    0.966508181855494    13.4252460271042     
30.7540558260897     0.967015427177931    13.3121428050586     0.230337155840917    -75.1666702208345    0.230337155840917    -75.1666702208345    0.967015427177931    13.3121428050586     
30.9472820075714     0.967516738808229    13.1994145993129     0.22842144204535     -75.27922680943      0.22842144204535     -75.27922680943      0.967516738808229    13.1994145993129     
31.1417222194048     0.968012163456161    13.087059446627      0.226511201426739    -75.3912812576878    0.226511201426739    -75.3912812576878    0.968012163456161    13.087059446627      
31.3373840892813     0.968501747540944    12.9750753621013     0.224606416212658    -75.5028329380661    0.224606416212658    -75.5028329380661    0.968501747540944    12.9750753621013     
31.5342752928169     0.968985537186823    12.8634603395851     0.222707068042175    -75.6138811599817    0.222707068042175    -75.6138811599817    0.968985537186823    12.8634603395851     
31.7324035538528     0.969463578218802    12.752212352077      0.220813137974853    -75.7244251662912    0.220813137974853    -75.7244251662912    0.969463578218802    12.752212352077      
31.931776644759      0.969935916158496    12.6413293521256     0.218924606499716    -75.8344641296345    0.218924606499716    -75.8344641296345    0.969935916158496    12.6413293521256     
32.1324023867387     0.970402596220144    12.5308092722213     0.217041453544134    -75.9439971486398    0.217041453544134    -75.9439971486398    0.970402596220144    12.5308092722213     
32.3342886501354     0.970863663306728    12.4206500251871     0.215163658482686    -76.053023243976     0.215163658482686    -76.053023243976     0.970863663306728    12.4206500251871     
32.5374433547416     0.97131916200624     12.3108495045623     0.213291200145937    -76.1615413542503    0.213291200145937    -76.1615413542503    0.97131916200624     12.3108495045623     
32.7418744701096     0.971769136588076    12.2014055849829     0.211424056829181    -76.2695503317367    0.211424056829181    -76.2695503317367    0.971769136588076    12.2014055849829     
32.9475900158636     0.972213630999546    12.0923161225579     0.209562206301111    -76.377048937931     0.209562206301111    -76.377048937931     0.972213630999546    12.0923161225579     
33.154598062015      0.972652688862514    11.9835789552398     0.207705625812432    -76.4840358389193    0.207705625812432    -76.4840358389193    0.972652688862514    11.9835789552398     
33.3629067292786     0.973086353470165    11.8751919031912     0.205854292104433    -76.5905096005518    0.205854292104433    -76.5905096005518    0.973086353470165    11.8751919031912     
33.5725241893913     0.973514667783877    11.7671527691475     0.204008181417467    -76.6964686834083    0.204008181417467    -76.6964686834083    0.973514667783877    11.7671527691475     
33.7834586654326     0.973937674430217    11.6594593387737     0.202167269499398    -76.8019114375476    0.202167269499398    -76.8019114375476    0.973937674430217    11.6594593387737     
33.995718432147      0.974355415698055    11.5521093810179     0.200331531613973    -76.9068360970227    0.200331531613973    -76.9068360970227    0.974355415698055    11.5521093810179     
34.209311816269      0.97476793353578     11.4451006484597     0.19850094254914     -77.0112407741558    0.19850094254914     -77.0112407741558    0.97476793353578     11.4451006484597     
34.4242471968495     0.975175269548631    11.3384308776536     0.196675476625294    -77.1151234535507    0.196675476625294    -77.1151234535507    0.975175269548631    11.3384308776536     
34.6405330055846     0.975577464996134    11.2320977894695     0.194855107703476    -77.2184819858347    0.194855107703476    -77.2184819858347    0.975577464996134    11.2320977894695     
34.8581777271463     0.975974560789643    11.1260990894264     0.193039809193493    -77.3213140811093    0.193039809193493    -77.3213140811093    0.975974560789643    11.1260990894264     
35.0771898995152     0.976366597489982    11.0204324680238     0.191229554061994    -77.4236173020954    0.191229554061994    -77.4236173020954    0.976366597489982    11.0204324680238     
35.2975781143159     0.976753615305193    10.9150956010674     0.18942431484047     -77.5253890569515    0.18942431484047     -77.5253890569515    0.976753615305193    10.9150956010674     
35.5193510171535     0.977135654088368    10.8100861499901     0.187624063633201    -77.6266265917494    0.187624063633201    -77.6266265917494    0.977135654088368    10.8100861499901     
35.7425173079531     0.977512753335593    10.7054017621702     0.185828772125135    -77.7273269825825    0.185828772125135    -77.7273269825825    0.977512753335593    10.7054017621702     
35.9670857413011     0.977884952183974    10.6010400712424     0.184038411589718    -77.8274871272878    0.184038411589718    -77.8274871272878    0.977884952183974    10.6010400712424     
36.1930651267882     0.978252289409758    10.4969986974075     0.182252952896649    -77.9271037367546    0.182252952896649    -77.9271037367546    0.978252289409758    10.4969986974075     
36.4204643293557     0.978614803426539    10.3932752477358     0.180472366519589    -78.0261733257963    0.180472366519589    -78.0261733257963    0.978614803426539    10.3932752477358     
36.6492922696426     0.978972532283557    10.289867316466      0.178696622543802    -78.1246922035588    0.178696622543802    -78.1246922035588    0.978972532283557    10.289867316466      
36.879557924336      0.97932551366408     10.1867724853011     0.176925690673747    -78.2226564634327    0.176925690673747    -78.2226564634327    0.97932551366408     10.1867724853011     
37.1112703265229     0.979673784883857    10.0839883236988     0.175159540240606    -78.3200619724409    0.175159540240606    -78.3200619724409    0.979673784883857    10.0839883236988     
37.3444385660449     0.980017382889668    9.98151238915817     0.173398140209762    -78.4169043600675    0.173398140209762    -78.4169043600675    0.980017382889668    9.98151238915817     
37.5790717898545     0.980356344257941    9.87934222750209     0.171641459188219    -78.51317900649      0.171641459188219    -78.51317900649      0.980356344257941    9.87934222750209     
37.8151792023741     0.980690705193448    9.7774753731547      0.169889465431978    -78.6088810301786    0.169889465431978    -78.6088810301786    0.980690705193448    9.7774753731547      
38.052770065857      0.981020501528075    9.67590934941595     0.16814212685335     -78.7040052748177    0.16814212685335     -78.7040052748177    0.981020501528075    9.67590934941595     
38.2918537007508     0.981345768719662    9.57464166873098     0.166399411028234    -78.7985462955079    0.166399411028234    -78.7985462955079    0.981345768719662    9.57464166873098     
38.5324394860629     0.981666541850921    9.47366983295533     0.164661285203336    -78.8924983441973    0.164661285203336    -78.8924983441973    0.981666541850921    9.47366983295533     
38.7745368597287     0.981982855628403    9.37299133361694     0.162927716303351    -78.9858553542918    0.162927716303351    -78.9858553542918    0.981982855628403    9.37299133361694     
39.0181553189815     0.982294744381554    9.27260365217307     0.161198670938106    -79.078610924388     0.161198670938106    -79.078610924388     0.982294744381554    9.27260365217307     
39.2633044207254     0.982602242061819    9.17250426026366     0.159474115409657    -79.1707583010678    0.159474115409657    -79.1707583010678    0.982602242061819    9.17250426026366     
39.5099937819099     0.982905382241817    9.07269061996078     0.157754015719344    -79.2622903606888    0.157754015719344    -79.2622903606888    0.982905382241817    9.07269061996078     
39.7582330799075     0.983204198114564    8.97316018401369     0.156038337574836    -79.3531995901019    0.156038337574836    -79.3531995901019    0.983204198114564    8.97316018401369     
40.0080320528928     0.98349872249277     8.87391039609047     0.15432704639712     -79.4434780662182    0.15432704639712     -79.4434780662182    0.98349872249277     8.87391039609047     
40.2594005002252     0.983788987808184    8.77493869101542     0.152620107327479    -79.5331174343428    0.152620107327479    -79.5331174343428    0.983788987808184    8.77493869101542     
40.5123482828329     0.98407502611099     8.67624249500245     0.150917485234443    -79.6221088851884    0.150917485234443    -79.6221088851884    0.98407502611099     8.67624249500245     
40.7668853235997     0.984356869069264    8.57781922588546     0.149219144720725    -79.7104431304678    0.149219144720725    -79.7104431304678    0.984356869069264    8.57781922588546     
41.0230216077544     0.984634547968479    8.47966629334342     0.14752505013014     -79.7981103769667    0.14752505013014     -79.7981103769667    0.984634547968479    8.47966629334342     
41.2807671832627     0.984908093711052    8.38178109912391     0.145835165554525    -79.8851002989759    0.145835165554525    -79.8851002989759    0.984908093711052    8.38178109912391     
41.5401321612209     0.985177536815956    8.28416103726045     0.144149454840638    -79.971402008967     0.144149454840638    -79.971402008967     0.985177536815956    8.28416103726045     
41.8011267162528     0.985442907418358    8.18680349428813     0.142467881597089    -80.0570040263706    0.142467881597089    -80.0570040263706    0.985442907418358    8.18680349428813     
42.0637610869092     0.985704235269313    8.08970584945496     0.140790409201251    -80.1418942443161    0.140790409201251    -80.1418942443161    0.985704235269313    8.08970584945496     
42.3280455760687     0.985961549735503    7.99286547492891     0.139117000806211    -80.2260598941721    0.139117000806211    -80.2260598941721    0.985961549735503    7.99286547492891     
42.5939905513429     0.986214879799005    7.89627973600282     0.137447619347735    -80.3094875077135    0.137447619347735    -80.3094875077135    0.986214879799005    7.89627973600282     
42.861606445482      0.986464254057107    7.79994599129501     0.135782227551273    -80.392162876729     0.135782227551273    -80.392162876729     0.986464254057107    7.79994599129501     
43.1309037567852     0.986709700722165    7.7038615929458      0.134120787938993    -80.4740710098607    0.134120787938993    -80.4740710098607    0.986709700722165    7.7038615929458      
43.4018930495116     0.98695124762149     7.6080238868125      0.13246326283689     -80.5551960864512    0.13246326283689     -80.5551960864512    0.98695124762149     7.6080238868125      
43.6745849542951     0.987188922197268    7.51243021265864     0.130809614381934    -80.6355214071518    0.130809614381934    -80.6355214071518    0.987188922197268    7.51243021265864     
43.9489901685614     0.987422751506521    7.41707790434222     0.129159804529314    -80.7150293410223    0.129159804529314    -80.7150293410223    0.987422751506521    7.41707790434222     
44.2251194569477     0.987652762221096    7.32196428999901     0.127513795059755    -80.7937012688253    0.127513795059755    -80.7937012688253    0.987652762221096    7.32196428999901     
44.5029836517245     0.987878980627682    7.22708669222317     0.125871547586943    -80.8715175221927    0.125871547586943    -80.8715175221927    0.987878980627682    7.22708669222317     
44.7825936532214     0.988101432627862    7.13244242824499     0.124233023565072    -80.9484573183044    0.124233023565072    -80.9484573183044    0.988101432627862    7.13244242824499     
45.0639604302537     0.988320143738187    7.03802881010521     0.122598184296519    -81.0244986896906    0.122598184296519    -81.0244986896906    0.988320143738187    7.03802881010521     
45.3470950205536     0.98853513909028     6.94384314482618     0.120966990939675    -81.0996184087231    0.120966990939675    -81.0996184087231    0.98853513909028     6.94384314482618     
45.6320085312028     0.988746443430964    6.84988273458007     0.119339404516947    -81.1737919063205    0.119339404516947    -81.1737919063205    0.988746443430964    6.84988273458007     
45.9187121390679     0.988954081122413    6.75614487685403     0.117715385922964    -81.2469931843433    0.117715385922964    -81.2469931843433    0.988954081122413    6.75614487685403     
46.2072170912396     0.989158076142326    6.66262686461281     0.116094895932997    -81.3191947210954    0.116094895932997    -81.3191947210954    0.989158076142326    6.66262686461281     
46.4975347054732     0.989358452084124    6.56932598645764     0.114477895211631    -81.390367369293     0.114477895211631    -81.390367369293     0.989358452084124    6.56932598645764     
46.789676370633      0.989555232157166    6.47623952678313     0.112864344321712    -81.4604802457857    0.112864344321712    -81.4604802457857    0.989555232157166    6.47623952678313     
47.0836535471391     0.989748439186977    6.3833647659308      0.111254203733616    -81.5295006122452    0.111254203733616    -81.5295006122452    0.989748439186977    6.3833647659308      
47.3794777674165     0.98993809561551     6.29069898033987     0.109647433834858    -81.5973937459399    0.109647433834858    -81.5973937459399    0.98993809561551     6.29069898033987     
47.6771606363482     0.990124223501408    6.19823944269585     0.108043994940094    -81.6641227996236    0.108043994940094    -81.6641227996236    0.990124223501408    6.19823944269585     
47.9767138317299     0.990306844520286    6.10598342207568     0.106443847301567    -81.7296486494505    0.106443847301567    -81.7296486494505    0.990306844520286    6.10598342207568     
48.2781491047283     0.990485979965033    6.01392818409143     0.104846951120041    -81.7939297297048    0.104846951120041    -81.7939297297048    0.990485979965033    6.01392818409143     
48.5814782803423     0.990661650746127    5.92207099102957     0.103253266556263    -81.8569218529914    0.103253266556263    -81.8569218529914    0.990661650746127    5.92207099102957     
48.8867132578662     0.990833877391948    5.83040910198961     0.101662753743061    -81.9185780143721    0.101662753743061    -81.9185780143721    0.990833877391948    5.83040910198961     
49.1938660113576     0.99100268004912     5.73893977301957     0.100075372798111    -81.9788481777489    0.100075372798111    -81.9788481777489    0.99100268004912     5.73893977301957     
49.5029485901059     0.991168078482855    5.64766025724827     0.098491083837455    -82.0376790425894    0.098491083837455    -82.0376790425894    0.991168078482855    5.64766025724827     
49.813973119106      0.991330092077302    5.55656780501643     0.096909846989886    -82.0950137888499    0.096909846989886    -82.0950137888499    0.991330092077302    5.55656780501643     
50.1269517995333     0.991488739835916    5.4656596640049      0.095331622412283    -82.1507917976815    0.095331622412283    -82.1507917976815    0.991488739835916    5.4656596640049      
50.4418969092227     0.99164404038182     5.37493307936025     0.093756370306007    -82.2049483451941    0.093756370306007    -82.2049483451941    0.99164404038182     5.37493307936025     
50.7588208031501     0.991796011958186    5.28438529381896     0.092184050934498    -82.2574142661994    0.092184050934498    -82.2574142661994    0.991796011958186    5.28438529381896     
51.077735913917      0.991944672428611    5.19401354782871     0.090614624642208    -82.3081155844412    0.090614624642208    -82.3081155844412    0.991944672428611    5.19401354782871     
51.3986547522383     0.992090039277503    5.10381507966797     0.089048051875061    -82.356973105354     0.089048051875061    -82.356973105354     0.992090039277503    5.10381507966797     
51.7215899074333     0.992232129610473    5.01378712556287     0.087484293202581    -82.4039019668475    0.087484293202581    -82.4039019668475    0.992232129610473    5.01378712556287     
52.046554047919      0.992370960154724    4.92392691980326     0.085923309341962    -82.4488111429819    0.085923309341962    -82.4488111429819    0.992370960154724    4.92392691980326     
52.3735599217079     0.992506547259444    4.83423169485538     0.084365061184277    -82.4916028946755    0.084365061184277    -82.4916028946755    0.992506547259444    4.83423169485538     
52.7026203569072     0.992638906896201    4.74469868147339     0.082809509823127    -82.5321721607341    0.082809509823127    -82.5321721607341    0.992638906896201    4.74469868147339     
53.0337482622226     0.992768054659342    4.65532510880887     0.081256616586058    -82.5704058815069    0.081256616586058    -82.5704058815069    0.992768054659342    4.65532510880887     
53.3669566274646     0.992894005766379    4.56610820451868     0.079706343069109    -82.6061822463165    0.079706343069109    -82.6061822463165    0.992894005766379    4.56610820451868     
53.7022585240579     0.993016775058396    4.47704519487009     0.078158651174899    -82.6393698544628    0.078158651174899    -82.6393698544628    0.993016775058396    4.47704519487009     
54.0396671055545     0.993136377000429    4.38813330484561     0.076613503154798    -82.6698267780048    0.076613503154798    -82.6698267780048    0.993136377000429    4.38813330484561     
54.3791956081493     0.993252825681861    4.29936975824501     0.075070861655692    -82.6973995126591    0.075070861655692    -82.6973995126591    0.993252825681861    4.29936975824501     
54.7208573511997     0.993366134816811    4.21075177778628     0.073530689772057    -82.721921800935     0.073530689772057    -82.721921800935     0.993366134816811    4.21075177778628     
55.0646657377478     0.99347631774451     4.12227658520404     0.071992951104075    -82.7432133090042    0.071992951104075    -82.7432133090042    0.99347631774451     4.12227658520404     
55.4106342550465     0.99358338742969     4.03394140134812     0.070457609822745    -82.7610781356807    0.070457609822745    -82.7610781356807    0.99358338742969     4.03394140134812     
55.7587764750883     0.993687356462945    3.94574344627883     0.068924630743005    -82.7753031281595    0.068924630743005    -82.7753031281595    0.993687356462945    3.94574344627883     
56.1091060551378     0.993788237061109    3.85767993936218     0.067393979406151    -82.7856559747011    0.067393979406151    -82.7856559747011    0.993788237061109    3.85767993936218     
56.4616367382677     0.993886041067613    3.76974809936242     0.065865622172991    -82.7918830390815    0.065865622172991    -82.7918830390815    0.993886041067613    3.76974809936242     
56.8163823538977     0.993980779952846    3.68194514453435     0.064339526329537    -82.7937068951538    0.064339526329537    -82.7937068951538    0.993980779952846    3.68194514453435     
57.1733568183368     0.994072464814493    3.59426829271371     0.062815660207251    -82.7908235120232    0.062815660207251    -82.7908235120232    0.994072464814493    3.59426829271371     
57.5325741353297     0.994161106377885    3.50671476140634     0.061293993320373    -82.782899030796     0.061293993320373    -82.782899030796     0.994161106377885    3.50671476140634     
57.894048396606      0.994246714996328    3.41928176787634     0.05977449652328     -82.7695660622048    0.05977449652328     -82.7695660622048    0.994246714996328    3.41928176787634     
58.2577937824326     0.994329300651424    3.33196652923299     0.058257142191464    -82.7504194201051    0.058257142191464    -82.7504194201051    0.994329300651424    3.33196652923299     
58.6238245621706     0.99440887295339     3.2447662625162      0.056741904430435    -82.7250111882005    0.056741904430435    -82.7250111882005    0.99440887295339     3.2447662625162      
58.9921550948346     0.994485441141358    3.15767818478146     0.055228759317826    -82.6928449954988    0.055228759317826    -82.6928449954988    0.994485441141358    3.15767818478146     
59.3627998296563     0.994559014083675    3.07069951318345     0.053717685185069    -82.6533693487782    0.053717685185069    -82.6533693487782    0.994559014083675    3.07069951318345     
59.7357733066511     0.994629600278186    2.98382746505871     0.052208662946516    -82.6059698362699    0.052208662946516    -82.6059698362699    0.994629600278186    2.98382746505871     
60.1110901571886     0.994697207852501    2.89705925800707     0.050701676485652    -82.5499599738422    0.050701676485652    -82.5499599738422    0.994697207852501    2.89705925800707     
60.4887651045665     0.99476184456427     2.81039210997327     0.049196713110418    -82.4845704106225    0.049196713110418    -82.4845704106225    0.99476184456427     2.81039210997327     
60.8688129645885     0.994823517801424    2.72382323932607     0.04769376409254     -82.4089361417103    0.04769376409254     -82.4089361417103    0.994823517801424    2.72382323932607     
61.2512486461448     0.994882234582421    2.63734986493814     0.046192825309644    -82.3220812867606    0.046192825309644    -82.3220812867606    0.994882234582421    2.63734986493814     
61.6360871517979     0.994938001556468    2.55096920626431     0.04469389801378     -82.2229008784054    0.04469389801378     -82.2229008784054    0.994938001556468    2.55096920626431     
62.0233435783701     0.99499082500374     2.46467848341947     0.043196989756426    -82.1101389550926    0.043196989756426    -82.1101389550926    0.99499082500374     2.46467848341947     
62.4130331175369     0.995040710835579    2.3784749172556      0.041702115508453    -81.9823620570384    0.041702115508453    -81.9823620570384    0.995040710835579    2.3784749172556      
62.8051710564218     0.995087664594686    2.29235572943868     0.040209299024721    -81.8379269650557    0.040209299024721    -81.8379269650557    0.995087664594686    2.29235572943868     
63.1997727781968     0.995131691455296    2.20631814252438     0.038718574517871    -81.6749411767806    0.038718574517871    -81.6749411767806    0.995131691455296    2.20631814252438     
63.5968537626855     0.99517279622334     2.12035938003373     0.037229988726102    -81.4912141503132    0.037229988726102    -81.4912141503132    0.99517279622334     2.12035938003373     
63.9964295869705     0.995210983336597    2.03447666652822     0.035743603487156    -81.2841967142395    0.035743603487156    -81.2841967142395    0.995210983336597    2.03447666652822     
64.3985159260042     0.995246256864824    1.94866722768443     0.034259498968705    -81.0509051768736    0.034259498968705    -81.0509051768736    0.995246256864824    1.94866722768443     
64.8031285532245     0.99527862050988     1.86292829036858     0.032777777758136    -80.7878254657407    0.032777777758136    -80.7878254657407    0.99527862050988     1.86292829036858     
65.2102833411724     0.995308077605837    1.77725708271019     0.031298570089359    -80.4907909412606    0.031298570089359    -80.4907909412606    0.995308077605837    1.77725708271019     
65.6199962621155     0.995334631119067    1.69165083417593     0.029822040590976    -80.1548251309092    0.029822040590976    -80.1548251309092    0.995334631119067    1.69165083417593     
66.0322833886745     0.995358283648322    1.60610677564363     0.028348397094896    -79.7739371773569    0.028348397094896    -79.7739371773569    0.995358283648322    1.60610677564363     
66.4471608944534     0.9953790374248      1.52062213947503     0.02687790227246     -79.3408527516753    0.02687790227246     -79.3408527516753    0.9953790374248      1.52062213947503     
66.8646450546741     0.995396894312191    1.43519415958932     0.025410889206402    -78.8466557081342    0.025410889206402    -78.8466557081342    0.995396894312191    1.43519415958932     
67.2847522468151     0.995411855806716    1.34982007153634     0.023947782527018    -78.2803045001491    0.023947782527018    -78.2803045001491    0.995411855806716    1.34982007153634     
67.7074989512536     0.995423923037142    1.26449711256993     0.0224891275486      -77.6279701371129    0.0224891275486      -77.6279701371129    0.995423923037142    1.26449711256993     
68.1329017519121     0.995433096764792    1.17922252172069     0.021035631122776    -76.8721155906353    0.021035631122776    -76.8721155906353    0.995433096764792    1.17922252172069     
68.5609773369094     0.995439377383528    1.09399353986981     0.019588220001525    -75.9901939050466    0.019588220001525    -75.9901939050466    0.995439377383528    1.09399353986981     
68.9917424992145     0.995442764919736    1.00880740982185     0.018148125949582    -74.9527733011099    0.018148125949582    -74.9527733011099    0.995442764919736    1.00880740982185     
69.4252141373061     0.995443259032278    0.923661376378846    0.01671701271729     -73.7207840486716    0.01671701271729     -73.7207840486716    0.995443259032278    0.923661376378846    
69.8614092558349     0.995440859012441    0.838552686413973    0.015297170257746    -72.241392127973     0.015297170257746    -72.241392127973     0.995440859012441    0.838552686413973    
70.3003449662912     0.995435563783872    0.753478588945285    0.013891820047637    -70.441684367791     0.013891820047637    -70.441684367791     0.995435563783872    0.753478588945285    
70.7420384876757     0.995427371902489    0.668436335210671    0.012505609493652    -68.2188108360486    0.012505609493652    -68.2188108360486    0.995427371902489    0.668436335210671    
71.1865071471756     0.995416281556381    0.583423178741756    0.0111454378294      -65.4243551873504    0.0111454378294      -65.4243551873504    0.995416281556381    0.583423178741756    
71.6337683808436     0.995402290565704    0.498436375439852    0.009821878654307    -61.8394538230749    0.009821878654307    -61.8394538230749    0.995402290565704    0.498436375439852    
72.0838397342823     0.995385396382544    0.413473183651251    0.008551692315347    -57.1362102892928    0.008551692315347    -57.1362102892928    0.995385396382544    0.413473183651251    
72.5367388633324     0.995365596090782    0.328530864242993    0.007362293652492    -50.8242842274866    0.007362293652492    -50.8242842274866    0.995365596090782    0.328530864242993    
72.9924835347656     0.995342886405933    0.243606680680016    0.00629934707586     -42.2064332909687    0.00629934707586     -42.2064332909687    0.995342886405933    0.243606680680016    
73.451091626981      0.995317263674984    0.158697899102277    0.005437268283306    -30.4658215851067    0.005437268283306    -30.4658215851067    0.995317263674984    0.158697899102277    
73.9125811307071     0.9952887238762      0.073801788402365    0.004883386799271    -15.2199907701256    0.004883386799271    -15.2199907701256    0.9952887238762      0.073801788402365    
74.376970149707      0.995257262618936    -0.011084379695445   0.004746662692509    2.32475690217746     0.004746662692509    2.32475690217746     0.995257262618936    -0.011084379695445   
74.8442769014888     0.995222875143423    -0.095963330556163   0.00506090212177     19.2301203802137     0.00506090212177     19.2301203802137     0.995222875143423    -0.095963330556163   
75.3145197180206     0.995185556320541    -0.180837786553879   0.005752616056452    33.0940465338874     0.005752616056452    33.0940465338874     0.995185556320541    -0.180837786553879   
75.787717046449      0.995145300651586    -0.265710466990692   0.00670598793989     43.4869824367263     0.00670598793989     43.4869824367263     0.995145300651586    -0.265710466990692   
76.2638874498233     0.99510210226802     -0.350584088014597   0.007825994600244    51.0803299812152     0.007825994600244    51.0803299812152     0.99510210226802     -0.350584088014597   
76.7430496078232     0.995055954931209    -0.435461362537436   0.009051037751645    56.6730505077248     0.009051037751645    56.6730505077248     0.995055954931209    -0.435461362537436   
77.2252223174924     0.995006852032146    -0.520345000150173   0.010343936467668    60.8774396623568     0.010343936467668    60.8774396623568     0.995006852032146    -0.520345000150173   
77.710424493975      0.99495478659117     -0.605237707038535   0.011682268561293    64.1115131462835     0.011682268561293    64.1115131462835     0.99495478659117     -0.605237707038535   
78.1986751712582     0.994899751257664    -0.690142185897068   0.013052162162397    66.6536403874482     0.013052162162397    66.6536403874482     0.994899751257664    -0.690142185897068   
78.6899935029189     0.99484173830975     -0.775061135841847   0.01444474587767     68.6905845978912     0.01444474587767     68.6905845978912     0.99484173830975     -0.775061135841847   
79.1843987628746     0.994780739653967    -0.859997252322426   0.015854154312965    70.3500595451691     0.015854154312965    70.3500595451691     0.994780739653967    -0.859997252322426   
79.6819103461401     0.994716746824942    -0.944953227032168   0.017276388757861    71.7213838146675     0.017276388757861    71.7213838146675     0.994716746824942    -0.944953227032168   
80.1825477695883     0.994649750985053    -1.02993174781755    0.018708647729585    72.8684479835147     0.018708647729585    72.8684479835147     0.994649750985053    -1.02993174781755    
80.6863306727151     0.994579742924075    -1.11493549858604    0.020148921137197    73.8379375302587     0.020148921137197    73.8379375302587     0.994579742924075    -1.11493549858604    
81.1932788184109     0.994506713058826    -1.1999671592128     0.021595736597302    74.6646412108838     0.021595736597302    74.6646412108838     0.994506713058826    -1.1999671592128     
81.703412093735      0.994430651432797    -1.28502940544513    0.023047996231467    75.3749488859845     0.023047996231467    75.3749488859845     0.994430651432797    -1.28502940544513    
82.2167505106961     0.99435154771578     -1.37012490880699    0.024504868861453    75.989204813957      0.024504868861453    75.989204813957      0.99435154771578     -1.37012490880699    
82.7333142070377     0.994269391203481    -1.45525633650018    0.025965717063431    76.5233230712747     0.025965717063431    76.5233230712747     0.994269391203481    -1.45525633650018    
83.2531234470272     0.994184170817132    -1.54042635130532    0.027430046719712    76.9899176787616     0.027430046719712    76.9899176787616     0.994184170817132    -1.54042635130532    
83.7761986222517     0.994095875103097    -1.62563761148062    0.028897471431463    77.3991073036665     0.028897471431463    77.3991073036665     0.994095875103097    -1.62563761148062    
84.3025602524175     0.994004492232465    -1.71089277065892    0.030367686958991    77.7590976852076     0.030367686958991    77.7590976852076     0.994004492232465    -1.71089277065892    
84.8322289861553     0.993910010000645    -1.79619447774338    0.031840452561103    78.0766095894519     0.031840452561103    78.0766095894519     0.993910010000645    -1.79619447774338    
85.36522560183       0.993812415826951    -1.88154537680065    0.033315577166299    78.3571976694992     0.033315577166299    78.3571976694992     0.993812415826951    -1.88154537680065    
85.9015710083561     0.993711696754184    -1.96694810695339    0.034792908983697    78.6054911130454     0.034792908983697    78.6054911130454     0.993711696754184    -1.96694810695339    
86.4412862460173     0.993607839448216    -2.05240530226967    0.036272327599578    78.8253774303784     0.036272327599578    78.8253774303784     0.993607839448216    -2.05240530226967    
86.984392487293      0.993500830197558    -2.13791959165103    0.037753737895088    79.0201443674935     0.037753737895088    79.0201443674935     0.993500830197558    -2.13791959165103    
87.5309110376874     0.993390654912943    -2.2234935987188     0.039237065315323    79.1925906064926     0.039237065315323    79.1925906064926     0.993390654912943    -2.2234935987188     
88.080863336567      0.993277299126888    -2.30912994169814    0.040722252153093    79.3451129385521     0.040722252153093    79.3451129385521     0.993277299126888    -2.30912994169814    
88.6342709580001     0.993160747993278    -2.39483123329936    0.042209254602891    79.4797755163484     0.042209254602891    79.4797755163484     0.993160747993278    -2.39483123329936    
89.1911556116042     0.993040986286923    -2.48060008059839    0.043698040405502    79.5983653230015     0.043698040405502    79.5983653230015     0.993040986286923    -2.48060008059839    
89.7515391433969     0.992917998403141    -2.56643908491416    0.045188586949787    79.7024369425373     0.045188586949787    79.7024369425373     0.992917998403141    -2.56643908491416    
90.3154435366533     0.992791768357326    -2.65235084168376    0.046680879731512    79.7933489552824     0.046680879731512    79.7933489552824     0.992791768357326    -2.65235084168376    
90.8828909127685     0.992662279784523    -2.7383379403361     0.048174911093331    79.8722937243864     0.048174911093331    79.8722937243864     0.992662279784523    -2.7383379403361     
91.4539035321251     0.992529515939012    -2.82440296416171    0.049670679187817    79.9403219278759     0.049670679187817    79.9403219278759     0.992529515939012    -2.82440296416171    
92.0285037949666     0.992393459693882    -2.91054849018224    0.051168187118847    79.9983628834556     0.051168187118847    79.9983628834556     0.992393459693882    -2.91054849018224    
92.6067142422758     0.992254093540628    -2.99677708901541    0.052667442226429    80.0472414820532     0.052667442226429    80.0472414820532     0.992254093540628    -2.99677708901541    
93.1885575566598     0.992111399588736    -3.0830913247393     0.05416845548779     80.0876923706163     0.05416845548779     80.0876923706163     0.992111399588736    -3.0830913247393     
93.7740565632393     0.991965359565286    -3.16949375475263    0.055671241013116    80.1203718904087     0.055671241013116    80.1203718904087     0.991965359565286    -3.16949375475263    
94.3632342305437     0.991815954814558    -3.25598692963331    0.057175815618925    80.1458681735677     0.057175815618925    80.1458681735677     0.991815954814558    -3.25598692963331    
94.956113671413      0.991663166297651    -3.34257339299423    0.058682198465366    80.1647097203404     0.058682198465366    80.1647097203404     0.991663166297651    -3.34257339299423    
95.5527181439036     0.991506974592105    -3.42925568133619    0.060190410746473    80.1773727166323     0.060190410746473    80.1773727166323     0.991506974592105    -3.42925568133619    
96.1530710522013     0.991347359891538    -3.51603632389804    0.061700475424479    80.1842873021063     0.061700475424479    80.1842873021063     0.991347359891538    -3.51603632389804    
96.7571959475394     0.991184302005292    -3.60291784250435    0.063212417000975    80.1858429599859     0.063212417000975    80.1858429599859     0.991184302005292    -3.60291784250435    
97.365116529122      0.991017780358097    -3.68990275140979    0.064726261319       80.1823931686019     0.064726261319       80.1823931686019     0.991017780358097    -3.68990275140979    
97.9768566450546     0.990847773989739    -3.77699355714137    0.066242035391211    80.1742594298178     0.066242035391211    80.1742594298178     0.990847773989739    -3.77699355714137    
98.5924402932785     0.990674261554757    -3.86419275833628    0.067759767250126    80.161734769431      0.067759767250126    80.161734769431      0.990674261554757    -3.86419275833628    
99.2118916225134     0.990497221322138    -3.95150284557899    0.069279485817144    80.1450867884424     0.069279485817144    80.1450867884424     0.990497221322138    -3.95150284557899    
99.8352349332039     0.990316631175047    -4.03892630123268    0.070801220787532    80.1245603309178     0.070801220787532    80.1245603309178     0.990316631175047    -4.03892630123268    
100.462494678473     0.990132468610566    -4.12646559927003    0.072325002529132    80.1003798234149     0.072325002529132    80.1003798234149     0.990132468610566    -4.12646559927003    
101.093695465082     0.989944710739448    -4.21412320509886    0.073850861992792    80.0727513321345     0.073850861992792    80.0727513321345     0.989944710739448    -4.21412320509886    
101.728862054395     0.989753334285906    -4.30190157538617    0.07537883063293     80.0418643767001     0.07537883063293     80.0418643767001     0.989753334285906    -4.30190157538617    
102.36801936335      0.989558315587412    -4.38980315787768    0.076908940336828    80.0078935334626     0.076908940336828    80.0078935334626     0.989558315587412    -4.38980315787768    
103.011192465437     0.989359630594524    -4.47783039121504    0.0784412233615      79.9709998562552     0.0784412233615      79.9709998562552     0.989359630594524    -4.47783039121504    
103.658406591682     0.989157254870735    -4.56598570474884    0.079975712277122    79.9313321383679     0.079975712277122    79.9313321383679     0.989157254870735    -4.56598570474884    
104.309687131636     0.988951163592358    -4.65427151834936    0.081512439916203    79.8890280360431     0.081512439916203    79.8890280360431     0.988951163592358    -4.65427151834936    
104.965059634372     0.988741331548418    -4.7426902422123     0.083051439327718    79.8442150708887     0.083051439327718    79.8442150708887     0.988741331548418    -4.7426902422123     
105.624549809484     0.988527733140601    -4.83124427666266    0.084592743735645    79.7970115261478     0.084592743735645    79.7970115261478     0.988527733140601    -4.83124427666266    
106.2881835281       0.988310342383202    -4.91993601195402    0.086136386501307    79.7475272497005     0.086136386501307    79.7475272497005     0.988310342383202    -4.91993601195402    
106.955986823896     0.988089132903137    -5.0087678280646     0.087682401089086    79.6958643749209     0.087682401089086    79.6958643749209     0.988089132903137    -5.0087678280646     
107.627985894115     0.98786407793996     -5.0977420944895     0.089230821035095    79.6421179690199     0.089230821035095    79.6421179690199     0.98786407793996     -5.0977420944895     
108.304207100596     0.98763515034593     -5.18686117002965    0.090781679918474    79.5863766172399     0.090781679918474    79.5863766172399     0.98763515034593     -5.18686117002965    
108.984676970807     0.987402322586117    -5.27612740257675    0.092335011334977    79.5287229501823     0.092335011334977    79.5287229501823     0.987402322586117    -5.27612740257675    
109.669422198889     0.987165566738531    -5.36554312889418    0.093890848872608    79.4692341206204     0.093890848872608    79.4692341206204     0.987165566738531    -5.36554312889418    
110.3584696467       0.986924854494306    -5.45511067439474    0.095449226089069    79.4079822353501     0.095449226089069    79.4079822353501     0.986924854494306    -5.45511067439474    
111.051846344869     0.986680157157919    -5.54483235291366    0.097010176490807    79.3450347469514     0.097010176490807    79.3450347469514     0.986680157157919    -5.54483235291366    
111.749579493858     0.986431445647446    -5.63471046647919    0.098573733513504    79.2804548097306     0.098573733513504    79.2804548097306     0.986431445647446    -5.63471046647919    
112.451696465027     0.986178690494876    -5.7247473050769     0.100139930503808    79.2143016036115     0.100139930503808    79.2143016036115     0.986178690494876    -5.7247473050769     
113.158224801711     0.985921861846456    -5.81494514641227    0.101708800702226    79.1466306292889     0.101708800702226    79.1466306292889     0.985921861846456    -5.81494514641227    
113.869192220296     0.985660929463096    -5.90530625566808    0.103280377227008    79.0774939775788     0.103280377227008    79.0774939775788     0.985660929463096    -5.90530625566808    
114.584626611309     0.985395862720818    -5.99583288525745    0.104854693058936    79.0069405755597     0.104854693058936    79.0069405755597     0.985395862720818    -5.99583288525745    
115.304556040514     0.985126630611255    -6.08652727457392    0.106431781026915    78.9350164118056     0.106431781026915    78.9350164118056     0.985126630611255    -6.08652727457392    
116.029008750008     0.984853201742208    -6.17739164973617    0.10801167379429     78.8617647427555     0.10801167379429     78.8617647427555     0.984853201742208    -6.17739164973617    
116.758013159334     0.984575544338257    -6.26842822332893    0.109594403845792    78.7872262820389     0.109594403845792    78.7872262820389     0.984575544338257    -6.26842822332893    
117.491597866592     0.984293626241424    -6.35963919414012    0.111180003475069    78.7114393743782     0.111180003475069    78.7114393743782     0.984293626241424    -6.35963919414012    
118.229791649563     0.984007414911904    -6.45102674689284    0.112768504772737    78.6344401555165     0.112768504772737    78.6344401555165     0.984007414911904    -6.45102674689284    
118.972623466836     0.983716877428846    -6.54259305197354    0.114359939614866    78.5562626994647     0.114359939614866    78.5562626994647     0.983716877428846    -6.54259305197354    
119.720122458948     0.983421980491208    -6.63434026515589    0.115954339651909    78.4769391542288     0.115954339651909    78.4769391542288     0.983421980491208    -6.63434026515589    
120.472317949523     0.983122690418669    -6.72627052731971    0.117551736297972    78.3964998670559     0.117551736297972    78.3964998670559     0.983122690418669    -6.72627052731971    
121.229239446423     0.98281897315261     -6.81838596416614    0.119152160720437    78.3149735001338     0.119152160720437    78.3149735001338     0.98281897315261     -6.81838596416614    
121.990916642908     0.982510794257165    -6.91068868592803    0.120755643829858    78.2323871375847     0.120755643829858    78.2323871375847     0.982510794257165    -6.91068868592803    
122.757379418799     0.982198118920341    -7.00318078707532    0.122362216270131    78.1487663845094     0.122362216270131    78.1487663845094     0.982198118920341    -7.00318078707532    
123.52865784165      0.981880911955215    -7.09586434601656    0.123971908408896    78.0641354587657     0.123971908408896    78.0641354587657     0.981880911955215    -7.09586434601656    
124.304782167926     0.981559137801202    -7.18874142479558    0.125584750328144    77.978517276096      0.125584750328144    77.978517276096      0.981559137801202    -7.18874142479558    
125.085782844197     0.981232760525399    -7.28181406878362    0.127200771815011    77.891933529163      0.127200771815011    77.891933529163      0.981232760525399    -7.28181406878362    
125.871690508321     0.980901743824016    -7.3750843063663     0.128820002352745    77.8044047609991     0.128820002352745    77.8044047609991     0.980901743824016    -7.3750843063663     
126.662535990657     0.98056605102388     -7.46855414862705    0.130442471111798    77.715950433323      0.130442471111798    77.715950433323      0.98056605102388     -7.46855414862705    
127.458350315267     0.98022564508403     -7.56222558902412    0.132068206941058    77.6265889901462     0.132068206941058    77.6265889901462     0.98022564508403     -7.56222558902412    
128.259164701137     0.979880488597396    -7.65610060306493    0.133697238359202    77.5363379170385     0.133697238359202    77.5363379170385     0.979880488597396    -7.65610060306493    
129.065010563399     0.979530543792557    -7.75018114797353    0.13532959354613     77.4452137964024     0.13532959354613     77.4452137964024     0.979530543792557    -7.75018114797353    
129.875919514566     0.979175772535612    -7.8444691623547     0.13696530033449     77.3532323590656     0.13696530033449     77.3532323590656     0.979175772535612    -7.8444691623547     
130.69192336577      0.978816136332119    -7.93896656585317    0.138604386201293    77.260408532478      0.138604386201293    77.260408532478      0.978816136332119    -7.93896656585317    
131.513054128011     0.978451596329145    -8.03367525880713    0.140246878259558    77.1667564857723     0.140246878259558    77.1667564857723     0.978451596329145    -8.03367525880713    
132.339344013412     0.978082113317407    -8.12859712189775    0.141892803250049    77.0722896719272     0.141892803250049    77.0722896719272     0.978082113317407    -8.12859712189775    
133.170825436484     0.977707647733523    -8.22373401579287    0.143542187533023    76.9770208672498     0.143542187533023    76.9770208672498     0.977707647733523    -8.22373401579287    
134.007531015396     0.977328159662348    -8.31908778078762    0.145195057080045    76.8809622083754     0.145195057080045    76.8809622083754     0.977328159662348    -8.31908778078762    
134.849493573256     0.976943608839431    -8.4146602364374     0.146851437465807    76.784125226969      0.146851437465807    76.784125226969      0.976943608839431    -8.4146602364374     
135.696746139397     0.976553954653574    -8.51045318118865    0.148511353859995    76.6865208822934     0.148511353859995    76.6865208822934     0.976553954653574    -8.51045318118865    
136.549321950675     0.976159156149496    -8.6064683920028     0.15017483101915     76.5881595917991     0.15017483101915     76.5881595917991     0.976159156149496    -8.6064683920028     
137.40725445277      0.975759172030614    -8.70270762397636    0.151841893278568    76.4890512598756     0.151841893278568    76.4890512598756     0.975759172030614    -8.70270762397636    
138.2705773015       0.975353960661944    -8.7991726099553     0.153512564544183    76.3892053048957     0.153512564544183    76.3892053048957     0.975353960661944    -8.7991726099553     
139.139324364142     0.974943480073108    -8.89586506014528    0.155186868284472    76.2886306846691     0.155186868284472    76.2886306846691     0.974943480073108    -8.89586506014528    
140.013529720758     0.974527687961466    -8.99278666171576    0.156864827522353    76.1873359204195     0.156864827522353    76.1873359204195     0.974527687961466    -8.99278666171576    
140.893227665533     0.974106541695372    -9.08993907840055    0.158546464827078    76.0853291193819     0.158546464827078    76.0853291193819     0.974106541695372    -9.08993907840055    
141.778452708123     0.973679998317558    -9.18732395009221    0.160231802306128    75.9826179961168     0.160231802306128    75.9826179961168     0.973679998317558    -9.18732395009221    
142.669239575003     0.97324801454863     -9.28494289243227    0.161920861597088    75.8792098926273     0.161920861597088    75.8792098926273     0.97324801454863     -9.28494289243227    
143.565623210835     0.972810546790716    -9.38279749639587    0.163613663859525    75.7751117973573     0.163613663859525    75.7751117973573     0.972810546790716    -9.38279749639587    
144.467638779837     0.972367551131227    -9.48088932787192    0.165310229766836    75.6703303631461     0.165310229766836    75.6703303631461     0.972367551131227    -9.48088932787192    
145.375321667159     0.971918983346766    -9.5792199272381     0.167010579498099    75.5648719242079     0.167010579498099    75.5648719242079     0.971918983346766    -9.5792199272381     
146.288707480278     0.971464798907167    -9.67779080893083    0.168714732729892    75.4587425121975     0.168714732729892    75.4587425121975     0.971464798907167    -9.67779080893083    
147.207832050389     0.971004952979679    -9.77660346101074    0.170422708628114    75.3519478714236     0.170422708628114    75.3519478714236     0.971004952979679    -9.77660346101074    
148.132731433812     0.970539400433289    -9.87565934472264    0.172134525839761    75.2444934732619     0.172134525839761    75.2444934732619     0.970539400433289    -9.87565934472264    
149.063441913407     0.97006809584319     -9.97495989405117    0.173850202484719    75.1363845298193     0.173850202484719    75.1363845298193     0.97006809584319     -9.97495989405117    
150                  0.969590993495408    -10.0745065152708    0.175569756147499    75.027626006897      0.175569756147499    75.027626006897      0.969590993495408    -10.0745065152708    
