# MHz S MA R 50      
!Freq                MagS11               AngS11               MagS21               AngS21               MagS12               AngS12               MagS22               AngS22               
1                    0.137450351541545    65.5419138352545     0.951354906570625    -7.55706936923601    0.951354906570625    -7.55706936923601    0.137450351541545    65.5419138352545     
1.00692569863907     0.138316574242309    65.5717211139184     0.951172313199145    -7.60825340434329    0.951172313199145    -7.60825340434329    0.138316574242309    65.5717211139184     
1.01389936257978     0.139188588274882    65.6008021081158     0.950987995385329    -7.65977407918291    0.950987995385329    -7.65977407918291    0.139188588274882    65.6008021081158     
1.02092132401536     0.140066425595448    65.6291562064179     0.950801933265758    -7.71163342315769    0.950801933265758    -7.71163342315769    0.140066425595448    65.6291562064179     
1.02799191743969     0.140950118248964    65.6567827929609     0.950614106746636    -7.7638334743313     0.950614106746636    -7.7638334743313     0.140950118248964    65.6567827929609     
1.03511147966328     0.1418396983674      65.6836812472875     0.950424495501448    -7.8163762793905     0.950424495501448    -7.8163762793905     0.1418396983674      65.6836812472875     
1.04228034982927     0.142735198167955    65.7098509441927     0.950233078968689    -7.86926389360563    0.950233078968689    -7.86926389360563    0.142735198167955    65.7098509441927     
1.04949886942961     0.143636649951182    65.7352912535747     0.95003983634951     -7.92249838078896    0.95003983634951     -7.92249838078896    0.143636649951182    65.7352912535747     
1.05676738232133     0.144544086099109    65.7600015402911     0.949844746605473    -7.97608181325172    0.949844746605473    -7.97608181325172    0.144544086099109    65.7600015402911     
1.06408623474289     0.145457539073239    65.7839811640193     0.949647788456121    -8.03001627175762    0.949647788456121    -8.03001627175762    0.145457539073239    65.7839811640193     
1.0714557753307      0.146377041412557    65.8072294791219     0.949448940376744    -8.08430384547623    0.949448940376744    -8.08430384547623    0.146377041412557    65.8072294791219     
1.07887635513573     0.147302625731424    65.829745834518      0.949248180595946    -8.13894663193173    0.949248180595946    -8.13894663193173    0.147302625731424    65.829745834518      
1.08634832764023     0.148234324717456    65.8515295735586     0.949045487093333    -8.19394673695203    0.949045487093333    -8.19394673695203    0.148234324717456    65.8515295735586     
1.09387204877452     0.149172171129308    65.8725800339073     0.948840837597125    -8.24930627461361    0.948840837597125    -8.24930627461361    0.149172171129308    65.8725800339073     
1.10144787693404     0.15011619779442     65.8928965474257     0.948634209581806    -8.3050273671851     0.948634209581806    -8.3050273671851     0.15011619779442     65.8928965474257     
1.10907617299633     0.151066437606684    65.9124784400651     0.948425580265723    -8.36111214506823    0.948425580265723    -8.36111214506823    0.151066437606684    65.9124784400651     
1.11675730033828     0.152022923524064    65.9313250317615     0.948214926608707    -8.41756274673635    0.948214926608707    -8.41756274673635    0.152022923524064    65.9313250317615     
1.1244916248534      0.152985688566138    65.9494356363372     0.948002225309685    -8.47438131867089    0.948002225309685    -8.47438131867089    0.152985688566138    65.9494356363372     
1.1322795149693      0.153954765811572    65.9668095614066     0.947787452804265    -8.53157001529432    0.947787452804265    -8.53157001529432    0.153954765811572    65.9668095614066     
1.14012134166517     0.154930188395548    65.983446108288      0.947570585262338    -8.58913099890197    0.947570585262338    -8.58913099890197    0.154930188395548    65.983446108288      
1.14801747848952     0.155911989507097    65.9993445719198     0.947351598585672    -8.64706643959026    0.947351598585672    -8.64706643959026    0.155911989507097    65.9993445719198     
1.15596830157792     0.156900202386387    66.0145042407824     0.947130468405504    -8.70537851518259    0.947130468405504    -8.70537851518259    0.156900202386387    66.0145042407824     
1.16397418967097     0.157894860321919    66.0289243968249     0.946907170080096    -8.76406941115259    0.946907170080096    -8.76406941115259    0.157894860321919    66.0289243968249     
1.17203552413229     0.158895996647673    66.042604315398      0.946681678692359    -8.82314132054487    0.946681678692359    -8.82314132054487    0.158895996647673    66.042604315398      
1.18015268896671     0.159903644740166    66.0555432651906     0.946453969047379    -8.88259644389227    0.946453969047379    -8.88259644389227    0.159903644740166    66.0555432651906     
1.18832607083859     0.160917838015445    66.0677405081739     0.946224015670028    -8.94243698913116    0.946224015670028    -8.94243698913116    0.160917838015445    66.0677405081739     
1.19655605909017     0.161938609926       66.0791952995487     0.945991792802525    -9.00266517151339    0.945991792802525    -9.00266517151339    0.161938609926       66.0791952995487     
1.20484304576018     0.162965993957604    66.0899068876993     0.945757274402004    -9.06328321351501    0.945757274402004    -9.06328321351501    0.162965993957604    66.0899068876993     
1.2131874256025      0.16400002362608     66.0998745141527     0.945520434138108    -9.12429334474297    0.945520434138108    -9.12429334474297    0.16400002362608     66.0998745141527     
1.22158959610493     0.165040732473982    66.1090974135425     0.945281245390551    -9.18569780183773    0.945281245390551    -9.18569780183773    0.165040732473982    66.1090974135425     
1.23004995750818     0.166088154067199    66.1175748135796     0.945039681246682    -9.24749882837314    0.945039681246682    -9.24749882837314    0.166088154067199    66.1175748135796     
1.23856891282489     0.167142321991486    66.1253059350272     0.944795714499084    -9.3096986747537     0.944795714499084    -9.3096986747537     0.167142321991486    66.1253059350272     
1.24714686785883     0.168203269848902    66.132289991682      0.944549317643153    -9.37229959810765    0.944549317643153    -9.37229959810765    0.168203269848902    66.132289991682      
1.25578423122429     0.169271031254172    66.1385261903598     0.944300462874679    -9.43530386217762    0.944300462874679    -9.43530386217762    0.169271031254172    66.1385261903598     
1.26448141436544     0.170345639830973    66.144013730889      0.944049122087461    -9.49871373720795    0.944049122087461    -9.49871373720795    0.170345639830973    66.144013730889      
1.27323883157605     0.171427129208103    66.1487518061073     0.943795266870847    -9.56253149982724    0.943795266870847    -9.56253149982724    0.171427129208103    66.1487518061073     
1.28205690001911     0.172515533015609    66.1527396018657     0.943538868507414    -9.62675943292986    0.943538868507414    -9.62675943292986    0.172515533015609    66.1527396018657     
1.29093603974678     0.173610884880794    66.1559762970368     0.943279897970536    -9.69139982555197    0.943279897970536    -9.69139982555197    0.173610884880794    66.1559762970368     
1.29987667372038     0.174713218424141    66.1584610635304     0.943018325922008    -9.75645497274472    0.943018325922008    -9.75645497274472    0.174713218424141    66.1584610635304     
1.30887922783053     0.175822567255162    66.1601930663136     0.942754122709694    -9.8219271754441     0.942754122709694    -9.8219271754441     0.175822567255162    66.1601930663136     
1.31794413091742     0.176938964968133    66.1611714634372     0.942487258365152    -9.88781874033648    0.942487258365152    -9.88781874033648    0.176938964968133    66.1611714634372     
1.32707181479129     0.178062445137755    66.1613954060676     0.942217702601309    -9.95413197972122    0.942217702601309    -9.95413197972122    0.178062445137755    66.1613954060676     
1.33626271425294     0.179193041314711    66.1608640385259     0.941945424810099    -10.0208692113683    0.941945424810099    -10.0208692113683    0.179193041314711    66.1608640385259     
1.34551726711449     0.180330787021137    66.1595764983301     0.941670394060192    -10.0880327583741    0.941670394060192    -10.0880327583741    0.180330787021137    66.1595764983301     
1.35483591422019     0.181475715745975    66.1575319162466     0.941392579094627    -10.1556249490106    0.941392579094627    -10.1556249490106    0.181475715745975    66.1575319162466     
1.36421909946747     0.182627860940264    66.154729416345      0.941111948328586    -10.2236481165733    0.941111948328586    -10.2236481165733    0.182627860940264    66.154729416345      
1.37366726982805     0.183787256012293    66.1511681160604     0.940828469847089    -10.2921045992225    0.940828469847089    -10.2921045992225    0.183787256012293    66.1511681160604     
1.38318087536923     0.184953934322684    66.1468471262612     0.940542111402756    -10.360996739823     0.940542111402756    -10.360996739823     0.184953934322684    66.1468471262612     
1.39276036927537     0.186127929179359    66.1417655513229     0.940252840413575    -10.4303268857781    0.940252840413575    -10.4303268857781    0.186127929179359    66.1417655513229     
1.40240620786941     0.187309273832409    66.1359224892091     0.939960623960698    -10.5000973888593    0.939960623960698    -10.5000973888593    0.187309273832409    66.1359224892091     
1.41211885063468     0.188498001468851    66.1293170315562     0.939665428786254    -10.5703106050324    0.939665428786254    -10.5703106050324    0.188498001468851    66.1293170315562     
1.42189876023673     0.189694145207289    66.1219482637678     0.939367221291166    -10.6409688942792    0.939367221291166    -10.6409688942792    0.189694145207289    66.1219482637678     
1.43174640254539     0.190897738092474    66.113815265112      0.93906596753306     -10.7120746204138    0.93906596753306     -10.7120746204138    0.190897738092474    66.113815265112      
1.441662246657       0.192108813089736    66.1049171088274     0.938761633224121    -10.7836301508963    0.938761633224121    -10.7836301508963    0.192108813089736    66.1049171088274     
1.45164676491667     0.193327403079327    66.0952528622335     0.938454183729038    -10.8556378566398    0.938454183729038    -10.8556378566398    0.193327403079327    66.0952528622335     
1.46170043294087     0.194553540850638    66.0848215868501     0.938143584062914    -10.928100111814     0.938143584062914    -10.928100111814     0.194553540850638    66.0848215868501     
1.47182372964002     0.195787259096327    66.0736223385199     0.937829798889311    -11.0010192936443    0.937829798889311    -11.0010192936443    0.195787259096327    66.0736223385199     
1.48201713724134     0.197028590406298    66.0616541675401     0.937512792518189    -11.0743977822051    0.937512792518189    -11.0743977822051    0.197028590406298    66.0616541675401     
1.49228114131181     0.198277567261614    66.0489161187995     0.937192528904037    -11.1482379602096    0.937192528904037    -11.1482379602096    0.198277567261614    66.0489161187995     
1.50261623078131     0.199534222028243    66.035407231922      0.936868971643895    -11.2225422127932    0.936868971643895    -11.2225422127932    0.199534222028243    66.035407231922      
1.51302289796588     0.200798586950736    66.0211265414172     0.936542083975515    -11.2973129272937    0.936542083975515    -11.2973129272937    0.200798586950736    66.0211265414172     
1.52350163859121     0.202070694145751    66.0060730768375     0.936211828775508    -11.3725524930244    0.936211828775508    -11.3725524930244    0.202070694145751    66.0060730768375     
1.53405295181622     0.203350575595484    65.9902458629416     0.935878168557578    -11.4482633010447    0.935878168557578    -11.4482633010447    0.203350575595484    65.9902458629416     
1.54467734025688     0.204638263140959    65.9736439198652     0.935541065470739    -11.5244477439226    0.935541065470739    -11.5244477439226    0.204638263140959    65.9736439198652     
1.5553753100101      0.205933788475211    65.9562662632976     0.935200481297628    -11.6011082154943    0.935200481297628    -11.6011082154943    0.205933788475211    65.9562662632976     
1.56614737067788     0.207237183136349    65.9381119046671     0.934856377452862    -11.6782471106177    0.934856377452862    -11.6782471106177    0.207237183136349    65.9381119046671     
1.57699403539157     0.208548478500484    65.9191798513305     0.934508714981399    -11.7558668249198    0.934508714981399    -11.7558668249198    0.208548478500484    65.9191798513305     
1.58791582083631     0.209867705774542    65.8994691067718     0.934157454557026    -11.8339697545402    0.934157454557026    -11.8339697545402    0.209867705774542    65.8994691067718     
1.59891324727563     0.211194895988953    65.8789786708068     0.933802556480827    -11.9125582958678    0.933802556480827    -11.9125582958678    0.211194895988953    65.8789786708068     
1.60998683857628     0.2125300799902      65.8577075397955     0.933443980679727    -11.9916348452723    0.933443980679727    -11.9916348452723    0.2125300799902      65.8577075397955     
1.62113712223314     0.213873288433268    65.8356547068598     0.933081686705169    -12.0712017988308    0.933081686705169    -12.0712017988308    0.213873288433268    65.8356547068598     
1.63236462939433     0.215224551773923    65.8128191621111     0.932715633731684    -12.1512615520465    0.932715633731684    -12.1512615520465    0.215224551773923    65.8128191621111     
1.6436698948866      0.216583900260914    65.7891998928822     0.932345780555731    -12.2318164995655    0.932345780555731    -12.2318164995655    0.216583900260914    65.7891998928822     
1.6550534572407      0.217951363927995    65.7647958839683     0.931972085594419    -12.3128690348832    0.931972085594419    -12.3128690348832    0.217951363927995    65.7647958839683     
1.6665158587171      0.219326972585854    65.7396061178751     0.931594506884405    -12.3944215500484    0.931594506884405    -12.3944215500484    0.219326972585854    65.7396061178751     
1.67805764533181     0.22071075581389     65.7136295750725     0.931213002080846    -12.4764764353597    0.931213002080846    -12.4764764353597    0.22071075581389     65.7136295750725     
1.68967936688237     0.222102742951851    65.6868652342583     0.930827528456341    -12.5590360790558    0.930827528456341    -12.5590360790558    0.222102742951851    65.6868652342583     
1.70138157697405     0.223502963091371    65.6593120726268     0.930438042900108    -12.642102867001     0.930438042900108    -12.642102867001     0.223502963091371    65.6593120726268     
1.71316483304624     0.22491144506733     65.6309690661467     0.930044501917042    -12.7256791823626    0.930044501917042    -12.7256791823626    0.22491144506733     65.6309690661467     
1.72502969639898     0.226328217449113    65.6018351898452     0.929646861627015    -12.8097674052839    0.929646861627015    -12.8097674052839    0.226328217449113    65.6018351898452     
1.73697673221969     0.227753308531715    65.5719094181006     0.929245077764174    -12.8943699125497    0.929245077764174    -12.8943699125497    0.227753308531715    65.5719094181006     
1.74900650961012     0.22918674632672     65.541190724941      0.928839105676348    -12.9794890772462    0.928839105676348    -12.9794890772462    0.22918674632672     65.541190724941      
1.76111960161345     0.230628558553127    65.5096780843532     0.928428900324516    -13.0651272684135    0.928428900324516    -13.0651272684135    0.230628558553127    65.5096780843532     
1.77331658524159     0.232078772628063    65.4773704705963     0.928014416282411    -13.1512868506931    0.928014416282411    -13.1512868506931    0.232078772628063    65.4773704705963     
1.78559804150264     0.233537415657335    65.4442668585245     0.927595607736176    -13.2379701839673    0.927595607736176    -13.2379701839673    0.233537415657335    65.4442668585245     
1.79796455542861     0.235004514425855    65.4103662239188     0.927172428484124    -13.3251796229928    0.927172428484124    -13.3251796229928    0.235004514425855    65.4103662239188     
1.81041671610324     0.236480095387929    65.3756675438233     0.926744831936625    -13.4129175170281    0.926744831936625    -13.4129175170281    0.236480095387929    65.3756675438233     
1.82295511669011     0.237964184657387    65.3401697968927     0.926312771116033    -13.5011862094524    0.926312771116033    -13.5011862094524    0.237964184657387    65.3401697968927     
1.83558035446086     0.239456807997607    65.3038719637455     0.9258761986568      -13.5899880373804    0.9258761986568      -13.5899880373804    0.239456807997607    65.3038719637455     
1.84829303082365     0.240957990811364    65.2667730273255     0.925435066805595    -13.6793253312674    0.925435066805595    -13.6793253312674    0.240957990811364    65.2667730273255     
1.86109375135183     0.242467758130569    65.2288719732725     0.924989327421656    -13.7692004145101    0.924989327421656    -13.7692004145101    0.242467758130569    65.2288719732725     
1.87398312581276     0.243986134605835    65.1901677902984     0.924538931977118    -13.8596156030382    0.924538931977118    -13.8596156030382    0.243986134605835    65.1901677902984     
1.88696176819684     0.245513144495939    65.1506594705745     0.924083831557578    -13.9505732049007    0.924083831557578    -13.9505732049007    0.245513144495939    65.1506594705745     
1.90003029674682     0.247048811657117    65.1103460101245     0.923623976862701    -14.0420755198444    0.923623976862701    -14.0420755198444    0.247048811657117    65.1103460101245     
1.9131893339872      0.248593159532229    65.069226409226      0.923159318206971    -14.134124838885     0.923159318206971    -14.134124838885     0.248593159532229    65.069226409226      
1.92643950675388     0.250146211139783    65.0272996728208     0.922689805520608    -14.226723443872     0.922689805520608    -14.226723443872     0.250146211139783    65.0272996728208     
1.93978144622406     0.251707989062819    64.9845648109326     0.922215388350521    -14.3198736070455    0.922215388350521    -14.3198736070455    0.251707989062819    64.9845648109326     
1.95321578794627     0.253278515437657    64.9410208390934     0.92173601586151     -14.4135775905864    0.92173601586151     -14.4135775905864    0.253278515437657    64.9410208390934     
1.96674317187066     0.254857811942497    64.8966667787781     0.921251636837495    -14.5078376461591    0.921251636837495    -14.5078376461591    0.254857811942497    64.8966667787781     
1.98036424237949     0.256445899785886    64.8515016578462     0.920762199682952    -14.6026560144466    0.920762199682952    -14.6026560144466    0.256445899785886    64.8515016578462     
1.9940796483178      0.258042799695047    64.8055245109936     0.920267652424462    -14.6980349246782    0.920267652424462    -14.6980349246782    0.258042799695047    64.8055245109936     
2.00789004302436     0.259648531904072    64.7587343802113     0.919767942712432    -14.7939765941512    0.919767942712432    -14.7939765941512    0.259648531904072    64.7587343802113     
2.02179608436274     0.261263116141974    64.7111303152522     0.919263017822929    -14.8904832277429    0.919263017822929    -14.8904832277429    0.261263116141974    64.7111303152522     
2.03579843475269     0.26288657162061     64.6627113741074     0.918752824659715    -14.9875570174176    0.918752824659715    -14.9875570174176    0.26288657162061     64.6627113741074     
2.04989776120168     0.264518917022451    64.6134766234895     0.918237309756359    -15.0852001417235    0.918237309756359    -15.0852001417235    0.264518917022451    64.6134766234895     
2.06409473533667     0.266160170488241    64.5634251393257     0.9177164192786      -15.1834147652844    0.9177164192786      -15.1834147652844    0.266160170488241    64.5634251393257     
2.07839003343611     0.267810349604521    64.5125560072565     0.917190099026846    -15.282203038283     0.917190099026846    -15.282203038283     0.267810349604521    64.5125560072565     
2.09278433646214     0.269469471390992    64.4608683231473     0.916658294438767    -15.3815670959358    0.916658294438767    -15.3815670959358    0.269469471390992    64.4608683231473     
2.10727833009304     0.271137552287788    64.4083611936029     0.916120950592185    -15.4815090579623    0.916120950592185    -15.4815090579623    0.271137552287788    64.4083611936029     
2.12187270475591     0.272814608142588    64.3550337364945     0.915578012208039    -15.5820310280448    0.915578012208039    -15.5820310280448    0.272814608142588    64.3550337364945     
2.13656815565952     0.274500654197624    64.300885081493      0.91502942365356     -15.6831350932815    0.91502942365356     -15.6831350932815    0.274500654197624    64.300885081493      
2.15136538282746     0.27619570507654     64.2459143706113     0.914475128945643    -15.784823323632     0.914475128945643    -15.784823323632     0.27619570507654     64.2459143706113     
2.16626509113145     0.277899774771156    64.1901207587547     0.913915071754394    -15.8870977713553    0.913915071754394    -15.8870977713553    0.277899774771156    64.1901207587547     
2.18126799032497     0.279612876628082    64.1335034142796     0.913349195406856    -15.9899604704396    0.913349195406856    -15.9899604704396    0.279612876628082    64.1335034142796     
2.19637479507702     0.281335023335223    64.0760615195603     0.912777442890946    -16.0934134360251    0.912777442890946    -16.0934134360251    0.281335023335223    64.0760615195603     
2.21158622500617     0.283066226908175    64.0177942715648     0.912199756859574    -16.1974586638189    0.912199756859574    -16.1974586638189    0.283066226908175    64.0177942715648     
2.22690300471489     0.284806498676493    63.958700882438      0.911616079634983    -16.3020981295023    0.911616079634983    -16.3020981295023    0.284806498676493    63.958700882438      
2.24232586382399     0.28655584926985     63.898780580093      0.911026353213268    -16.4073337881312    0.911026353213268    -16.4073337881312    0.28655584926985     63.898780580093      
2.25785553700743     0.288314288604083    63.8380326088121     0.910430519269123    -16.5131675735273    0.910430519269123    -16.5131675735273    0.288314288604083    63.8380326088121     
2.2734927640273      0.290081825867138    63.7764562298539     0.909828519160791    -16.619601397664     0.909828519160791    -16.619601397664     0.290081825867138    63.7764562298539     
2.28923828976906     0.291858469504901    63.7140507220698     0.909220293935244    -16.7266371500428    0.909220293935244    -16.7266371500428    0.291858469504901    63.7140507220698     
2.30509286427703     0.293644227206943    63.6508153825283     0.908605784333568    -16.8342766970638    0.908605784333568    -16.8342766970638    0.293644227206943    63.6508153825283     
2.32105724279009     0.295439105892141    63.5867495271469     0.907984930796588    -16.9425218813876    0.907984930796588    -16.9425218813876    0.295439105892141    63.5867495271469     
2.33713218577768     0.297243111694226    63.5218524913332     0.907357673470699    -17.0513745212902    0.907357673470699    -17.0513745212902    0.297243111694226    63.5218524913332     
2.35331845897606     0.299056249947221    63.4561236306319     0.906723952213931    -17.1608364100108    0.906723952213931    -17.1608364100108    0.299056249947221    63.4561236306319     
2.36961683342469     0.300878525170816    63.3895623213814     0.906083706602306    -17.2709093150921    0.906083706602306    -17.2709093150921    0.300878525170816    63.3895623213814     
2.38602808550306     0.302709941055622    63.3221679613776     0.905436875936324    -17.3815949777133    0.905436875936324    -17.3815949777133    0.302709941055622    63.3221679613776     
2.40255299696762     0.304550500448381    63.2539399705454     0.904783399247824    -17.4928951120161    0.904783399247824    -17.4928951120161    0.304550500448381    63.2539399705454     
2.41919235498901     0.30640020533707     63.1848777916176     0.904123215306963    -17.6048114044231    0.904123215306963    -17.6048114044231    0.30640020533707     63.1848777916176     
2.43594695218961     0.308259056835955    63.1149808908214     0.90345626262956     -17.71734551295      0.90345626262956     -17.71734551295      0.308259056835955    63.1149808908214     
2.45281758668124     0.310127055170561    63.0442487585731     0.902782479484613    -17.8304990665102    0.902782479484613    -17.8304990665102    0.310127055170561    63.0442487585731     
2.46980506210321     0.312004199662582    62.9726809101792     0.90210180390209     -17.9442736642122    0.90210180390209     -17.9442736642122    0.312004199662582    62.9726809101792     
2.48691018766059     0.313890488714744    62.9002768865451     0.901414173681045    -18.0586708746514    0.901414173681045    -18.0586708746514    0.313890488714744    62.9002768865451     
2.50413377816277     0.315785919795599    62.8270362548916     0.900719526397897    -18.173692235194     0.900719526397897    -18.173692235194     0.315785919795599    62.8270362548916     
2.52147665406224     0.317690489424273    62.7529586094773     0.900017799415045    -18.2893392512546    0.900017799415045    -18.2893392512546    0.317690489424273    62.7529586094773     
2.53893964149373     0.319604193155188    62.6780435723285     0.899308929889764    -18.4056133955681    0.899308929889764    -18.4056133955681    0.319604193155188    62.6780435723285     
2.55652357231351     0.321527025562714    62.6022907939771     0.898592854783298    -18.5225161074536    0.898592854783298    -18.5225161074536    0.321527025562714    62.6022907939771     
2.57422928413904     0.32345898022583     62.5256999542021     0.897869510870365    -18.6400487920744    0.897869510870365    -18.6400487920744    0.32345898022583     62.5256999542021     
2.59205762038886     0.32540004971272     62.4482707627818     0.897138834748774    -18.7582128196891    0.897138834748774    -18.7582128196891    0.32540004971272     62.4482707627818     
2.61000943032278     0.327350225565375    62.3700029602485     0.896400762849481    -18.8770095248988    0.896400762849481    -18.8770095248988    0.327350225565375    62.3700029602485     
2.62808556908233     0.329309498284162    62.290896318652      0.895655231446841    -18.9964402058875    0.895655231446841    -18.9964402058875    0.329309498284162    62.290896318652      
2.64628689773149     0.331277857312417    62.2109506423281     0.894902176669211    -19.1165061236574    0.894902176669211    -19.1165061236574    0.331277857312417    62.2109506423281     
2.6646142832977      0.333255291020992    62.1301657686739     0.894141534509754    -19.2372085012577    0.894141534509754    -19.2372085012577    0.333255291020992    62.1301657686739     
2.68306859881319     0.335241786692852    62.0485415689274     0.893373240837668    -19.3585485230089    0.893373240837668    -19.3585485230089    0.335241786692852    62.0485415689274     
2.70165072335652     0.337237330507658    61.9660779489539     0.892597231409616    -19.4805273337215    0.892597231409616    -19.4805273337215    0.337237330507658    61.9660779489539     
2.72036154209452     0.339241907526385    61.882774850038      0.891813441881493    -19.6031460379096    0.891813441881493    -19.6031460379096    0.339241907526385    61.882774850038      
2.73920194632439     0.341255501675943    61.79863224968       0.891021807820473    -19.7264056989995    0.891021807820473    -19.7264056989995    0.341255501675943    61.79863224968       
2.75817283351619     0.34327809573389     61.713650162397      0.890222264717448    -19.8503073385349    0.890222264717448    -19.8503073385349    0.34327809573389     61.713650162397      
2.7772751073556      0.345309671313112    61.6278286405307     0.889414747999636    -19.9748519353748    0.889414747999636    -19.9748519353748    0.345309671313112    61.6278286405307     
2.79650967778694     0.347350208846624    61.5411677750571     0.888599193043632    -20.1000404248908    0.888599193043632    -20.1000404248908    0.347350208846624    61.5411677750571     
2.81587746105654     0.349399687572387    61.453667696403      0.887775535188694    -20.2258736981572    0.887775535188694    -20.2258736981572    0.349399687572387    61.453667696403      
2.83537937975637     0.351458085518207    61.3653285752651     0.886943709750364    -20.3523526011391    0.886943709750364    -20.3523526011391    0.351458085518207    61.3653285752651     
2.855016362868       0.353525379486722    61.2761506234337     0.886103652034422    -20.4794779338762    0.886103652034422    -20.4794779338762    0.353525379486722    61.2761506234337     
2.87478934580684     0.355601545040457    61.1861340946194     0.885255297351146    -20.6072504496638    0.885255297351146    -20.6072504496638    0.355601545040457    61.1861340946194     
2.89469927046672     0.357686556486977    61.0952792852846     0.884398581029853    -20.7356708542293    0.884398581029853    -20.7356708542293    0.357686556486977    61.0952792852846     
2.91474708526471     0.359780386864173    61.0035865354757     0.883533438433869    -20.8647398049089    0.883533438433869    -20.8647398049089    0.359780386864173    61.0035865354757     
2.93493374518637     0.361883007925605    60.9110562296611     0.882659804975673    -20.9944579098173    0.882659804975673    -20.9944579098173    0.361883007925605    60.9110562296611     
2.95526021183117     0.363994390126026    60.8176887975686     0.881777616132494    -21.1248257270195    0.881777616132494    -21.1248257270195    0.363994390126026    60.8176887975686     
2.97572745345835     0.366114502607008    60.7234847150284     0.880886807462154    -21.2558437636979    0.880886807462154    -21.2558437636979    0.366114502607008    60.7234847150284     
2.99633644503302     0.368243313182707    60.628444504815      0.879987314619245    -21.3875124753177    0.879987314619245    -21.3875124753177    0.368243313182707    60.628444504815      
3.01708816827258     0.370380788325813    60.5325687374927     0.879079073371673    -21.5198322647934    0.879079073371673    -21.5198322647934    0.370380788325813    60.5325687374927     
3.03798361169355     0.372526893153623    60.4358580322619     0.878162019617473    -21.6528034816504    0.878162019617473    -21.6528034816504    0.372526893153623    60.4358580322619     
3.05902377065857     0.374681591414326    60.338313057806      0.877236089401968    -21.7864264211896    0.877236089401968    -21.7864264211896    0.374681591414326    60.338313057806      
3.08020964742391     0.376844845473437    60.2399345331402     0.876301218935252    -21.9207013236482    0.876301218935252    -21.9207013236482    0.376844845473437    60.2399345331402     
3.10154225118713     0.379016616300468    60.1407232284588     0.875357344610003    -22.0556283733635    0.875357344610003    -22.0556283733635    0.379016616300468    60.1407232284588     
3.1230225981352      0.381196863455757    60.0406799659842     0.874404403019591    -22.1912076979338    0.874404403019591    -22.1912076979338    0.381196863455757    60.0406799659842     
3.1446517114929      0.383385545077579    59.9398056208139     0.873442330976542    -22.3274393673835    0.873442330976542    -22.3274393673835    0.383385545077579    59.9398056208139     
3.16643062157154     0.385582617869408    59.8381011217694     0.87247106553128     -22.4643233933246    0.87247106553128     -22.4643233933246    0.385582617869408    59.8381011217694     
3.18836036581807     0.387788037087499    59.7355674522403     0.871490543991215    -22.6018597281242    0.871490543991215    -22.6018597281242    0.387788037087499    59.7355674522403     
3.21044198886449     0.390001756528676    59.6322056510296     0.870500703940152    -22.7400482640714    0.870500703940152    -22.7400482640714    0.390001756528676    59.6322056510296     
3.23267654257759     0.392223728518372    59.5280168131972     0.869501483257954    -22.8788888325441    0.869501483257954    -22.8788888325441    0.392223728518372    59.5280168131972     
3.25506508610907     0.39445390389902     59.4230020908985     0.868492820140619    -23.0183812031841    0.868492820140619    -23.0183812031841    0.39445390389902     59.4230020908985     
3.27760868594603     0.396692232018638    59.3171626942235     0.867474653120538    -23.1585250830691    0.867474653120538    -23.1585250830691    0.396692232018638    59.3171626942235     
3.3003084159617      0.398938660719783    59.2104998920303     0.866446921087162    -23.2993201158917    0.866446921087162    -23.2993201158917    0.398938660719783    59.2104998920303     
3.32316535746664     0.401193136328805    59.1030150127759     0.865409563307932    -23.4407658811414    0.865409563307932    -23.4407658811414    0.401193136328805    59.1030150127759     
3.34618059926026     0.403455603645388    58.9947094453441     0.864362519449458    -23.5828618932886    0.864362519449458    -23.5828618932886    0.403455603645388    58.9947094453441     
3.36935523768264     0.405726005932504    58.8855846398662     0.86330572959908     -23.7256076009777    0.86330572959908     -23.7256076009777    0.405726005932504    58.8855846398662     
3.39269037666681     0.408004284906641    58.7756421085398     0.862239134286649    -23.8690023862202    0.862239134286649    -23.8690023862202    0.408004284906641    58.7756421085398     
3.41618712779128     0.410290380728452    58.6648834264401     0.861162674506611    -24.0130455635974    0.861162674506611    -24.0130455635974    0.410290380728452    58.6648834264401     
3.43984661033304     0.412584231993752    58.5533102323266     0.860076291740381    -24.1577363794669    0.860076291740381    -24.1577363794669    0.412584231993752    58.5533102323266     
3.46366995132084     0.414885775724912    58.4409242294427     0.85897992797897     -24.3030740111754    0.85897992797897     -24.3030740111754    0.414885775724912    58.4409242294427     
3.4876582855889      0.417194947362663    58.3277271863079     0.857873525745872    -24.4490575662808    0.857873525745872    -24.4490575662808    0.417194947362663    58.3277271863079     
3.51181275583095     0.419511680758313    58.2137209375052     0.856757028120285    -24.5956860817789    0.856757028120285    -24.5956860817789    0.419511680758313    58.2137209375052     
3.53613451265468     0.421835908166382    58.0989073844571     0.855630378760452    -24.7429585233395    0.855630378760452    -24.7429585233395    0.421835908166382    58.0989073844571     
3.56062471463655     0.424167560237693    57.983288496197      0.854493521927382    -24.8908737845509    0.854493521927382    -24.8908737845509    0.424167560237693    57.983288496197      
3.58528452837695     0.426506566012926    57.8668663101282     0.853346402508739    -25.0394306861739    0.853346402508739    -25.0394306861739    0.426506566012926    57.8668663101282     
3.61011512855582     0.428852852916599    57.7496429327765     0.852188966042963    -25.1886279754027    0.852188966042963    -25.1886279754027    0.428852852916599    57.7496429327765     
3.63511769798855     0.431206346751595    57.6316205405309     0.851021158743655    -25.3384643251396    0.851021158743655    -25.3384643251396    0.431206346751595    57.6316205405309     
3.66029342768237     0.433566971694125    57.5128013803747     0.849842927524154    -25.4889383332776    0.849842927524154    -25.4889383332776    0.433566971694125    57.5128013803747     
3.68564351689307     0.435934650289228    57.3931877706063     0.848654220022306    -25.6400485219941    0.848654220022306    -25.6400485219941    0.435934650289228    57.3931877706063     
3.71116917318213     0.438309303446791    57.2727821015467     0.847454984625472    -25.7917933370582    0.847454984625472    -25.7917933370582    0.438309303446791    57.2727821015467     
3.7368716124742      0.440690850438084    57.1515868362366     0.846245170495671    -25.9441711471474    0.846245170495671    -25.9441711471474    0.440690850438084    57.1515868362366     
3.7627520591151      0.443079208892882    57.0296045111198     0.845024727594973    -26.0971802431798    0.845024727594973    -26.0971802431798    0.443079208892882    57.0296045111198     
3.78881174593007     0.445474294797077    56.906837736715      0.843793606710997    -26.2508188376568    0.843793606710997    -26.2508188376568    0.445474294797077    56.906837736715      
3.81505191428256     0.447876022490929    56.7832891982717     0.842551759482581    -26.4050850640218    0.842551759482581    -26.4050850640218    0.447876022490929    56.7832891982717     
3.8414738141333      0.450284304667886    56.6589616564122     0.841299138425648    -26.559976976033     0.841299138425648    -26.559976976033     0.450284304667886    56.6589616564122     
3.86807870409987     0.45269905237395     56.5338579477623     0.84003569695913     -26.7154925471489    0.84003569695913     -26.7154925471489    0.45269905237395     56.5338579477623     
3.89486785151668     0.455120175007725    56.4079809855599     0.838761389431086    -26.8716296699328    0.838761389431086    -26.8716296699328    0.455120175007725    56.4079809855599     
3.92184253249529     0.457547580321031    56.2813337602546     0.837476171144897    -27.0283861554706    0.837476171144897    -27.0283861554706    0.457547580321031    56.2813337602546     
3.94900403198525     0.459981174420174    56.1539193400852     0.83617999838554     -27.1857597328063    0.83617999838554     -27.1857597328063    0.459981174420174    56.1539193400852     
3.97635364383525     0.462420861767859    56.0257408716433     0.834872828446025    -27.3437480483953    0.834872828446025    -27.3437480483953    0.462420861767859    56.0257408716433     
4.00389267085483     0.464866545185742    55.8968015804183     0.83355461965381     -27.5023486655738    0.83355461965381     -27.5023486655738    0.464866545185742    55.8968015804183     
4.03162242487636     0.467318125857674    55.7671047713231     0.832225331397356    -27.661559064049     0.832225331397356    -27.661559064049     0.467318125857674    55.7671047713231     
4.05954422681758     0.469775503333596    55.6366538292025     0.830884924152667    -27.8213766394061    0.830884924152667    -27.8213766394061    0.469775503333596    55.6366538292025     
4.0876594067445      0.472238575534139    55.5054522193206     0.829533359509899    -27.9817987026356    0.829533359509899    -27.9817987026356    0.472238575534139    55.5054522193206     
4.11596930393478     0.474707238755914    55.3735034878297     0.828170600199985    -28.1428224796812    0.828170600199985    -28.1428224796812    0.474707238755914    55.3735034878297     
4.1444752669415      0.477181387677513    55.2408112622167     0.826796610121232    -28.304445111008     0.826796610121232    -28.304445111008     0.477181387677513    55.2408112622167     
4.17317865365743     0.479660915366217    55.10737925173       0.825411354365935    -28.4666636511909    0.825411354365935    -28.4666636511909    0.479660915366217    55.10737925173       
4.20208083137966     0.482145713285462    54.9732112477831     0.824014799246954    -28.6294750685281    0.824014799246954    -28.6294750685281    0.482145713285462    54.9732112477831     
4.23118317687482     0.484635671302988    54.8383111243376     0.822606912324221    -28.7928762446723    0.822606912324221    -28.7928762446723    0.484635671302988    54.8383111243376     
4.26048707644456     0.487130677699786    54.7026828382616     0.821187662431228    -28.9568639742885    0.821187662431228    -28.9568639742885    0.487130677699786    54.7026828382616     
4.28999392599168     0.489630619179758    54.5663304296657     0.819757019701392    -29.1214349647342    0.819757019701392    -29.1214349647342    0.489630619179758    54.5663304296657     
4.31970513108655     0.49213538088016     54.4292580222139     0.818314955594359    -29.2865858357633    0.818314955594359    -29.2865858357633    0.49213538088016     54.4292580222139     
4.3496221070341      0.494644846382809    54.2914698234108     0.816861442922166    -29.4523131192553    0.816861442922166    -29.4523131192553    0.494644846382809    54.2914698234108     
4.37974627894126     0.497158897726045    54.1529701248641     0.815396455875302    -29.6186132589687    0.815396455875302    -29.6186132589687    0.497158897726045    54.1529701248641     
4.41007908178481     0.499677415417502    54.0137633025197     0.813919970048573    -29.785482610321     0.813919970048573    -29.785482610321     0.499677415417502    54.0137633025197     
4.44062196047972     0.502200278447643    53.8738538168719     0.812431962466875    -29.9529174401951    0.812431962466875    -29.9529174401951    0.502200278447643    53.8738538168719     
4.47137636994805     0.504727364304087    53.7332462131475     0.810932411610676    -30.1209139267704    0.810932411610676    -30.1209139267704    0.504727364304087    53.7332462131475     
4.50234377518818     0.507258548986773    53.5919451214595     0.809421297441413    -30.2894681593854    0.809421297441413    -30.2894681593854    0.507258548986773    53.5919451214595     
4.53352565134463     0.509793707023838    53.4499552569383     0.807898601426552    -30.4585761384221    0.807898601426552    -30.4585761384221    0.509793707023838    53.4499552569383     
4.56492348377834     0.51233271148841     53.3072814198285     0.806364306564507    -30.6282337752251    0.806364306564507    -30.6282337752251    0.51233271148841     53.3072814198285     
4.59653876813741     0.514875434016103    53.1639284955625     0.804818397409207    -30.7984368920437    0.804818397409207    -30.7984368920437    0.514875434016103    53.1639284955625     
4.62837301042835     0.517421744823405    53.0199014548011     0.803260860094435    -30.9691812220073    0.803260860094435    -30.9691812220073    0.517421744823405    53.0199014548011     
4.66042772708778     0.519971512726818    52.8752053534472     0.801691682357869    -31.140462409128     0.801691682357869    -31.140462409128     0.519971512726818    52.8752053534472     
4.69270444505477     0.522524605162867    52.7298453326252     0.800110853564781    -31.3122760083359    0.800110853564781    -31.3122760083359    0.522524605162867    52.7298453326252     
4.72520470184345     0.525080888208854    52.5838266186364     0.798518364731372    -31.4846174855404    0.798518364731372    -31.4846174855404    0.525080888208854    52.5838266186364     
4.75793004561634     0.527640226604502    52.4371545228764     0.796914208547819    -31.6574822177285    0.796914208547819    -31.6574822177285    0.527640226604502    52.4371545228764     
4.79088203525807     0.530202483774352    52.289834441727      0.795298379400868    -31.8308654930891    0.795298379400868    -31.8308654930891    0.530202483774352    52.289834441727      
4.82406224044961     0.532767521851004    52.1418718564114     0.793670873396054    -32.0047625111721    0.793670873396054    -32.0047625111721    0.532767521851004    52.1418718564114     
4.85747224174309     0.535335201699154    51.9932723328222     0.792031688379517    -32.1791683830784    0.792031688379517    -32.1791683830784    0.535335201699154    51.9932723328222     
4.89111363063706     0.53790538294046     51.8440415213115     0.790380823959344    -32.3540781316834    0.790380823959344    -32.3540781316834    0.53790538294046     51.8440415213115     
4.9249880096523      0.540477923979178    51.6941851564535     0.788718281526473    -32.529486691892     0.788718281526473    -32.529486691892     0.540477923979178    51.6941851564535     
4.9590969924082      0.543052682028633    51.5437090567694     0.787044064275106    -32.705388910928     0.787044064275106    -32.705388910928     0.543052682028633    51.5437090567694     
4.99344220369954     0.545629513138443    51.3926191244232     0.785358177222615    -32.8817795486549    0.785358177222615    -32.8817795486549    0.545629513138443    51.3926191244232     
5.02802527957399     0.5482082722226      51.2409213448785     0.783660627228929    -33.0586532779344    0.783660627228929    -33.0586532779344    0.5482082722226      51.2409213448785     
5.06284786740995     0.550788813088241    51.0886217865278     0.781951423015392    -33.2360046850132    0.781951423015392    -33.2360046850132    0.550788813088241    51.0886217865278     
5.0979116259951      0.553370988465308    50.9357266002795     0.780230575183038    -33.4138282699505    0.780230575183038    -33.4138282699505    0.553370988465308    50.9357266002795     
5.13321822560536     0.55595465003686     50.7822420191196     0.778498096230295    -33.5921184470738    0.778498096230295    -33.5921184470738    0.55595465003686     50.7822420191196     
5.1687693480845      0.55853964847022     50.6281743576315     0.776754000570077    -33.7708695454727    0.776754000570077    -33.7708695454727    0.55853964847022     50.6281743576315     
5.2045666869242      0.561125833448872    50.4735300114833     0.774998304546279    -33.9500758095284    0.774998304546279    -33.9500758095284    0.561125833448872    50.4735300114833     
5.24061194734479     0.563713053705064    50.3183154568808     0.773231026449605    -34.1297313994759    0.773231026449605    -34.1297313994759    0.563713053705064    50.3183154568808     
5.27690684637642     0.566301157053136    50.1625372499863     0.771452186532749    -34.3098303920005    0.771452186532749    -34.3098303920005    0.566301157053136    50.1625372499863     
5.31345311294088     0.568889990423622    50.0062020262986     0.769661807024891    -34.4903667808736    0.769661807024891    -34.4903667808736    0.568889990423622    50.0062020262986     
5.35025248793394     0.571479399898008    49.8493164999998     0.767859912145523    -34.6713344776205    0.767859912145523    -34.6713344776205    0.571479399898008    49.8493164999998     
5.38730672430832     0.574069230744187    49.6918874632686     0.766046528117514    -34.8527273122237    0.766046528117514    -34.8527273122237    0.574069230744187    49.6918874632686     
5.42461758715712     0.576659327452594    49.5339217855556     0.764221683179478    -35.0345390338618    0.764221683179478    -35.0345390338618    0.576659327452594    49.5339217855556     
5.46218685379798     0.579249533773049    49.375426412822      0.762385407597379    -35.2167633116867    0.762385407597379    -35.2167633116867    0.579249533773049    49.375426412822      
5.50001631385768     0.581839692752167    49.2164083667472     0.760537733675385    -35.399393735631     0.760537733675385    -35.399393735631     0.581839692752167    49.2164083667472     
5.53810776935744     0.584429646771471    49.0568747438975     0.758678695765924    -35.5824238172548    0.758678695765924    -35.5824238172548    0.584429646771471    49.0568747438975     
5.57646303479871     0.587019237586073    48.8968327148604     0.756808330278915    -35.7658469906255    0.756808330278915    -35.7658469906255    0.587019237586073    48.8968327148604     
5.61508393724965     0.589608306363988    48.7362895233446     0.754926675690247    -35.9496566132347    0.754926675690247    -35.9496566132347    0.589608306363988    48.7362895233446     
5.65397231643214     0.592196693726003    48.5752524852432     0.753033772549387    -36.1338459669484    0.753033772549387    -36.1338459669484    0.592196693726003    48.5752524852432     
5.6931300248094      0.594784239786114    48.4137289876634     0.751129663486124    -36.3184082589928    0.751129663486124    -36.3184082589928    0.594784239786114    48.4137289876634     
5.73255892767428     0.59737078419248     48.2517264879224     0.749214393216499    -36.5033366229739    0.749214393216499    -36.5033366229739    0.59737078419248     48.2517264879224     
5.77226090323807     0.599956166168958    48.089252512505      0.747288008547844    -36.6886241199338    0.747288008547844    -36.6886241199338    0.599956166168958    48.089252512505      
5.81223784271999     0.602540224557061    47.9263146559907     0.745350558382918    -36.8742637394395    0.745350558382918    -36.8742637394395    0.602540224557061    47.9263146559907     
5.85249165043728     0.605122797858437    47.7629205799452     0.743402093723171    -37.060248400705     0.743402093723171    -37.060248400705     0.605122797858437    47.7629205799452     
5.89302424389589     0.607703724277784    47.5990780117787     0.741442667671072    -37.2465709537487    0.741442667671072    -37.2465709537487    0.607703724277784    47.5990780117787     
5.93383755388186     0.610282841766205    47.4347947435701     0.739472335431559    -37.4332241805834    0.739472335431559    -37.4332241805834    0.610282841766205    47.4347947435701     
5.97493352455325     0.612859988064963    47.2700786308579     0.737491154312499    -37.62020079644      0.737491154312499    -37.62020079644      0.612859988064963    47.2700786308579     
6.01631411353279     0.615435000749627    47.1049375913996     0.735499183724252    -37.8074934510229    0.735499183724252    -37.8074934510229    0.615435000749627    47.1049375913996     
6.05798129200112     0.618007717274546    46.9393796038986     0.733496485178272    -37.995094729797     0.733496485178272    -37.995094729797     0.618007717274546    46.9393796038986     
6.09993704479065     0.620577975017699    46.7734127066978     0.731483122284744    -38.1829971553092    0.731483122284744    -38.1829971553092    0.620577975017699    46.7734127066978     
6.14218337048018     0.623145611325806    46.6070449964438     0.72945916074926     -38.371193188538     0.72945916074926     -38.371193188538     0.623145611325806    46.6070449964438     
6.18472228149005     0.625710463559754    46.4402846267185     0.727424668368515    -38.5596752302766    0.727424668368515    -38.5596752302766    0.625710463559754    46.4402846267185     
6.227555804178       0.628272369140248    46.2731398066416     0.725379715025033    -38.7484356225439    0.725379715025033    -38.7484356225439    0.628272369140248    46.2731398066416     
6.27068597893574     0.6308311655937      46.1056187994426     0.723324372680931    -38.9374666500278    0.723324372680931    -38.9374666500278    0.6308311655937      46.1056187994426     
6.3141148602861      0.63338669059831     45.937729921004      0.721258715370634    -39.1267605415548    0.721258715370634    -39.1267605415548    0.63338669059831     45.937729921004      
6.35784451698092     0.63593878203032     45.7694815383742     0.719182819192659    -39.3163094715918    0.719182819192659    -39.3163094715918    0.63593878203032     45.7694815383742     
6.40187703209961     0.638487278010386    45.6008820682563     0.717096762300376    -39.5061055617715    0.717096762300376    -39.5061055617715    0.638487278010386    45.6008820682563     
6.44621450314833     0.6410320169501      45.4319399754641     0.715000624891786    -39.6961408824493    0.715000624891786    -39.6961408824493    0.6410320169501      45.4319399754641     
6.49085904215995     0.643572837598546    45.2626637713565     0.712894489198278    -39.8864074542837    0.712894489198278    -39.8864074542837    0.643572837598546    45.2626637713565     
6.53581277579464     0.646109579088959    45.0930620122414     0.710778439472422    -40.0768972498452    0.710778439472422    -40.0768972498452    0.646109579088959    45.0930620122414     
6.58107784544119     0.648642080985332    44.9231432977597     0.708652561974753    -40.2676021952467    0.708652561974753    -40.2676021952467    0.648642080985332    44.9231432977597     
6.62665640731898     0.651170183329113    44.7529162692377     0.706516944959545    -40.4585141718039    0.706516944959545    -40.4585141718039    0.651170183329113    44.7529162692377     
6.67255063258075     0.653693726685767    44.5823896080231     0.704371678659605    -40.6496250177136    0.704371678659605    -40.6496250177136    0.653693726685767    44.5823896080231     
6.71876270741595     0.656212552191332    44.411572033793      0.702216855270105    -40.8409265297587    0.702216855270105    -40.8409265297587    0.656212552191332    44.411572033793      
6.76529483315495     0.658726501598846    44.2404723028412     0.70005256893137     -41.0324104650334    0.70005256893137     -41.0324104650334    0.658726501598846    44.2404723028412     
6.81214922637385     0.661235417324642    44.0690992063465     0.697878915710764    -41.2240685426897    0.697878915710764    -41.2240685426897    0.661235417324642    44.0690992063465     
6.8593281190001      0.663739142494527    43.8974615686151     0.695695993583528    -41.4158924457073    0.695695993583528    -41.4158924457073    0.663739142494527    43.8974615686151     
6.9068337584188      0.666237520989694    43.7255682453095     0.693503902412708    -41.6078738226771    0.693503902412708    -41.6078738226771    0.666237520989694    43.7255682453095     
6.95466840757978     0.668730397492461    43.5534281216562     0.691302743928097    -41.8000042896079    0.691302743928097    -41.8000042896079    0.668730397492461    43.5534281216562     
7.00283434510535     0.671217617531771    43.3810501106337     0.689092621704254    -41.9922754317503    0.689092621704254    -41.9922754317503    0.671217617531771    43.3810501106337     
7.05133386539889     0.673699027528351    43.2084431511479     0.686873641137552    -42.1846788054342    0.686873641137552    -42.1846788054342    0.673699027528351    43.2084431511479     
7.10016927875412     0.676174474839623    43.0356162061876     0.684645909422334    -42.3772059399263    0.684645909422334    -42.3772059399263    0.676174474839623    43.0356162061876     
7.14934291146517     0.678643807804233    42.8625782609674     0.682409535526114    -42.5698483392999    0.682409535526114    -42.5698483392999    0.678643807804233    42.8625782609674     
7.19885710593736     0.681106875786188    42.6893383210581     0.680164630163929    -42.7625974843165    0.680164630163929    -42.7625974843165    0.681106875786188    42.6893383210581     
7.24871422079882     0.683563529218665    42.5159054104995     0.677911305771732    -42.9554448343262    0.677911305771732    -42.9554448343262    0.683563529218665    42.5159054104995     
7.29891663101283     0.686013619647302    42.3422885699058     0.675649676478979    -43.1483818291737    0.675649676478979    -43.1483818291737    0.686013619647302    42.3422885699058     
7.34946672799093     0.68845699977307     42.1684968545598     0.673379858080308    -43.3413998911173    0.673379858080308    -43.3413998911173    0.68845699977307     42.1684968545598     
7.40036691970689     0.690893523494668    41.9945393324936     0.671101968006384    -43.5344904267598    0.671101968006384    -43.5344904267598    0.690893523494668    41.9945393324936     
7.45161963081133     0.693323045950364    41.8204250825651     0.668816125293936    -43.7276448289844    0.668816125293936    -43.7276448289844    0.693323045950364    41.8204250825651     
7.50322730274732     0.695745423559327    41.6461631925228     0.666522450554946    -43.9208544789015    0.666522450554946    -43.9208544789015    0.695745423559327    41.6461631925228     
7.55519239386661     0.698160514062321    41.47176275707       0.664221065945097    -44.1141107477969    0.664221065945097    -44.1141107477969    0.698160514062321    41.47176275707       
7.60751737954673     0.700568176561904    41.2972328759137     0.661912095131386    -44.307404999094     0.661912095131386    -44.307404999094     0.700568176561904    41.2972328759137     
7.66020475230897     0.702968271561894    41.1225826518191     0.659595663259038    -44.5007285903114    0.659595663259038    -44.5007285903114    0.702968271561894    41.1225826518191     
7.71325702193705     0.705360661006248    40.947821188654      0.657271896917663    -44.6940728750302    0.657271896917663    -44.6940728750302    0.705360661006248    40.947821188654      
7.76667671559669     0.707745208317224    40.772957589435      0.654940924106683    -44.8874292048593    0.654940924106683    -44.8874292048593    0.707745208317224    40.772957589435      
7.82046637795601     0.710121778432881    40.5980009543678     0.652602874200115    -45.0807889314057    0.652602874200115    -45.0807889314057    0.710121778432881    40.5980009543678     
7.87462857130672     0.712490237843805    40.4229603788931     0.650257877910631    -45.274143408241     0.650257877910631    -45.274143408241     0.712490237843805    40.4229603788931     
7.92916587568622     0.71485045462912     40.2478449517285     0.647906067253026    -45.4674839928696    0.647906067253026    -45.4674839928696    0.71485045462912     40.2478449517285     
7.98408088900043     0.717202298491719    40.0726637529143     0.645547575507024    -45.6608020486953    0.645547575507024    -45.6608020486953    0.717202298491719    40.0726637529143     
8.03937622714762     0.719545640792668    39.8974258518646     0.643182537179506    -45.8540889469795    0.643182537179506    -45.8540889469795    0.719545640792668    39.8974258518646     
8.09505452414296     0.721880354584858    39.7221403054168     0.64081108796616     -46.0473360688036    0.64081108796616     -46.0473360688036    0.721880354584858    39.7221403054168     
8.15111843224403     0.724206314645749    39.5468161558933     0.638433364712594    -46.2405348070182    0.638433364712594    -46.2405348070182    0.724206314645749    39.5468161558933     
8.20757062207714     0.726523397509315    39.3714624291634     0.636049505374905    -46.4336765681911    0.636049505374905    -46.4336765681911    0.726523397509315    39.3714624291634     
8.26441378276454     0.728831481497062    39.196088132718      0.633659648979781    -46.6267527745437    0.633659648979781    -46.6267527745437    0.728831481497062    39.196088132718      
8.32165062205256     0.731130446748207    39.0207022537472     0.631263935584103    -46.8197548658834    0.631263935584103    -46.8197548658834    0.731130446748207    39.0207022537472     
8.37928386644054     0.733420175248895    38.8453137572322     0.628862506234139    -47.0126743015218    0.628862506234139    -47.0126743015218    0.733420175248895    38.8453137572322     
8.43731626131074     0.735700550860526    38.6699315840451     0.626455502924293    -47.2055025621864    0.626455502924293    -47.2055025621864    0.735700550860526    38.6699315840451     
8.49575057105912     0.737971459347125    38.4945646490602     0.624043068555471    -47.3982311519176    0.624043068555471    -47.3982311519176    0.737971459347125    38.4945646490602     
8.554589579227       0.74023278840175     38.3192218392792     0.621625346893123    -47.5908515999545    0.621625346893123    -47.5908515999545    0.74023278840175     38.3192218392792     
8.61383608863367     0.742484427671929    38.1439120119693     0.619202482524898    -47.7833554626063    0.619202482524898    -47.7833554626063    0.742484427671929    38.1439120119693     
8.67349292150991     0.744726268784132    37.9686439928153     0.616774620818041    -47.9757343251101    0.616774620818041    -47.9757343251101    0.744726268784132    37.9686439928153     
8.7335629196324      0.746958205367228    37.7934265740876     0.61434190787648     -48.167979803472     0.61434190787648     -48.167979803472     0.746958205367228    37.7934265740876     
8.79404894445915     0.749180133074945    37.6182685128266     0.61190449049771     -48.3600835462929    0.61190449049771     -48.3600835462929    0.749180133074945    37.6182685128266     
8.85495387726572     0.751391949607295    37.4431785290462     0.60946251612942     -48.5520372365737    0.60946251612942     -48.5520372365737    0.751391949607295    37.4431785290462     
8.91628061928254     0.753593554731015    37.2681653039518     0.607016132825933    -48.7438325935068    0.607016132825933    -48.7438325935068    0.753593554731015    37.2681653039518     
8.97803209183309     0.755784850298935    37.0932374781811     0.604565489204529    -48.9354613742446    0.604565489204529    -48.9354613742446    0.755784850298935    37.0932374781811     
9.04021123647304     0.757965740268318    36.9184036500635     0.602110734401579    -49.1269153756481    0.602110734401579    -49.1269153756481    0.757965740268318    36.9184036500635     
9.1028210151304      0.760136130718162    36.743672373901      0.599652018028637    -49.3181864360162    0.599652018028637    -49.3181864360162    0.760136130718162    36.743672373901      
9.16586441024661     0.762295929865448    36.5690521582696     0.597189490128385    -49.5092664367919    0.597189490128385    -49.5092664367919    0.762295929865448    36.5690521582696     
9.22934442491857     0.76444504808031     36.3945514643464     0.594723301130619    -49.7001473042444    0.594723301130619    -49.7001473042444    0.76444504808031     36.3945514643464     
9.29326408304175     0.766583397900199    36.2201787042553     0.592253601808154    -49.8908210111315    0.592253601808154    -49.8908210111315    0.766583397900199    36.2201787042553     
9.3576264294542      0.768710894042916    36.045942239443      0.589780543232758    -50.0812795783318    0.589780543232758    -50.0812795783318    0.768710894042916    36.045942239443      
9.42243453008162     0.770827453418647    35.871850379074      0.587304276731151    -50.2715150764584    0.587304276731151    -50.2715150764584    0.770827453418647    35.871850379074      
9.48769147208335     0.772932995140886    35.6979113784564     0.584824953841044    -50.4615196274403    0.584824953841044    -50.4615196274403    0.772932995140886    35.6979113784564     
9.55340036399949     0.775027440536337    35.5241334374901     0.582342726267282    -50.6512854060831    0.582342726267282    -50.6512854060831    0.775027440536337    35.5241334374901     
9.61956433589894     0.777110713153724    35.3505246991446     0.579857745838124    -50.8408046415978    0.579857745838124    -50.8408046415978    0.777110713153724    35.3505246991446     
9.68618653952855     0.779182738771562    35.1770932479642     0.577370164461653    -51.0300696191044    0.577370164461653    -51.0300696191044    0.779182738771562    35.1770932479642     
9.75327014846315     0.781243445404851    35.0038471086012     0.574880134082383    -51.2190726811047    0.574880134082383    -51.2190726811047    0.781243445404851    35.0038471086012     
9.82081835825686     0.783292763310761    34.8307942443771     0.572387806638062    -51.4078062289301    0.572387806638062    -51.4078062289301    0.783292763310761    34.8307942443771     
9.88883438659521     0.785330624993227    34.6579425558756     0.569893334016714    -51.5962627241541    0.569893334016714    -51.5962627241541    0.785330624993227    34.6579425558756     
9.95732147344846     0.787356965206528    34.4852998795644     0.56739686801391     -51.7844346899789    0.56739686801391     -51.7844346899789    0.787356965206528    34.4852998795644     
10.0262828812259     0.789371720957834    34.3128739864475     0.564898560290361    -51.9723147125889    0.564898560290361    -51.9723147125889    0.789371720957834    34.3128739864475     
10.0957218949314     0.791374831508715    34.1406725807493     0.562398562329806    -52.1598954424737    0.562398562329806    -52.1598954424737    0.791374831508715    34.1406725807493     
10.1656418223196     0.793366238375652    33.9687032986299     0.559897025397186    -52.3471695957198    0.559897025397186    -52.3471695957198    0.793366238375652    33.9687032986299     
10.2360459940537     0.795345885329526    33.7969737069326     0.557394100497257    -52.5341299552685    0.557394100497257    -52.5341299552685    0.795345885329526    33.7969737069326     
10.3069377638642     0.797313718394118    33.6254913019639     0.554889938333498    -52.7207693721429    0.554889938333498    -52.7207693721429    0.797313718394118    33.6254913019639     
10.3783205087084     0.79926968584362     33.4542635083065     0.552384689267472    -52.9070807666408    0.552384689267472    -52.9070807666408    0.79926968584362     33.4542635083065     
10.4501976289314     0.801213738199178    33.2832976776647     0.549878503278588    -53.0930571294951    0.549878503278588    -53.0930571294951    0.801213738199178    33.2832976776647     
10.5225725484281     0.80314582822445     33.1126010877454     0.547371529924319    -53.2786915229985    0.547371529924319    -53.2786915229985    0.80314582822445     33.1126010877454     
10.5954487148063     0.805065910920258    32.9421809411696     0.544863918300878    -53.4639770820974    0.544863918300878    -53.4639770820974    0.805065910920258    32.9421809411696     
10.6688295995508     0.806973943518261    32.7720443644213     0.542355817004376    -53.648907015449     0.542355817004376    -53.648907015449     0.806973943518261    32.7720443644213     
10.7427186981889     0.808869885473721    32.6021984068296     0.539847374092496    -53.8334746064437    0.539847374092496    -53.8334746064437    0.808869885473721    32.6021984068296     
10.8171195304568     0.810753698457382    32.4326500395836     0.537338737046685    -54.0176732141956    0.537338737046685    -54.0176732141956    0.810753698457382    32.4326500395836     
10.8920356404676     0.81262534634643     32.2634061547856     0.534830052734896    -54.2014962744945    0.534830052734896    -54.2014962744945    0.81262534634643     32.2634061547856     
10.9674705968795     0.814484795214589    32.0944735645353     0.532321467374873    -54.3849373007253    0.532321467374873    -54.3849373007253    0.814484795214589    32.0944735645353     
11.0434279930664     0.816332013321366    31.9258590000527     0.529813126498035    -54.5679898847511    0.529813126498035    -54.5679898847511    0.816332013321366    31.9258590000527     
11.1199114472886     0.818166971100444    31.7575691108333     0.527305174913943    -54.750647697761     0.527305174913943    -54.750647697761     0.818166971100444    31.7575691108333     
11.1969246028657     0.819989641147258    31.5896104638395     0.524797756675382    -54.9329044910835    0.524797756675382    -54.9329044910835    0.819989641147258    31.5896104638395     
11.2744711283496     0.821799998205753    31.4219895427284     0.522291015044051    -55.1147540969625    0.522291015044051    -55.1147540969625    0.821799998205753    31.4219895427284     
11.3525547176995     0.82359801915438     31.254712747113      0.519785092456923    -55.2961904292998    0.519785092456923    -55.2961904292998    0.82359801915438     31.254712747113      
11.4311790904578     0.8253836829913      31.0877863918593     0.517280130493218    -55.4772074843618    0.517280130493218    -55.4772074843618    0.8253836829913      31.0877863918593     
11.5103479919276     0.82715697081883     30.9212167064209     0.514776269842092    -55.6577993414479    0.514776269842092    -55.6577993414479    0.82715697081883     30.9212167064209     
11.5900651933505     0.828917865827215    30.7550098342037     0.512273650270927    -55.8379601635291    0.512273650270927    -55.8379601635291    0.828917865827215    30.7550098342037     
11.6703344920869     0.830666353277604    30.5891718319721     0.509772410594409    -56.0176841978446    0.509772410594409    -56.0176841978446    0.830666353277604    30.5891718319721     
11.7511597117962     0.832402420484421    30.4237086692842     0.507272688644211    -56.1969657764697    0.507272688644211    -56.1969657764697    0.832402420484421    30.4237086692842     
11.8325447026197     0.834126056797004    30.258626227967      0.504774621239437    -56.3757993168426    0.504774621239437    -56.3757993168426    0.834126056797004    30.258626227967      
11.9144933413634     0.835837253580639    30.0939303016221     0.50227834415778     -56.554179322262     0.50227834415778     -56.554179322262     0.835837253580639    30.0939303016221     
11.9970095316829     0.837536004196933    29.9296265951693     0.499783992107381    -56.732100382344     0.499783992107381    -56.732100382344     0.837536004196933    29.9296265951693     
12.0800972042694     0.839222303983603    29.7657207244226     0.497291698699455    -56.9095571734495    0.497291698699455    -56.9095571734495    0.839222303983603    29.7657207244226     
12.1637603170369     0.840896150233675    29.6022182157006     0.494801596421629    -57.0865444590745    0.494801596421629    -57.0865444590745    0.840896150233675    29.6022182157006     
12.2480028553106     0.842557542174104    29.4391245054722     0.492313816612046    -57.2630570902062    0.492313816612046    -57.2630570902062    0.842557542174104    29.4391245054722     
12.332828832017      0.844206480943878    29.2764449400339     0.489828489434208    -57.439090005647     0.489828489434208    -57.439090005647     0.844206480943878    29.2764449400339     
12.4182422878748     0.845842969571578    29.1141847752216     0.48734574385259     -57.6146382323032    0.48734574385259     -57.6146382323032    0.845842969571578    29.1141847752216     
12.5042472915876     0.84746701295245     28.9523491761566     0.484865707609008    -57.7896968854403    0.484865707609008    -57.7896968854403    0.84746701295245     28.9523491761566     
12.5908479400375     0.849078617824996    28.7909432170215     0.482388507199741    -57.964261168907     0.482388507199741    -57.964261168907     0.849078617824996    28.7909432170215     
12.6780483584806     0.850677792747118    28.6299718808708     0.479914267853441    -58.138326375325     0.479914267853441    -58.138326375325     0.850677792747118    28.6299718808708     
12.765852700743      0.852264548071802    28.469440059474      0.477443113509806    -58.3118878862464    0.477443113509806    -58.3118878862464    0.852264548071802    28.469440059474      
12.8542651494191     0.853838895922427    28.309352553188      0.474975166799011    -58.48494117228      0.474975166799011    -58.48494117228      0.853838895922427    28.309352553188      
12.9432899160707     0.855400850167653    28.1497140708626     0.472510549021927    -58.6574817931863    0.472510549021927    -58.6574817931863    0.855400850167653    28.1497140708626     
13.0329312414276     0.856950426395947    27.9905292297772     0.470049380131105    -58.829505397939     0.470049380131105    -58.829505397939     0.856950426395947    27.9905292297772     
13.1231933955895     0.85848764188977     27.8318025556065     0.467591778712535    -59.001007724759     0.467591778712535    -59.001007724759     0.85848764188977     27.8318025556065     
13.2140806782296     0.860012515599432    27.6735384824173     0.465137861968162    -59.1719846011161    0.465137861968162    -59.1719846011161    0.860012515599432    27.6735384824173     
13.3055974187994     0.861525068116626    27.5157413526954     0.462687745699196    -59.3424319436998    0.462687745699196    -59.3424319436998    0.861525068116626    27.5157413526954     
13.3977479767348     0.863025321647704    27.3584154174006     0.460241544290166    -59.5123457583635    0.460241544290166    -59.5123457583635    0.863025321647704    27.3584154174006     
13.4905367416639     0.864513299986668    27.2015648360505     0.457799370693746    -59.6817221400375    0.457799370693746    -59.6817221400375    0.864513299986668    27.2015648360505     
13.583968133616      0.86598902848793     27.0451936768332     0.455361336416336    -59.8505572726141    0.455361336416336    -59.8505572726141    0.86598902848793     27.0451936768332     
13.6780466032321     0.867452534038838    26.8893059167477     0.452927551504417    -60.0188474288047    0.452927551504417    -60.0188474288047    0.867452534038838    26.8893059167477     
13.7727766319773     0.868903845032001    26.7339054417713     0.450498124531636    -60.1865889699693    0.450498124531636    -60.1865889699693    0.868903845032001    26.7339054417713     
13.8681627323536     0.870342991337446    26.5789960470529     0.448073162586647    -60.3537783459191    0.448073162586647    -60.3537783459191    0.870342991337446    26.5789960470529     
13.9642094481155     0.871770004274586    26.424581437134      0.445652771261697    -60.5204120946921    0.445652771261697    -60.5204120946921    0.871770004274586    26.424581437134      
14.060921354486      0.873184916584065    26.2706652261949     0.44323705464194     -60.6864868423038    0.44323705464194     -60.6864868423038    0.873184916584065    26.2706652261949     
14.1583030583749     0.874587762399462    26.1172509383249     0.440826115295494    -60.8519993024706    0.440826115295494    -60.8519993024706    0.874587762399462    26.1172509383249     
14.2563591985978     0.875978577218906    25.9643420078191     0.438420054264192    -61.0169462763104    0.438420054264192    -61.0169462763104    0.875978577218906    25.9643420078191     
14.3550944460977     0.87735739787658     25.8119417794974     0.436018971055095    -61.1813246520173    0.436018971055095    -61.1813246520173    0.87735739787658     25.8119417794974     
14.4545135041668     0.878724262514178    25.6600535090483     0.43362296363266     -61.3451314045122    0.43362296363266     -61.3451314045122    0.878724262514178    25.6600535090483     
14.554621108671      0.880079210552296    25.508680363395      0.431232128411646    -61.5083635950719    0.431232128411646    -61.5083635950719    0.880079210552296    25.508680363395      
14.6554220282756     0.881422282661786    25.3578254210838     0.428846560250694    -61.6710183709341    0.428846560250694    -61.6710183709341    0.881422282661786    25.3578254210838     
14.7569210646718     0.882753520735104    25.2074916726954     0.426466352446599    -61.8330929648793    0.426466352446599    -61.8330929648793    0.882753520735104    25.2074916726954     
14.8591230528063     0.88407296785765     25.0576820212757     0.42409159672924     -61.9945846947933    0.42409159672924     -61.9945846947933    0.88407296785765     25.0576820212757     
14.9620328611109     0.885380668279118    24.9083992827886     0.421722383257188    -62.1554909632079    0.421722383257188    -62.1554909632079    0.885380668279118    24.9083992827886     
15.0656553917349     0.886676667384891    24.7596461865881     0.419358800613975    -62.3158092568192    0.419358800613975    -62.3158092568192    0.886676667384891    24.7596461865881     
15.1699955807781     0.887961011667468    24.6114253759113     0.417000935804982    -62.4755371459896    0.417000935804982    -62.4755371459896    0.887961011667468    24.6114253759113     
15.2750583985266     0.889233748697961    24.4637394083883     0.414648874254981    -62.6346722842259    0.414648874254981    -62.6346722842259    0.889233748697961    24.4637394083883     
15.3808488496891     0.890494927097669    24.3165907565721     0.412302699806301    -62.7932124076435    0.412302699806301    -62.7932124076435    0.890494927097669    24.3165907565721     
15.4873719736351     0.891744596509739    24.1699818084859     0.409962494717592    -62.9511553344081    0.409962494717592    -62.9511553344081    0.891744596509739    24.1699818084859     
15.5946328446357     0.892982807570935    24.0239148681873     0.407628339663209    -63.1084989641624    0.407628339663209    -63.1084989641624    0.892982807570935    24.0239148681873     
15.7026365721046     0.894209611883524    23.8783921563489     0.405300313733177    -63.2652412774351    0.405300313733177    -63.2652412774351    0.894209611883524    23.8783921563489     
15.8113883008419     0.895425061987296    23.7334158108562     0.402978494433726    -63.4213803350325    0.402978494433726    -63.4213803350325    0.895425061987296    23.7334158108562     
15.9208932112789     0.896629211331727    23.5889878874195     0.400662957688421    -63.5769142774154    0.400662957688421    -63.5769142774154    0.896629211331727    23.5889878874195     
16.031156519725      0.897822114248296    23.445110360202      0.398353777839817    -63.73184132406      0.398353777839817    -63.73184132406      0.897822114248296    23.445110360202      
16.1421834786164     0.899003825922973    23.3017851224616     0.396051027651685    -63.8861597728026    0.396051027651685    -63.8861597728026    0.899003825922973    23.3017851224616     
16.2539793767659     0.900174402368899    23.1590139872058     0.393754778311742    -64.0398679991739    0.393754778311742    -64.0398679991739    0.900174402368899    23.1590139872058     
16.3665495396151     0.901333900399226    23.0167986878621     0.39146509943494     -64.1929644557148    0.39146509943494     -64.1929644557148    0.901333900399226    23.0167986878621     
16.4798993294879     0.902482377600199    22.8751408789583     0.389182059067215    -64.3454476712818    0.389182059067215    -64.3454476712818    0.902482377600199    22.8751408789583     
16.5940341458462     0.903619892304416    22.7340421368172     0.386905723689781    -64.4973162503399    0.386905723689781    -64.4973162503399    0.903619892304416    22.7340421368172     
16.7089594255468     0.90474650356433     22.5935039602617     0.38463615822387     -64.6485688722416    0.38463615822387     -64.6485688722416    0.90474650356433     22.5935039602617     
16.8246806431006     0.905862271125986    22.4535277713301     0.382373426035959    -64.799204290496     0.382373426035959    -64.799204290496     0.905862271125986    22.4535277713301     
16.9412033109334     0.906967255402966    22.3141149160055     0.380117588943459    -64.949221332026     0.380117588943459    -64.949221332026     0.906967255402966    22.3141149160055     
17.0585329796481     0.908061517450634    22.1752666649501     0.377868707220842    -65.0986188964146    0.377868707220842    -65.0986188964146    0.908061517450634    22.1752666649501     
17.1766752382898     0.909145118940592    22.0369842142533     0.375626839606206    -65.2473959551426    0.375626839606206    -65.2473959551426    0.909145118940592    22.0369842142533     
17.2956357146114     0.910218122135425    21.899268686187      0.373392043308263    -65.3955515508139    0.373392043308263    -65.3955515508139    0.910218122135425    21.899268686187      
17.415420075342      0.911280589863722    21.7621211299673     0.371164374013727    -65.5430847963771    0.371164374013727    -65.5430847963771    0.911280589863722    21.7621211299673     
17.5360340264567     0.912332585495358    21.6255425225289     0.368943885895114    -65.6899948743313    0.368943885895114    -65.6899948743313    0.912332585495358    21.6255425225289     
17.6574833134484     0.913374172917082    21.4895337693026     0.36673063161891     -65.8362810359302    0.36673063161891     -65.8362810359302    0.913374172917082    21.4895337693026     
17.7797737216018     0.914405416508383    21.3540957050017     0.364524662354123    -65.9819426003743    0.364524662354123    -65.9819426003743    0.914405416508383    21.3540957050017     
17.9029110762685     0.915426381117665    21.219229094414      0.36232602778119     -66.1269789539997    0.36232602778119     -66.1269789539997    0.915426381117665    21.219229094414      
18.0269012431448     0.916437132038716    21.0849346332016     0.360134776101223    -66.2713895494562    0.360134776101223    -66.2713895494562    0.916437132038716    21.0849346332016     
18.1517501285511     0.917437734987498    20.9512129487035     0.357950954045605    -66.4151739048822    0.357950954045605    -66.4151739048822    0.917437734987498    20.9512129487035     
18.2774636797132     0.918428256079248    20.8180646007451     0.355774606885902    -66.5583316030737    0.355774606885902    -66.5583316030737    0.918428256079248    20.8180646007451     
18.4040478850455     0.919408761805888    20.6854900824518     0.353605778444075    -66.7008622906453    0.353605778444075    -66.7008622906453    0.919408761805888    20.6854900824518     
18.5315087744364     0.920379319013764    20.5534898210671     0.351444511103012    -66.8427656771893    0.351444511103012    -66.8427656771893    0.920379319013764    20.5534898210671     
18.6598524195354     0.921339994881724    20.4220641787734     0.34929084581733     -66.9840415344292    0.34929084581733     -66.9840415344292    0.921339994881724    20.4220641787734     
18.7890849340427     0.922290856899503    20.2912134535175     0.347144822124459    -67.1246896953683    0.347144822124459    -67.1246896953683    0.922290856899503    20.2912134535175     
18.9192124739998     0.923231972846456    20.1609378798377     0.345006478155987    -67.264710053436     0.345006478155987    -67.264710053436     0.923231972846456    20.1609378798377     
19.0502412380833     0.924163410770628    20.0312376296945     0.34287585064926     -67.4041025616294    0.34287585064926     -67.4041025616294    0.924163410770628    20.0312376296945     
19.1821774678999     0.925085238968158    19.9021128133018     0.340752974959221    -67.5428672316542    0.340752974959221    -67.5428672316542    0.925085238968158    19.9021128133018     
19.3150274482837     0.925997525963017    19.773563479962      0.338637885070479    -67.6810041330594    0.338637885070479    -67.6810041330594    0.925997525963017    19.773563479962      
19.4487975075959     0.926900340487107    19.6455896189001     0.336530613609596    -67.8185133923743    0.336530613609596    -67.8185133923743    0.926900340487107    19.6455896189001     
19.5834940180259     0.927793751460684    19.5181911601005     0.334431191857577    -67.9553951922393    0.334431191857577    -67.9553951922393    0.927793751460684    19.5181911601005     
19.7191233958948     0.928677827973146    19.3913679751429     0.332339649762573    -68.0916497705391    0.332339649762573    -68.0916497705391    0.928677827973146    19.3913679751429     
19.8556921019614     0.929552639264149    19.2651198780396     0.330256015952742    -68.2272774195315    0.330256015952742    -68.2272774195315    0.929552639264149    19.2651198780396     
19.9932066417298     0.930418254705084    19.1394466260719     0.328180317749317    -68.3622784849777    0.328180317749317    -68.3622784849777    0.930418254705084    19.1394466260719     
20.1316735657591     0.9312747437809      19.0143479206264     0.326112581179816    -68.4966533652705    0.326112581179816    -68.4966533652705    0.9312747437809      19.0143479206264     
20.2710994699757     0.932122176072271    18.8898234080301     0.324052830991412    -68.6304025105636    0.324052830991412    -68.6304025105636    0.932122176072271    18.8898234080301     
20.4114909959874     0.932960621238112    18.7658726803845     0.322001090664458    -68.7635264218998    0.322001090664458    -68.7635264218998    0.932960621238112    18.7658726803845     
20.5528548313998     0.933790148998455    18.6424952763987     0.319957382426146    -68.8960256503404    0.319957382426146    -68.8960256503404    0.933790148998455    18.6424952763987     
20.6951977101346     0.934610829117651    18.5196906822194     0.317921727264266    -69.0279007960955    0.317921727264266    -69.0279007960955    0.934610829117651    18.5196906822194     
20.838526412751      0.93542273138794     18.3974583322614     0.315894144941121    -69.1591525076525    0.315894144941121    -69.1591525076525    0.93542273138794     18.3974583322614     
20.9828477667681     0.936225925613361    18.275797610032      0.313874654007529    -69.2897814809111    0.313874654007529    -69.2897814809111    0.936225925613361    18.275797610032      
21.1281686469902     0.937020481594002    18.1547078489571     0.311863271816907    -69.4197884583137    0.311863271816907    -69.4197884583137    0.937020481594002    18.1547078489571     
21.2744959758348     0.937806469110601    18.0341883331998     0.309860014539481    -69.5491742279818    0.309860014539481    -69.5491742279818    0.937806469110601    18.0341883331998     
21.4218367236615     0.938583957909489    17.9142382984808     0.30786489717654     -69.6779396228523    0.30786489717654     -69.6779396228523    0.938583957909489    17.9142382984808     
21.570197909105      0.939353017687871    17.7948569328907     0.305877933574794    -69.8060855198161    0.305877933574794    -69.8060855198161    0.939353017687871    17.7948569328907     
21.7195865994086     0.940113718079452    17.6760433777023     0.303899136440764    -69.9336128388598    0.303899136440764    -69.9336128388598    0.940113718079452    17.6760433777023     
21.8700099107613     0.940866128640396    17.5577967281761     0.301928517355253    -70.0605225422084    0.301928517355253    -70.0605225422084    0.940866128640396    17.5577967281761     
22.0214750086368     0.941610318835619    17.4401160343648     0.299966086787858    -70.1868156334723    0.299966086787858    -70.1868156334723    0.941610318835619    17.4401160343648     
22.1739891081345     0.942346358025429    17.3230003019106     0.298011854111509    -70.312493156796     0.298011854111509    -70.312493156796     0.942346358025429    17.3230003019106     
22.3275594743234     0.943074315452477    17.206448492839      0.296065827617055    -70.4375561960109    0.296065827617055    -70.4375561960109    0.943074315452477    17.206448492839      
22.4821934225886     0.94379426022905     17.0904595263491     0.294128014527871    -70.5620058737898    0.294128014527871    -70.5620058737898    0.94379426022905     17.0904595263491     
22.6378983189787     0.944506261324686    16.975032279597      0.292198421014483    -70.6858433508057    0.292198421014483    -70.6858433508057    0.944506261324686    16.975032279597      
22.7946815805579     0.945210387554114    16.8601655884748     0.290277052209198    -70.809069824895     0.290277052209198    -70.809069824895     0.945210387554114    16.8601655884748     
22.9525506757585     0.945906707565511    16.7458582483858     0.288363912220747    -70.9316865302221    0.288363912220747    -70.9316865302221    0.945906707565511    16.7458582483858     
23.1115131247368     0.946595289829076    16.6321090150111     0.28645900414892     -71.0536947364489    0.28645900414892     -71.0536947364489    0.946595289829076    16.6321090150111     
23.2715764997317     0.947276202625922    16.518916605074      0.284562330099195    -71.1750957479094    0.284562330099195    -71.1750957479094    0.947276202625922    16.518916605074      
23.4327484254249     0.947949514037277    16.4062796970957     0.282673891197348    -71.2958909027859    0.282673891197348    -71.2958909027859    0.947949514037277    16.4062796970957     
23.5950365793046     0.948615291933989    16.2941969321473     0.28079368760404     -71.4160815722906    0.28079368760404     -71.4160815722906    0.948615291933989    16.2941969321473     
23.7584486920308     0.949273603966342    16.182666914594      0.278921718529392    -71.5356691598518    0.278921718529392    -71.5356691598518    0.949273603966342    16.182666914594      
23.9229925478036     0.94992451755416     16.0716882128349     0.277057982247509    -71.6546551003025    0.277057982247509    -71.6546551003025    0.94992451755416     16.0716882128349     
24.0886759847344     0.95056809987723     15.9612593600342     0.275202476110969    -71.7730408590756    0.275202476110969    -71.7730408590756    0.95056809987723     15.9612593600342     
24.255506895219      0.951204417865993    15.8513788548479     0.273355196565286    -71.8908279314019    0.273355196565286    -71.8908279314019    0.951204417865993    15.8513788548479     
24.4234932263132     0.95183353819254     15.7420451621434     0.2715161391633      -72.0080178415124    0.2715161391633      -72.0080178415124    0.95183353819254     15.7420451621434     
24.592642980112      0.952455527261892    15.6332567137113     0.269685298579527    -72.1246121418466    0.269685298579527    -72.1246121418466    0.952455527261892    15.6332567137113     
24.7629642141306     0.953070451203559    15.5250119089724     0.267862668624454    -72.2406124122635    0.267862668624454    -72.2406124122635    0.953070451203559    15.5250119089724     
24.9344650416877     0.953678375863379    15.4173091156759     0.266048242258756    -72.3560202592582    0.266048242258756    -72.3560202592582    0.953678375863379    15.4173091156759     
25.1071536322929     0.954279366795629    15.3101466705917     0.264242011607467    -72.4708373151828    0.264242011607467    -72.4708373151828    0.954279366795629    15.3101466705917     
25.2810382120351     0.95487348925541     15.2035228801958     0.262443967974058    -72.5850652374717    0.262443967974058    -72.5850652374717    0.95487348925541     15.2035228801958     
25.4561270639745     0.955460808191293    15.0974360213477     0.260654101854455    -72.6987057078717    0.260654101854455    -72.6987057078717    0.955460808191293    15.0974360213477     
25.6324285285375     0.956041388238236    14.9918843419611     0.258872402950971    -72.8117604316763    0.258872402950971    -72.8117604316763    0.956041388238236    14.9918843419611     
25.8099510039137     0.956615293710744    14.8868660616678     0.257098860186153    -72.9242311369647    0.257098860186153    -72.9242311369647    0.956615293710744    14.8868660616678     
25.988702946456      0.957182588596305    14.7823793724729     0.255333461716547    -73.0361195738463    0.255333461716547    -73.0361195738463    0.957182588596305    14.7823793724729     
26.1686928710835     0.957743336549046    14.6784224394046     0.253576194946366    -73.1474275137068    0.253576194946366    -73.1474275137068    0.957743336549046    14.6784224394046     
26.3499293516871     0.958297600883673    14.5749934011541     0.251827046541078    -73.2581567484632    0.251827046541078    -73.2581567484632    0.958297600883673    14.5749934011541     
26.5324210215377     0.958845444569613    14.4720903707107     0.250086002440875    -73.3683090898186    0.250086002440875    -73.3683090898186    0.958845444569613    14.4720903707107     
26.7161765736978     0.959386930225422    14.3697114359869     0.248353047874062    -73.4778863685248    0.248353047874062    -73.4778863685248    0.959386930225422    14.3697114359869     
26.9012047614355     0.95992212011341     14.2678546604379     0.246628167370338    -73.5868904336473    0.246628167370338    -73.5868904336473    0.95992212011341     14.2678546604379     
27.0875143986412     0.960451076134512    14.1665180836721     0.24491134477396     -73.695323151835     0.24491134477396     -73.695323151835     0.960451076134512    14.1665180836721     
27.2751143602477     0.960973859823357    14.0656997220546     0.243202563256817    -73.8031864065946    0.243202563256817    -73.8031864065946    0.960973859823357    14.0656997220546     
27.464013582653      0.96149053234359     13.9653975693033     0.241501805331384    -73.9104820975685    0.241501805331384    -73.9104820975685    0.96149053234359     13.9653975693033     
27.6542210641458     0.962001154483384    13.8656095970767     0.239809052863561    -74.0172121398162    0.239809052863561    -74.0172121398162    0.962001154483384    13.8656095970767     
27.8457458653343     0.962505786651176    13.7663337555547     0.238124287085396    -74.1233784631007    0.238124287085396    -74.1233784631007    0.962505786651176    13.7663337555547     
28.0385971095778     0.963004488871614    13.6675679740108     0.236447488607706    -74.2289830111776    0.236447488607706    -74.2289830111776    0.963004488871614    13.6675679740108     
28.2327839834211     0.963497320781703    13.5693101613778     0.23477863743256     -74.3340277410891    0.23477863743256     -74.3340277410891    0.963497320781703    13.5693101613778     
28.4283157370323     0.963984341627148    13.4715582068044     0.233117712965649    -74.4385146224599    0.233117712965649    -74.4385146224599    0.963984341627148    13.4715582068044     
28.6252016846433     0.964465610258903    13.3743099802058     0.231464694028535    -74.5424456367971    0.231464694028535    -74.5424456367971    0.964465610258903    13.3743099802058     
28.8234512049938     0.964941185129901    13.2775633328044     0.229819558870772    -74.645822776795     0.229819558870772    -74.645822776795     0.964941185129901    13.2775633328044     
29.0230737417776     0.96541112429198     13.1813160976654     0.228182285181908    -74.7486480456394    0.228182285181908    -74.7486480456394    0.96541112429198     13.1813160976654     
29.2240788040927     0.965875485392985    13.0855660902227     0.226552850103357    -74.8509234563184    0.226552850103357    -74.8509234563184    0.965875485392985    13.0855660902227     
29.4264759668943     0.966334325674061    12.9903111087975     0.224931230240127    -74.9526510309338    0.224931230240127    -74.9526510309338    0.966334325674061    12.9903111087975     
29.6302748714509     0.966787701967109    12.8955489351103     0.223317401672451    -75.0538328000156    0.223317401672451    -75.0538328000156    0.966787701967109    12.8955489351103     
29.8354852258035     0.967235670692418    12.8012773347839     0.221711339967258    -75.1544708018395    0.221711339967258    -75.1544708018395    0.967235670692418    12.8012773347839     
30.0421168052279     0.967678287856475    12.7074940578399     0.220113020189526    -75.2545670817451    0.220113020189526    -75.2545670817451    0.967678287856475    12.7074940578399     
30.2501794527007     0.96811560904992     12.6141968391872     0.218522416913506    -75.3541236914581    0.218522416913506    -75.3541236914581    0.96811560904992     12.6141968391872     
30.4596830793679     0.968547689445679    12.5213833991019     0.216939504233802    -75.4531426884125    0.216939504233802    -75.4531426884125    0.968547689445679    12.5213833991019     
30.6706376650172     0.968974583797243    12.4290514437023     0.215364255776321    -75.5516261350745    0.215364255776321    -75.5516261350745    0.968974583797243    12.4290514437023     
30.8830532585533     0.969396346437105    12.3371986654133     0.213796644709094    -75.6495760982694    0.213796644709094    -75.6495760982694    0.969396346437105    12.3371986654133     
31.0969399784765     0.969813031275339    12.2458227434255     0.212236643752961    -75.7469946485075    0.212236643752961    -75.7469946485075    0.969813031275339    12.2458227434255     
31.3123080133647     0.970224691798329    12.1549213441465     0.210684225192112    -75.8438838593112    0.210684225192112    -75.8438838593112    0.970224691798329    12.1549213441465     
31.529167622359      0.970631381067645    12.0644921216438     0.209139360884502    -75.9402458065441    0.209139360884502    -75.9402458065441    0.970631381067645    12.0644921216438     
31.7475291356523     0.971033151719044    11.9745327180816     0.20760202227213     -76.0360825677382    0.20760202227213     -76.0360825677382    0.971033151719044    11.9745327180816     
31.967402954981      0.971430055961616    11.8850407641494     0.206072180391169    -76.1313962214229    0.206072180391169    -76.1313962214229    0.971430055961616    11.8850407641494     
32.1887995541209     0.971822145577054    11.796013879484      0.20454980588198     -76.2261888464523    0.20454980588198     -76.2261888464523    0.971822145577054    11.796013879484      
32.4117294793863     0.972209471919057    11.7074496730845     0.203034868998974    -76.3204625213326    0.203034868998974    -76.3204625213326    0.972209471919057    11.7074496730845     
32.6362033501316     0.972592085912853    11.6193457437185     0.20152733962034     -76.4142193235478    0.20152733962034     -76.4142193235478    0.972592085912853    11.6193457437185     
32.8622318592581     0.972970038054844    11.5316996803232     0.200027187257646    -76.5074613288858    0.200027187257646    -76.5074613288858    0.972970038054844    11.5316996803232     
33.0898257737226     0.973343378412368    11.4445090623986     0.198534381065296    -76.6001906107601    0.198534381065296    -76.6001906107601    0.973343378412368    11.4445090623986     
33.3189959350508     0.97371215662357     11.3577714603936     0.197048889849846    -76.6924092395314    0.197048889849846    -76.6924092395314    0.97371215662357     11.3577714603936     
33.5497532598534     0.974076421897399    11.2714844360848     0.1955706820792      -76.7841192818272    0.1955706820792      -76.7841192818272    0.974076421897399    11.2714844360848     
33.7821087403464     0.974436223013689    11.18564554295       0.19409972589166     -76.8753227998559    0.19409972589166     -76.8753227998559    0.974436223013689    11.18564554295       
34.0160734448744     0.974791608323365    11.1002523265322     0.192635989104836    -76.9660218507208    0.192635989104836    -76.9660218507208    0.974791608323365    11.1002523265322     
34.2516585184381     0.975142625748742    11.0153023247997     0.191179439224442    -77.0562184857287    0.191179439224442    -77.0562184857287    0.975142625748742    11.0153023247997     
34.4888751832252     0.975489322783915    10.9307930684974     0.189730043452927    -77.1459147496944    0.189730043452927    -77.1459147496944    0.975489322783915    10.9307930684974     
34.7277347391448     0.97583174649526     10.8467220814928     0.188287768698008    -77.235112680241     0.188287768698008    -77.235112680241     0.97583174649526     10.8467220814928     
34.9682485643657     0.976169943522014    10.763086881114      0.186852581581038    -77.3238143070955    0.186852581581038    -77.3238143070955    0.976169943522014    10.763086881114      
35.2104281158587     0.976503960076946    10.679884978482      0.185424448445265    -77.4120216513785    0.185424448445265    -77.4120216513785    0.976503960076946    10.679884978482      
35.4542849299418     0.976833841947123    10.5971138788376     0.184003335363945    -77.4997367248872    0.184003335363945    -77.4997367248872    0.976833841947123    10.5971138788376     
35.6998306228304     0.977159634494747    10.5147710818595     0.182589208148332    -77.5869615293726    0.182589208148332    -77.5869615293726    0.977159634494747    10.5147710818595     
35.94707689119       0.977481382658085    10.4328540819777     0.181182032355532    -77.67369805581      0.181182032355532    -77.67369805581      0.977481382658085    10.4328540819777     
36.1960355126939     0.977799130952466    10.3513603686802     0.179781773296235    -77.7599482836604    0.179781773296235    -77.7599482836604    0.977799130952466    10.3513603686802     
36.446718346584      0.978112923471364    10.270287426814      0.178388396042308    -77.8457141801241    0.178388396042308    -77.8457141801241    0.978112923471364    10.270287426814      
36.6991373342355     0.978422803887541    10.1896327368787     0.17700186543427     -77.9309976993866    0.17700186543427     -77.9309976993866    0.978422803887541    10.1896327368787     
36.9533044997263     0.978728815454277    10.1093937753151     0.17562214608864     -78.0158007818527    0.17562214608864     -78.0158007818527    0.978728815454277    10.1093937753151     
37.2092319504093     0.979031001006647    10.0295680147877     0.174249202405142    -78.1001253533715    0.174249202405142    -78.1001253533715    0.979031001006647    10.0295680147877     
37.4669318774892     0.979329402962887    9.95015292446041     0.172882998573811    -78.1839733244509    0.172882998573811    -78.1839733244509    0.979329402962887    9.95015292446041     
37.7264165566033     0.979624063325799    9.87114597026769     0.171523498581955    -78.2673465894592    0.171523498581955    -78.2673465894592    0.979624063325799    9.87114597026769     
37.9876983484064     0.979915023684235    9.79254461517824     0.170170666221       -78.350247025815     0.170170666221       -78.350247025815     0.979915023684235    9.79254461517824     
38.2507896991594     0.980202325214629    9.71434631945465     0.168824465093219    -78.4326764931632    0.168824465093219    -78.4326764931632    0.980202325214629    9.71434631945465     
38.5157031413223     0.980486008682585    9.63654854090622     0.167484858618325    -78.514636832537     0.167484858618325    -78.514636832537     0.980486008682585    9.63654854090622     
38.7824512941511     0.980766114444526    9.55914873513627     0.166151810039958    -78.5961298655057    0.166151810039958    -78.5961298655057    0.980766114444526    9.55914873513627     
39.0510468642988     0.981042682449388    9.48214435578461     0.164825282432049    -78.6771573933054    0.164825282432049    -78.6771573933054    0.981042682449388    9.48214435578461     
39.3215026464212     0.981315752240358    9.40553285476374     0.163505238705062    -78.7577211959533    0.163505238705062    -78.7577211959533    0.981315752240358    9.40553285476374     
39.5938315237858     0.981585362956678    9.32931168248954     0.162191641612122    -78.8378230313446    0.162191641612122    -78.8378230313446    0.981585362956678    9.32931168248954     
39.8680464688857     0.981851553335468    9.25347828810798     0.160884453755024    -78.9174646343294    0.160884453755024    -78.9174646343294    0.981851553335468    9.25347828810798     
40.1441605440577     0.982114361713619    9.17803011971467     0.159583637590136    -78.996647715771     0.159583637590136    -78.996647715771     0.982114361713619    9.17803011971467     
40.4221869021044     0.982373826029702    9.10296462457064     0.158289155434183    -79.0753739615822    0.158289155434183    -79.0753739615822    0.982373826029702    9.10296462457064     
40.7021387869206     0.982629983825933    9.02827924931242     0.15700096946991     -79.1536450317391    0.15700096946991     -79.1536450317391    0.982629983825933    9.02827924931242     
40.9840295341245     0.982882872250174    8.95397144015672     0.15571904175165     -79.231462559273     0.15571904175165     -79.231462559273     0.982882872250174    8.95397144015672     
41.2678725716927     0.98313252805796     8.88003864310072     0.154443334210773    -79.3088281492352    0.154443334210773    -79.3088281492352    0.98313252805796     8.88003864310072     
41.5536814205998     0.983378987614562    8.80647830411742     0.153173808661025    -79.3857433776376    0.153173808661025    -79.3857433776376    0.983378987614562    8.80647830411742     
41.8414696954629     0.983622286897097    8.73328786934514     0.151910426803762    -79.4622097903652    0.151910426803762    -79.4622097903652    0.983622286897097    8.73328786934514     
42.1312511051895     0.983862461496643    8.66046478527403     0.150653150233081    -79.5382289020582    0.150653150233081    -79.5382289020582    0.983862461496643    8.66046478527403     
42.4230394536311     0.984099546620404    8.58800649892544     0.14940194044084     -79.6138021949672    0.14940194044084     -79.6138021949672    0.984099546620404    8.58800649892544     
42.7168486402404     0.984333577093889    8.51591045802895     0.148156758821571    -79.6889311177714    0.148156758821571    -79.6889311177714    0.984333577093889    8.51591045802895     
43.0126926607335     0.984564587363122    8.44417411119347     0.146917566677308    -79.7636170843668    0.146917566677308    -79.7636170843668    0.984564587363122    8.44417411119347     
43.3105856077568     0.984792611496874    8.37279490807378     0.14568432522229     -79.8378614726174    0.14568432522229     -79.8378614726174    0.984792611496874    8.37279490807378     
43.6105416715579     0.985017683188918    8.30177029953344     0.144456995587579    -79.9116656230681    0.144456995587579    -79.9116656230681    0.985017683188918    8.30177029953344     
43.9125751406618     0.985239835760301    8.23109773780261     0.143235538825578    -79.9850308376195    0.143235538825578    -79.9850308376195    0.985239835760301    8.23109773780261     
44.2167004025516     0.985459102161643    8.16077467663111     0.142019915914443    -80.0579583781612    0.142019915914443    -80.0579583781612    0.985459102161643    8.16077467663111     
44.5229319443538     0.985675514975442    8.09079857143877     0.140810087762407    -80.1304494651596    0.140810087762407    -80.1304494651596    0.985675514975442    8.09079857143877     
44.8312843535283     0.98588910641841     8.02116687945977     0.139606015212005    -80.202505276202     0.139606015212005    -80.202505276202     0.98588910641841     8.02116687945977     
45.1417723185633     0.98609990834381     7.95187705988391     0.13840765904421     -80.2741269444913    0.13840765904421     -80.2741269444913    0.98609990834381     7.95187705988391     
45.4544106296753     0.986307952243815    7.88292657399349     0.137214979982459    -80.34531555729      0.137214979982459    -80.34531555729      0.986307952243815    7.88292657399349     
45.769214179513      0.986513269251881    7.81431288529609     0.136027938696617    -80.4160721543106    0.136027938696617    -80.4160721543106    0.986513269251881    7.81431288529609     
46.0861979638675     0.986715890145119    7.74603345965374     0.134846495806827    -80.48639772605      0.134846495806827    -80.48639772605      0.986715890145119    7.74603345965374     
46.4053770823858     0.986915845346698    7.6780857654074      0.133670611887275    -80.5562932120653    0.133670611887275    -80.5562932120653    0.986915845346698    7.6780857654074      
46.7267667392909     0.98711316492823     7.61046727349863     0.13250024746988     -80.625759499186     0.13250024746988     -80.625759499186     0.98711316492823     7.61046727349863     
47.0503822441054     0.987307878612191    7.54317545758636     0.131335363047877    -80.6947974196621    0.131335363047877    -80.6947974196621    0.987307878612191    7.54317545758636     
47.3762390123812     0.987500015774328    7.47620779416114     0.130175919079336    -80.7634077492426    0.130175919079336    -80.7634077492426    0.987500015774328    7.47620779416114     
47.7043525664336     0.987689605446075    7.40956176265494     0.129021875990588    -80.8315912051813    0.129021875990588    -80.8315912051813    0.987689605446075    7.40956176265494     
48.0347385360808     0.987876676316984    7.34323484554684     0.127873194179562    -80.8993484441676    0.127873194179562    -80.8993484441676    0.987876676316984    7.34323484554684     
48.3674126593883     0.988061256737151    7.27722452846705     0.126729834019051    -80.9666800601752    0.126729834019051    -80.9666800601752    0.988061256737151    7.27722452846705     
48.7023907834188     0.988243374719639    7.21152830029499     0.125591755859888    -81.0335865822276    0.125591755859888    -81.0335865822276    0.988243374719639    7.21152830029499     
49.0396888649871     0.988423057942918    7.14614365325621     0.12445892003406     -81.1000684720738    0.12445892003406     -81.1000684720738    0.988423057942918    7.14614365325621     
49.3793229714198     0.98860033375329     7.08106808301404     0.123331286857722    -81.1661261217714    0.123331286857722    -81.1661261217714    0.98860033375329     7.08106808301404     
49.7213092813213     0.988775229167324    7.01629908875965     0.122208816634154    -81.2317598511687    0.122208816634154    -81.2317598511687    0.988775229167324    7.01629908875965     
50.0656640853438     0.988947770874285    6.95183417329681     0.121091469656626    -81.296969905286     0.121091469656626    -81.296969905286     0.988947770874285    6.95183417329681     
50.4124037869639     0.989117985238559    6.88767084312625     0.119979206211213    -81.3617564515834    0.119979206211213    -81.3617564515834    0.989117985238559    6.88767084312625     
50.7615449032636     0.989285898302086    6.82380660852326     0.118871986579503    -81.426119577117     0.118871986579503    -81.426119577117     0.989285898302086    6.82380660852326     
51.1131040657173     0.989451535786771    6.76023898361592     0.117769771041271    -81.4900592855696    0.117769771041271    -81.4900592855696    0.989451535786771    6.76023898361592     
51.467098020984      0.989614923096906    6.69696548645729     0.116672519877054    -81.5535754941558    0.116672519877054    -81.5535754941558    0.989614923096906    6.69696548645729     
51.8235436317049     0.989776085321582    6.63398363909654     0.11558019337067     -81.6166680303893    0.11558019337067     -81.6166680303893    0.989776085321582    6.63398363909654     
52.1824578773068     0.989935047237094    6.57129096764606     0.114492751811678    -81.6793366287085    0.114492751811678    -81.6793366287085    0.989935047237094    6.57129096764606     
52.5438578548111     0.990091833309334    6.50888500234602     0.113410155497743    -81.7415809269509    0.113410155497743    -81.7415809269509    0.990091833309334    6.50888500234602     
52.9077607796478     0.990246467696191    6.44676327762624     0.112332364736967    -81.8034004626669    0.112332364736967    -81.8034004626669    0.990246467696191    6.44676327762624     
53.2741839864757     0.990398974249927    6.38492333216535     0.111259339850145    -81.8647946692667    0.111259339850145    -81.8647946692667    0.990398974249927    6.38492333216535     
53.6431449300085     0.990549376519555    6.32336270894626     0.11019104117294     -81.925762871988     0.11019104117294     -81.925762871988     0.990549376519555    6.32336270894626     
54.0146611858458     0.9906976977532      6.2620789553105      0.109127429058039    -81.9863042836769    0.109127429058039    -81.9863042836769    0.9906976977532      6.2620789553105      
54.3887504513105     0.990843960900458    6.20106962300852     0.108068463877198    -82.0464180003679    0.108068463877198    -82.0464180003679    0.990843960900458    6.20106962300852     
54.765430546292      0.990988188614737    6.14033226824839     0.107014106023267    -82.1061029966554    0.107014106023267    -82.1061029966554    0.990988188614737    6.14033226824839     
55.1447194140946     0.991130403255592    6.07986445174079     0.105964315912139    -82.1653581208423    0.105964315912139    -82.1653581208423    0.991130403255592    6.07986445174079     
55.5266351222928     0.991270626891042    6.01966373874323     0.104919053984651    -82.2241820898513    0.104919053984651    -82.2241820898513    0.991270626891042    6.01966373874323     
55.9111958635915     0.991408881299889    5.95972769909989     0.103878280708419    -82.2825734838895    0.103878280708419    -82.2825734838895    0.991408881299889    5.95972769909989     
56.2984199566928     0.991545187974002    5.90005390728033     0.102841956579629    -82.3405307408458    0.102841956579629    -82.3405307408458    0.991545187974002    5.90005390728033     
56.6883258471688     0.991679568120606    5.84063994241551     0.101810042124775    -82.3980521504103    0.101810042124775    -82.3980521504103    0.991679568120606    5.84063994241551     
57.0809321083398     0.991812042664555    5.78148338833162     0.10078249790234     -82.4551358478952    0.10078249790234     -82.4551358478952    0.991812042664555    5.78148338833162     
57.4762574421595     0.99194263225058     5.72258183358082     0.099759284504428    -82.5117798077417    0.099759284504428    -82.5117798077417    0.99194263225058     5.72258183358082     
57.8743206801056     0.992071357245532    5.6639328714709      0.098740362558353    -82.5679818366921    0.098740362558353    -82.5679818366921    0.992071357245532    5.6639328714709      
58.275140784077      0.99219823774061     5.60553410009213     0.097725692728173    -82.6237395666066    0.097725692728173    -82.6237395666066    0.99219823774061     5.60553410009213     
58.678736847297      0.992323293553569    5.54738312234203     0.096715235716185    -82.6790504469034    0.096715235716185    -82.6790504469034    0.992323293553569    5.54738312234203     
59.0851280952227     0.992446544230914    5.48947754594765     0.095708952264366    -82.7339117365982    0.095708952264366    -82.7339117365982    0.992446544230914    5.48947754594765     
59.4943338864612     0.992568009050075    5.43181498348696     0.094706803155786    -82.7883204959171    0.094706803155786    -82.7883204959171    0.992568009050075    5.43181498348696     
59.9063737136911     0.992687707021574    5.37439305240684     0.093708749215959    -82.8422735774565    0.093708749215959    -82.8422735774565    0.992687707021574    5.37439305240684     
60.3212672045918     0.992805656891168    5.31720937503969     0.092714751314169    -82.8957676168613    0.092714751314169    -82.8957676168613    0.992805656891168    5.31720937503969     
60.7390341227777     0.99292187714197     5.26026157861829     0.091724770364751    -82.948799022988     0.091724770364751    -82.948799022988     0.99292187714197     5.26026157861829     
61.1596943687404     0.993036385996565    5.20354729528841     0.090738767328335    -83.0013639675215    0.090738767328335    -83.0013639675215    0.993036385996565    5.20354729528841     
61.583267980796      0.993149201419099    5.14706416211972     0.089756703213055    -83.0534583740075    0.089756703213055    -83.0534583740075    0.993149201419099    5.14706416211972     
62.0097751360402     0.993260341117351    5.09080982111474     0.088778539075718    -83.1050779062642    0.088778539075718    -83.1050779062642    0.993260341117351    5.09080982111474     
62.439236151309      0.993369822544788    5.03478191921598     0.087804236022952    -83.1562179561273    0.087804236022952    -83.1562179561273    0.993369822544788    5.03478191921598     
62.8716714841468     0.993477662902601    4.97897810831151     0.086833755212305    -83.2068736304879    0.086833755212305    -83.2068736304879    0.993477662902601    4.97897810831151     
63.3071017337807     0.993583879141723    4.9233960452388      0.085867057853334    -83.2570397375706    0.085867057853334    -83.2570397375706    0.993583879141723    4.9233960452388      
63.745547642102      0.993688487964822    4.8680333917864      0.08490410520865     -83.3067107724021    0.08490410520865     -83.3067107724021    0.993688487964822    4.8680333917864      
64.1870300946537     0.993791505828282    4.81288781469469     0.083944858594946    -83.355880901413     0.083944858594946    -83.355880901413     0.993791505828282    4.81288781469469     
64.6315701216264     0.99389294894416     4.75795698565436     0.082989279383998    -83.4045439461102    0.082989279383998    -83.4045439461102    0.99389294894416     4.75795698565436     
65.0791888988588     0.993992833282123    4.70323858130371     0.082037329003643    -83.4526933657558    0.082037329003643    -83.4526933657558    0.993992833282123    4.70323858130371     
65.5299077488475     0.994091174571366    4.64873028322425     0.081088968938741    -83.5003222389799    0.081088968938741    -83.5003222389799    0.994091174571366    4.64873028322425     
65.9837481417621     0.994187988302506    4.59442977793473     0.08014416073211     -83.5474232442498    0.08014416073211     -83.5474232442498    0.994187988302506    4.59442977793473     
66.4407316964684     0.994283289729464    4.54033475688381     0.079202865985459    -83.5939886391112    0.079202865985459    -83.5939886391112    0.994283289729464    4.54033475688381     
66.9008801815576     0.994377093871313    4.48644291644115     0.078265046360292    -83.6400102381123    0.078265046360292    -83.6400102381123    0.994377093871313    4.48644291644115     
67.3642155163837     0.994469415514118    4.43275195788711     0.077330663578812    -83.685479389309     0.077330663578812    -83.685479389309     0.994469415514118    4.43275195788711     
67.8307597721077     0.994560269212746    4.37925958740114     0.076399679424819    -83.7303869492456    0.076399679424819    -83.7303869492456    0.994560269212746    4.37925958740114     
68.3005351727485     0.994649669292657    4.32596351604873     0.075472055744588    -83.7747232562947    0.075472055744588    -83.7747232562947    0.994649669292657    4.32596351604873     
68.7735640962423     0.994737629851676    4.27286145976682     0.074547754447761    -83.8184781022272    0.074547754447761    -83.8184781022272    0.994737629851676    4.27286145976682     
69.2498690755078     0.99482416476174     4.21995113934838     0.073626737508228    -83.8616407018753    0.073626737508228    -83.8616407018753    0.99482416476174     4.21995113934838     
69.7294727995199     0.994909287670622    4.16723028042551     0.072708966965026    -83.9041996607373    0.072708966965026    -83.9041996607373    0.994909287670622    4.16723028042551     
70.2123981143908     0.994993012003642    4.1146966134507      0.071794404923223    -83.9461429403595    0.071794404923223    -83.9461429403595    0.994993012003642    4.1146966134507      
70.6986680244575     0.995075350965343    4.06234787367816     0.07088301355484     -83.9874578213137    0.07088301355484     -83.9874578213137    0.995075350965343    4.06234787367816     
71.1883056933787     0.99515631754115     4.01018180114254     0.069974755099771    -84.0281308635761    0.069974755099771    -84.0281308635761    0.99515631754115     4.01018180114254     
71.6813344452372     0.995235924499016    3.9581961406375      0.069069591866729    -84.0681478640897    0.069069591866729    -84.0681478640897    0.995235924499016    3.9581961406375      
72.1777777656514     0.995314184391027    3.90638864169276     0.068167486234223    -84.1074938112745    0.068167486234223    -84.1074938112745    0.995314184391027    3.90638864169276     
72.6776593028942     0.995391109555002    3.85475705854987     0.067268400651548    -84.1461528362275    0.067268400651548    -84.1461528362275    0.995391109555002    3.85475705854987     
73.1810028690192     0.995466712116061    3.80329915013747     0.066372297639842    -84.184108160327     0.066372297639842    -84.184108160327     0.995466712116061    3.80329915013747     
73.687832440995      0.995541003988168    3.75201268004464     0.065479139793149    -84.2213420389291    0.065479139793149    -84.2213420389291    0.995541003988168    3.75201268004464     
74.1981721618477     0.995613996875662    3.70089541649418     0.064588889779564    -84.2578357008104    0.064588889779564    -84.2578357008104    0.995613996875662    3.70089541649418     
74.7120463418107     0.995685702274754    3.64994513231397     0.06370151034241     -84.2935692829817    0.06370151034241     -84.2935692829817    0.995685702274754    3.64994513231397     
75.2294794594825     0.995756131475006    3.59915960490809     0.062816964301499    -84.3285217604491    0.062816964301499    -84.3285217604491    0.995756131475006    3.59915960490809     
75.7504961629931     0.995825295560789    3.54853661622656     0.061935214554457    -84.3626708704644    0.061935214554457    -84.3626708704644    0.995825295560789    3.54853661622656     
76.2751212711781     0.995893205412711    3.49807395273417     0.06105622407813     -84.3959930307524    0.06105622407813     -84.3959930307524    0.995893205412711    3.49807395273417     
76.803379774761      0.99595987170903     3.44776940537867     0.060179955930095    -84.4284632511486    0.060179955930095    -84.4284632511486    0.99595987170903     3.44776940537867     
77.3352968375431     0.996025304927036    3.39762076955778     0.059306373250269    -84.4600550380207    0.059306373250269    -84.4600550380207    0.996025304927036    3.39762076955778     
77.8708977976031     0.996089515344415    3.34762584508531     0.058435439262641    -84.4907402907776    0.058435439262641    -84.4907402907776    0.996089515344415    3.34762584508531     
78.4102081685032     0.996152513040592    3.29778243615683     0.057567117277136    -84.5204891896904    0.057567117277136    -84.5204891896904    0.996152513040592    3.29778243615683     
78.9532536405052     0.996214307898038    3.2480883513142      0.056701370691631    -84.5492700741636    0.056701370691631    -84.5492700741636    0.996214307898038    3.2480883513142      
79.5000600817935     0.996274909603571    3.19854140340921     0.055838162994139    -84.577049310496     0.055838162994139    -84.577049310496     0.996274909603571    3.19854140340921     
80.0506535397081     0.996334327649619    3.14913940956668     0.054977457765178    -84.6037911480562    0.054977457765178    -84.6037911480562    0.996334327649619    3.14913940956668     
80.6050602419848     0.996392571335465    3.09988019114695     0.054119218680358    -84.6294575626734    0.054119218680358    -84.6294575626734    0.996392571335465    3.09988019114695     
81.163306598005      0.996449649768473    3.05076157370697     0.053263409513189    -84.6540080858974    0.053263409513189    -84.6540080858974    0.996449649768473    3.05076157370697     
81.7254192000535     0.99650557186528     3.00178138696154     0.052409994138165    -84.6773996186205    0.052409994138165    -84.6773996186205    0.99650557186528     3.00178138696154     
82.2914248245848     0.996560346352978    2.95293746474319     0.051558936534138    -84.6995862273639    0.051558936534138    -84.6995862273639    0.996560346352978    2.95293746474319     
82.8613504334997     0.996613981770253    2.90422764496178     0.050710200788014    -84.7205189213197    0.050710200788014    -84.7205189213197    0.996613981770253    2.90422764496178     
83.4352231754287     0.996666486468526    2.85564976956316     0.049863751098826    -84.7401454079975    0.049863751098826    -84.7401454079975    0.996666486468526    2.85564976956316     
84.0130703870253     0.996717868613042    2.80720168448763     0.04901955178222     -84.7584098250391    0.04901955178222     -84.7584098250391    0.996717868613042    2.80720168448763     
84.594919594269      0.99676813618396     2.75888123962698     0.048177567275388    -84.7752524454516    0.048177567275388    -84.7752524454516    0.99676813618396     2.75888123962698     
85.1807985137754     0.996817296977403    2.71068628878214     0.047337762142545    -84.7906093531326    0.047337762142545    -84.7906093531326    0.996817296977403    2.71068628878214     
85.7707350541173     0.996865358606493    2.66261468961893     0.046500101080969    -84.8044120851401    0.046500101080969    -84.8044120851401    0.996865358606493    2.66261468961893     
86.3647573171538     0.996912328502354    2.61466430362442     0.045664548927714    -84.8165872366627    0.045664548927714    -84.8165872366627    0.996912328502354    2.61466430362442     
86.962893599369      0.996958213915103    2.56683299606187     0.044831070667052    -84.8270560240798    0.044831070667052    -84.8270560240798    0.996958213915103    2.56683299606187     
87.5651723932198     0.997003021914804    2.5191186359257      0.043999631438765    -84.8357338008322    0.043999631438765    -84.8357338008322    0.997003021914804    2.5191186359257      
88.1716223884937     0.997046759392409    2.4715190958957      0.043170196547374    -84.8425295200567    0.043170196547374    -84.8425295200567    0.997046759392409    2.4715190958957      
88.7822724736744     0.997089433060669    2.42403225229082     0.042342731472447    -84.8473451370325    0.042342731472447    -84.8473451370325    0.997089433060669    2.42403225229082     
89.3971517373191     0.997131049455019    2.37665598502259     0.041517201880126    -84.8500749434325    0.041517201880126    -84.8500749434325    0.997131049455019    2.37665598502259     
90.0162894694431     0.997171614934451    2.32938817754794     0.040693573636042    -84.8506048241338    0.040693573636042    -84.8506048241338    0.997171614934451    2.32938817754794     
90.6397151629159     0.997211135682351    2.28222671682156     0.039871812819804    -84.8488114258809    0.039871812819804    -84.8488114258809    0.997211135682351    2.28222671682156     
91.2674585148656     0.997249617707309    2.23516949324818     0.039051885741307    -84.8445612253702    0.039051885741307    -84.8445612253702    0.997249617707309    2.23516949324818     
91.8995494280935     0.997287066843926    2.18821440063392     0.038233758959098    -84.8377094822851    0.038233758959098    -84.8377094822851    0.997287066843926    2.18821440063392     
92.5360180124989     0.997323488753574    2.1413593361378      0.037417399301126    -84.8280990603798    0.037417399301126    -84.8280990603798    0.997323488753574    2.1413593361378      
93.1768945865132     0.99735888892514     2.09460220022247     0.036602773888221    -84.8155590968189    0.036602773888221    -84.8155590968189    0.99735888892514     2.09460220022247     
93.822209678544      0.997393272675757    2.04794089660476     0.035789850160741    -84.7999034965121    0.035789850160741    -84.7999034965121    0.997393272675757    2.04794089660476     
94.4719940284294     0.99742664515149     2.00137333220604     0.034978595908864    -84.7809292240281    0.034978595908864    -84.7809292240281    0.99742664515149     2.00137333220604     
95.1262785889025     0.997459011328021    1.95489741710195     0.034168979307133    -84.7584143606495    0.034168979307133    -84.7584143606495    0.997459011328021    1.95489741710195     
95.7850945270656     0.99749037601129     1.90851106447206     0.033360968953943    -84.7321158880679    0.033360968953943    -84.7321158880679    0.99749037601129     1.90851106447206     
96.448473225875      0.997520743838123    1.8622121905492      0.032554533916808    -84.7017671528337    0.032554533916808    -84.7017671528337    0.997520743838123    1.8622121905492      
97.116446285636      0.99755011927684     1.81599871456842     0.031749643784405    -84.6670749566773    0.031749643784405    -84.6670749566773    0.99755011927684     1.81599871456842     
97.7890455255079     0.997578506627824    1.76986855871593     0.030946268726596    -84.6277162067757    0.030946268726596    -84.6277162067757    0.997578506627824    1.76986855871593     
98.4663029850201     0.997605910024082    1.72381964807742     0.030144379563873    -84.5833340464459    0.030144379563873    -84.5833340464459    0.997605910024082    1.72381964807742     
99.1482509255979     0.997632333431772    1.67784991058661     0.029343947847989    -84.5335333699135    0.029343947847989    -84.5335333699135    0.997632333431772    1.67784991058661     
99.8349218320997     0.997657780650706    1.63195727697318     0.0285449459559      -84.4778756038754    0.0285449459559      -84.4778756038754    0.997657780650706    1.63195727697318     
100.526348414364     0.997682255314846    1.58613968071082     0.027747347199645    -84.4158726123832    0.027747347199645    -84.4158726123832    0.997682255314846    1.58613968071082     
101.222563608768     0.997705760892744    1.54039505796479     0.026951125955381    -84.3469795486387    0.026951125955381    -84.3469795486387    0.997705760892744    1.54039505796479     
101.923600579797     0.99772830068799     1.49472134753976     0.026156257815564    -84.2705864356156    0.026156257815564    -84.2705864356156    0.99772830068799     1.49472134753976     
102.629492721622     0.997749877839617    1.44911649082703     0.025362719769218    -84.1860082043556    0.025362719769218    -84.1860082043556    0.997749877839617    1.44911649082703     
103.340273659692     0.99777049532249     1.4035784317518      0.024570490416516    -84.0924728507814    0.024570490416516    -84.0924728507814    0.99777049532249     1.4035784317518      
104.055977252339     0.997790155947669    1.35810511672045     0.023779550225495    -83.9891072841048    0.023779550225495    -83.9891072841048    0.997790155947669    1.35810511672045     
104.776637592382     0.997808862362743    1.3126944945676      0.022989881840819    -83.8749203258201    0.022989881840819    -83.8749203258201    0.997808862362743    1.3126944945676      
105.502289008762     0.997826617052152    1.26734451650291     0.022201470457281    -83.7487821688114    0.022201470457281    -83.7487821688114    0.997826617052152    1.26734451650291     
106.232966068169     0.997843422337475    1.22205313605819     0.021414304274395    -83.6093994086913    0.021414304274395    -83.6093994086913    0.997843422337475    1.22205313605819     
106.968703576692     0.997859280377695    1.17681830903398     0.020628375053244    -83.4552844964696    0.020628375053244    -83.4552844964696    0.997859280377695    1.17681830903398     
107.709536581477     0.997874193169447    1.1316379934466      0.019843678803412    -83.2847181079789    0.019843678803412    -83.2847181079789    0.997874193169447    1.1316379934466      
108.455500372394     0.997888162547231    1.08651014947462     0.019060216636666    -83.095702445206     0.019060216636666    -83.095702445206     0.997888162547231    1.08651014947462     
109.206630483723     0.997901190183614    1.04143273940574     0.018277995836434    -82.8859028256312    0.018277995836434    -82.8859028256312    0.997901190183614    1.04143273940574     
109.962962695842     0.997913277589397    0.996403727583405    0.017497031209194    -82.6525740011402    0.017497031209194    -82.6525740011402    0.997913277589397    0.996403727583405    
110.724533036933     0.997924426113763    0.951421080353613    0.016717346808046    -82.3924663637342    0.016717346808046    -82.3924663637342    0.997924426113763    0.951421080353613    
111.491377784698     0.997934636944401    0.906482766011524    0.015938978153176    -82.1017053683491    0.015938978153176    -82.1017053683491    0.997934636944401    0.906482766011524    
112.26353346809      0.997943911107606    0.861586754748339    0.015161975123838    -81.7756348683649    0.015161975123838    -81.7756348683649    0.997943911107606    0.861586754748339    
113.041036869047     0.997952249468356    0.816731018598034    0.01438640576992     -81.4086112030287    0.01438640576992     -81.4086112030287    0.997952249468356    0.816731018598034    
113.823925024251     0.997959652730357    0.77191353138419     0.013612361401017    -80.9937291409325    0.013612361401017    -80.9937291409325    0.997959652730357    0.77191353138419     
114.612235226885     0.997966121436078    0.727132268667146    0.012839963478354    -80.5224521067171    0.012839963478354    -80.5224521067171    0.997966121436078    0.727132268667146    
115.406005028417     0.997971655966752    0.682385207690817    0.012069373095049    -79.9841057443716    0.012069373095049    -79.9841057443716    0.997971655966752    0.682385207690817    
116.205272240383     0.997976256542354    0.637670327329957    0.011300804243469    -79.3651728402621    0.011300804243469    -79.3651728402621    0.997976256542354    0.637670327329957    
117.010074936191     0.997979923221558    0.592985608037368    0.010534542740433    -78.6482938366648    0.010534542740433    -78.6482938366648    0.997979923221558    0.592985608037368    
117.820451452934     0.997982655901668    0.548329031791364    0.009770973802861    -77.8108215910434    0.009770973802861    -77.8108215910434    0.997982655901668    0.548329031791364    
118.636440393216     0.997984454318526    0.503698582043165    0.009010623193288    -76.8226853402392    0.009010623193288    -76.8226853402392    0.997984454318526    0.503698582043165    
119.458080626992     0.997985318046394    0.459092243664785    0.008254220269575    -75.6431566856612    0.008254220269575    -75.6431566856612    0.997985318046394    0.459092243664785    
120.285411293417     0.997985246497818    0.414508002896762    0.007502797536502    -74.215822229439     0.007502797536502    -74.215822229439     0.997985246497818    0.414508002896762    
121.118471802712     0.997984238923453    0.369943847296354    0.006757853219047    -72.4605419852277    0.006757853219047    -72.4605419852277    0.997984238923453    0.369943847296354    
121.957301838042     0.997982294411887    0.325397765685574    0.006021626980771    -70.2601943935903    0.006021626980771    -70.2601943935903    0.997982294411887    0.325397765685574    
122.801941357407     0.997979411889419    0.280867748099946    0.005297587524433    -67.438175999943     0.005297587524433    -67.438175999943     0.997979411889419    0.280867748099946    
123.652430595541     0.997975590119827    0.236351785737053    0.004591334423699    -63.7193064710102    0.004591334423699    -63.7193064710102    0.997975590119827    0.236351785737053    
124.508810065834     0.9979708277041      0.191847870905549    0.003912340479716    -58.6617529576514    0.003912340479716    -58.6617529576514    0.9979708277041      0.191847870905549    
125.37112056226      0.997965123080165    0.14735399697435     0.003277419778948    -51.5461019154635    0.003277419778948    -51.5461019154635    0.997965123080165    0.14735399697435     
126.239403161317     0.997958474522564    0.102868158322195    0.002717473642899    -41.2490715163821    0.002717473642899    -41.2490715163821    0.997958474522564    0.102868158322195    
127.113699223989     0.997950880142129    0.058388350287303    0.002288070284733    -26.3894900623064    0.002288070284733    -26.3894900623064    0.997950880142129    0.058388350287303    
127.994050397711     0.99794233788562     0.013912569117684    0.002071910633507    -6.71640451979063    0.002071910633507    -6.71640451979063    0.99794233788562     0.013912569117684    
128.88049861836      0.997932845535348    -0.030561188078656   0.002134724320027    14.4389746748404     0.002134724320027    14.4389746748404     0.997932845535348    -0.030561188078656   
129.773086112244     0.997922400708762    -0.075034923382916   0.002455183179       32.1607474673175     0.002455183179       32.1607474673175     0.997922400708762    -0.075034923382916   
130.67185539812      0.997911000858022    -0.119510638114304   0.002950527831732    44.8671545261923     0.002950527831732    44.8671545261923     0.997911000858022    -0.119510638114304   
131.576849289216     0.997898643269549    -0.16399033287865    0.003548310080577    53.6038132832165     0.003548310080577    53.6038132832165     0.997898643269549    -0.16399033287865    
132.488110895271     0.997885325063535    -0.208476007616606   0.004205139204993    59.7051804506778     0.004205139204993    59.7051804506778     0.997885325063535    -0.208476007616606   
133.405683624592     0.997871043193452    -0.252969661651255   0.00489739777365     64.1066232126139     0.00489739777365     64.1066232126139     0.997871043193452    -0.252969661651255   
134.329611186115     0.997855794445514    -0.297473293735626   0.005612081944622    67.3894095315823     0.005612081944622    67.3894095315823     0.997855794445514    -0.297473293735626   
135.259937591494     0.997839575438132    -0.34198890209945    0.006341712621197    69.911462826769      0.006341712621197    69.911462826769      0.997839575438132    -0.34198890209945    
136.196707157192     0.997822382621335    -0.386518484495745   0.007081774685774    71.8984537278049     0.007081774685774    71.8984537278049     0.997822382621335    -0.386518484495745   
137.139964506597     0.997804212276171    -0.431064038246767   0.007829417757271    73.497312719978      0.007829417757271    73.497312719978      0.997804212276171    -0.431064038246767   
138.089754572142     0.997785060514079    -0.475627560289537   0.008582771179658    74.8068569544056     0.008582771179658    74.8068569544056     0.997785060514079    -0.475627560289537   
139.046122597452     0.997764923276244    -0.520211047220853   0.009340566230982    75.8955735010337     0.009340566230982    75.8955735010337     0.997764923276244    -0.520211047220853   
140.009114139494     0.997743796332921    -0.564816495341918   0.01010191844199     76.8122281058937     0.01010191844199     76.8122281058937     0.997743796332921    -0.564816495341918   
140.978775070747     0.997721675282734    -0.60944590070224    0.010866197033033    77.5923871696602     0.010866197033033    77.5923871696602     0.997721675282734    -0.60944590070224    
141.955151581393     0.997698555551959    -0.654101259143016   0.011632943735075    78.2625474285197     0.011632943735075    78.2625474285197     0.997698555551959    -0.654101259143016   
142.938290181509     0.997674432393775    -0.698784566340207   0.012401820674313    78.842824169804      0.012401820674313    78.842824169804      0.997674432393775    -0.698784566340207   
143.928237703291     0.997649300887493    -0.743497817846692   0.013172575950027    79.3487461228411     0.013172575950027    79.3487461228411     0.997649300887493    -0.743497817846692   
144.925041303276     0.997623155937755    -0.788243009133963   0.013945020315929    79.792481904902      0.013945020315929    79.792481904902      0.997623155937755    -0.788243009133963   
145.928748464598     0.997595992273721    -0.833022135633384   0.014719011022195    80.1836958102129     0.014719011022195    80.1836958102129     0.997595992273721    -0.833022135633384   
146.939406999241     0.99756780444822     -0.877837192776414   0.015494440390016    80.5301564340049     0.015494440390016    80.5301564340049     0.99756780444822     -0.877837192776414   
147.957065050321     0.997538586836883    -0.922690176034465   0.016271227583797    80.8381770654323     0.016271227583797    80.8381770654323     0.997538586836883    -0.922690176034465   
148.981771094381     0.997508333637248    -0.967583080958325   0.01704931258752     81.1129394071645     0.01704931258752     81.1129394071645     0.997508333637248    -0.967583080958325   
150.013573943696     0.997477038867838    -1.0125179032161     0.017828651728276    81.3587349768714     0.017828651728276    81.3587349768714     0.997477038867838    -1.0125179032161     
151.0525227486       0.997444696367225    -1.05749663863125    0.018609214303898    81.5791475075811     0.018609214303898    81.5791475075811     0.997444696367225    -1.05749663863125    
152.098666999829     0.997411299793059    -1.10252128321955    0.019390980010485    81.7771924425043     0.019390980010485    81.7771924425043     0.997411299793059    -1.10252128321955    
153.152056530874     0.997376842621073    -1.14759383322532    0.020173936957507    81.9554248100609     0.020173936957507    81.9554248100609     0.997376842621073    -1.14759383322532    
154.212741520361     0.997341318144074    -1.1927162851568     0.020958080120073    82.1160235074656     0.020958080120073    82.1160235074656     0.997341318144074    -1.1927162851568     
155.280772494436     0.997304719470894    -1.23789063582094    0.021743410120282    82.2608577809733     0.021743410120282    82.2608577809733     0.997304719470894    -1.23789063582094    
156.356200329175     0.997267039525331    -1.28311888235727    0.022529932259021    82.3915401278989     0.022529932259021    82.3915401278989     0.997267039525331    -1.28311888235727    
157.439076253005     0.997228271045053    -1.3284030222708     0.023317655740263    82.5094687404345     0.023317655740263    82.5094687404345     0.997228271045053    -1.3284030222708     
158.529451849147     0.997188406580489    -1.37374505346447    0.024106593044774    82.6158618201697     0.024106593044774    82.6158618201697     0.997188406580489    -1.37374505346447    
159.627379058072     0.997147438493685    -1.41914697427007    0.024896759420735    82.7117855192563     0.024896759420735    82.7117855192563     0.997147438493685    -1.41914697427007    
160.732910179973     0.997105358957146    -1.46461078347903    0.025688172466662    82.7981768446742     0.025688172466662    82.7981768446742     0.997105358957146    -1.46461078347903    
161.84609787726      0.997062159952642    -1.51013848037169    0.026480851787711    82.8758625517785     0.026480851787711    82.8758625517785     0.997062159952642    -1.51013848037169    
162.966995177068     0.99701783327        -1.5557320647459     0.027274818710757    82.9455748216202     0.027274818710757    82.9455748216202     0.99701783327        -1.5557320647459     
164.095655473779     0.996972370505861    -1.60139353694455    0.028070096046884    83.0079643419651     0.028070096046884    83.0079643419651     0.996972370505861    -1.60139353694455    
165.232132531571     0.996925763062427    -1.6471248978823     0.028866707892326    83.0636112792761     0.028866707892326    83.0636112792761     0.996925763062427    -1.6471248978823     
166.376480486976     0.996878002146168    -1.69292814907097    0.02966467946082     83.113034527325      0.02966467946082     83.113034527325      0.996878002146168    -1.69292814907097    
167.528753851458     0.996829078766517    -1.7388052926442     0.030464036941727    83.1566995396793     0.030464036941727    83.1566995396793     0.996829078766517    -1.7388052926442     
168.689007514013     0.99677898373453     -1.78475833138087    0.031264807379438    83.1950249923594     0.031264807379438    83.1950249923594     0.99677898373453     -1.78475833138087    
169.857296743779     0.99672770766153     -1.8307892687276     0.032067018570423    83.2283884752647     0.032067018570423    83.2283884752647     0.99672770766153     -1.8307892687276     
171.033677192674     0.996675240957726    -1.87690010881985    0.032870698974991    83.2571313734005     0.032870698974991    83.2571313734005     0.996675240957726    -1.87690010881985    
172.218204898043     0.996621573830802    -1.92309285650217    0.033675877641368    83.2815630691694     0.033675877641368    83.2815630691694     0.996621573830802    -1.92309285650217    
173.410936285328     0.996566696284486    -1.96936951734728    0.034482584140133    83.301964573268      0.034482584140133    83.301964573268      0.996566696284486    -1.96936951734728    
174.61192817076      0.996510598117096    -2.01573209767353    0.035290848507389    83.3185916727142     0.035290848507389    83.3185916727142     0.996510598117096    -2.01573209767353    
175.821237764058     0.996453268920059    -2.06218260456186    0.03610070119536     83.3316776692161     0.03610070119536     83.3316776692161     0.996453268920059    -2.06218260456186    
177.03892267116      0.996394698076406    -2.10872304587092    0.036912173029279    83.341435768688      0.036912173029279    83.341435768688      0.996394698076406    -2.10872304587092    
178.265040896966     0.996334874759245    -2.15535543025113    0.037725295169667    83.3480611726306     0.037725295169667    83.3480611726306     0.996334874759245    -2.15535543025113    
179.499650848101     0.996273787930213    -2.20208176715741    0.038540099079216    83.3517329138459     0.038540099079216    83.3517329138459     0.996273787930213    -2.20208176715741    
180.742811335693     0.996211426337895    -2.24890406686082    0.039356616493642    83.3526154721866     0.039356616493642    83.3526154721866     0.996211426337895    -2.24890406686082    
181.994581578183     0.996147778516227    -2.29582434045825    0.040174879395937    83.3508602004609     0.040174879395937    83.3508602004609     0.996147778516227    -2.29582434045825    
183.255021204137     0.996082832782873    -2.34284459988158    0.040994919993596    83.3466065859918     0.040994919993596    83.3466065859918     0.996082832782873    -2.34284459988158    
184.524190255094     0.99601657723758     -2.38996685790443    0.04181677069837     83.3399833694967     0.04181677069837     83.3399833694967     0.99601657723758     -2.38996685790443    
185.802149188419     0.995948999760506    -2.4371931281484     0.042640464108269    83.3311095397478     0.042640464108269    83.3311095397478     0.995948999760506    -2.4371931281484     
187.08895888019      0.995880088010529    -2.48452542508723    0.043466032991487    83.3200952197989     0.043466032991487    83.3200952197989     0.995880088010529    -2.48452542508723    
188.384680628092     0.995809829423528    -2.5319657640496     0.044293510272012    83.3070424583133     0.044293510272012    83.3070424583133     0.995809829423528    -2.5319657640496     
189.68937615434      0.995738211210647    -2.57951616122046    0.045122929016728    83.2920459376306     0.045122929016728    83.2920459376306     0.995738211210647    -2.57951616122046    
191.003107608618     0.995665220356527    -2.62717863364074    0.045954322423798    83.2751936086112     0.045954322423798    83.2751936086112     0.995665220356527    -2.62717863364074    
192.325937571042     0.995590843617529    -2.67495519920553    0.046787723812197    83.2565672609354     0.046787723812197    83.2565672609354     0.995590843617529    -2.67495519920553    
193.657929055136     0.995515067519918    -2.7228478766604     0.047623166612238    83.2362430363822     0.047623166612238    83.2362430363822     0.995515067519918    -2.7228478766604     
194.999145510839     0.995437878358036    -2.77085868559622    0.04846068435698     83.2142918916248     0.04846068435698     83.2142918916248     0.995437878358036    -2.77085868559622    
196.349650827523     0.995359262192452    -2.81898964644235    0.049300310674422    83.1907800162389     0.049300310674422    83.1907800162389     0.995359262192452    -2.81898964644235    
197.709509337041     0.995279204848081    -2.86724278045789    0.050142079280379    83.1657692108981     0.050142079280379    83.1657692108981     0.995279204848081    -2.86724278045789    
199.078785816789     0.995197691912289    -2.91562010972128    0.050986023971967    83.1393172301075     0.050986023971967    83.1393172301075     0.995197691912289    -2.91562010972128    
200.457545492788     0.995114708732978    -2.96412365711791    0.051832178621625    83.1114780932948     0.051832178621625    83.1114780932948     0.995114708732978    -2.96412365711791    
201.845854042799     0.995030240416639    -3.01275544632609    0.05268057717162     83.0823023676126     0.05268057717162     83.0823023676126     0.995030240416639    -3.01275544632609    
203.243777599445     0.994944271826396    -3.06151750180112    0.053531253628973    83.0518374254067     0.053531253628973    83.0518374254067     0.994944271826396    -3.06151750180112    
204.651382753366     0.994856787580018    -3.11041184875732    0.054384242060758    83.0201276789599     0.054384242060758    83.0201276789599     0.994856787580018    -3.11041184875732    
206.068736556385     0.994767772047916    -3.15944051314797    0.055239576589737    82.9872147948143     0.055239576589737    82.9872147948143     0.994767772047916    -3.15944051314797    
207.495906524709     0.994677209351122    -3.20860552164358    0.056097291390291    82.9531378897158     0.056097291390291    82.9531378897158     0.994677209351122    -3.20860552164358    
208.93296064214      0.994585083359235    -3.25790890160779    0.056957420684613    82.917933709993      0.056957420684613    82.917933709993      0.994585083359235    -3.25790890160779    
210.379967363316     0.994491377688366    -3.3073526810716     0.057819998739132    82.8816367959794     0.057819998739132    82.8816367959794     0.994491377688366    -3.3073526810716     
211.836995616972     0.994396075699042    -3.35693888870479    0.058685059861144    82.844279632917      0.058685059861144    82.844279632917      0.994396075699042    -3.35693888870479    
213.304114809222     0.99429916049411     -3.40666955378593    0.059552638395624    82.8058927896167     0.059552638395624    82.8058927896167     0.99429916049411     -3.40666955378593    
214.781394826864     0.994200614916604    -3.45654670616958    0.060422768722203    82.7665050460215     0.060422768722203    82.7665050460215     0.994200614916604    -3.45654670616958    
216.268906040715     0.994100421547604    -3.5065723762518     0.061295485252281    82.7261435106937     0.061295485252281    82.7261435106937     0.994100421547604    -3.5065723762518     
217.766719308955     0.993998562704081    -3.55674859493264    0.062170822426267    82.6848337291432     0.062170822426267    82.6848337291432     0.993998562704081    -3.55674859493264    
219.274905980508     0.993895020436701    -3.60707739357713    0.063048814710927    82.6425997838189     0.063048814710927    82.6425997838189     0.993895020436701    -3.60707739357713    
220.793537898439     0.993789776527642    -3.65756080397299    0.063929496596825    82.5994643865028     0.063929496596825    82.5994643865028     0.993789776527642    -3.65756080397299    
222.322687403379     0.993682812488365    -3.70820085828676    0.06481290259585     82.5554489637721     0.06481290259585     82.5554489637721     0.993682812488365    -3.70820085828676    
223.862427336963     0.993574109557387    -3.75899958901689    0.06569906723881     82.5105737361285     0.06569906723881     82.5105737361285     0.993574109557387    -3.75899958901689    
225.41283104531      0.99346364869803     -3.8099590289446     0.066588025073086    82.4648577913362     0.066588025073086    82.4648577913362     0.99346364869803     -3.8099590289446     
226.97397238251      0.993351410596148    -3.86108121108177    0.06747981066033     82.4183191524576     0.06747981066033     82.4183191524576     0.993351410596148    -3.86108121108177    
228.545925714144     0.993237375657855    -3.9123681686167     0.06837445857422     82.3709748410284     0.06837445857422     82.3709748410284     0.993237375657855    -3.9123681686167     
230.128765920828     0.993121524007215    -3.96382193485723    0.069272003398234    82.3228409357731     0.069272003398234    82.3228409357731     0.993121524007215    -3.96382193485723    
231.722568401777     0.993003835483932    -4.01544454317016    0.070172479723447    82.273932627226      0.070172479723447    82.273932627226      0.993003835483932    -4.01544454317016    
233.327409078399     0.992884289641026    -4.06723802691963    0.071075922146366    82.2242642685841     0.071075922146366    82.2242642685841     0.992884289641026    -4.06723802691963    
234.943364397912     0.992762865742483    -4.11920441940088    0.071982365266757    82.1738494230956     0.071982365266757    82.1738494230956     0.992762865742483    -4.11920441940088    
236.570511336981     0.992639542760907    -4.17134575377228    0.072891843685486    82.1227009082552     0.072891843685486    82.1227009082552     0.992639542760907    -4.17134575377228    
238.208927405392     0.992514299375144    -4.22366406298412    0.073804392002368    82.0708308370548     0.073804392002368    82.0708308370548     0.992514299375144    -4.22366406298412    
239.858690649739     0.992387113967905    -4.27616137970461    0.074720044814007    82.0182506565173     0.074720044814007    82.0182506565173     0.992387113967905    -4.27616137970461    
241.519879657141     0.99225796462337     -4.32883973624209    0.075638836711622    81.9649711837211     0.075638836711622    81.9649711837211     0.99225796462337     -4.32883973624209    
243.192573558991     0.992126829124785    -4.38170116446545    0.076560802278874    81.9110026395019     0.076560802278874    81.9110026395019     0.992126829124785    -4.38170116446545    
244.876852034721     0.991993684952048    -4.43474769572013    0.077485976089664    81.856354680009      0.077485976089664    81.856354680009      0.991993684952048    -4.43474769572013    
246.572795315598     0.991858509279279    -4.48798136074184    0.07841439270592     81.8010364262723     0.07841439270592     81.8010364262723     0.991858509279279    -4.48798136074184    
248.280484188547     0.991721278972392    -4.54140418956638    0.079346086675351    81.745056491925      0.079346086675351    81.745056491925      0.991721278972392    -4.54140418956638    
250                  0.991581970586646    -4.59501821143695    0.080281092529187    81.6884230092166     0.080281092529187    81.6884230092166     0.991581970586646    -4.59501821143695    
