# MHz S MA R 50      
!Freq                MagS11               AngS11               MagS21               AngS21               MagS12               AngS12               MagS22               AngS22               
1                    0.000685658081154    14.5762516100075     0.99933642570483     -0.009893430698857   0.99933642570483     -0.009893430698857   0.000685658081154    14.5762516100075     
1.01226544188865     0.000686572384697    14.7389595115243     0.999336034558473    -0.010014774080507   0.999336034558473    -0.010014774080507   0.000686572384697    14.7389595115243     
1.02468132484204     0.000687501211433    14.9032721235391     0.999335641014115    -0.01013760572003    0.999335641014115    -0.01013760572003    0.000687501211433    14.9032721235391     
1.03724949408628     0.000688444846309    15.0691990880409     0.999335245056927    -0.010261943870231   0.999335245056927    -0.010261943870231   0.000688444846309    15.0691990880409     
1.04997181748003     0.000689403579936    15.2367499098869     0.999334846671994    -0.01038780700777    0.999334846671994    -0.01038780700777    0.000689403579936    15.2367499098869     
1.06285018579205     0.000690377708691    15.4059339494381     0.999334445844308    -0.010515213835904   0.999334445844308    -0.010515213835904   0.000690377708691    15.4059339494381     
1.07588651298223     0.000691367534808    15.576760415035      0.999334042558733    -0.010644183287269   0.999334042558733    -0.010644183287269   0.000691367534808    15.576760415035      
1.08908273648601     0.000692373366485    15.7492383553111     0.999333636800087    -0.010774734526694   0.999333636800087    -0.010774734526694   0.000692373366485    15.7492383553111     
1.10244081750231     0.000693395517979    15.9233766513454     0.999333228553045    -0.010906886954043   0.999333228553045    -0.010906886954043   0.000693395517979    15.9233766513454     
1.11596274128507     0.000694434309707    16.0991840086566     0.999332817802203    -0.011040660207103   0.999332817802203    -0.011040660207103   0.000694434309707    16.0991840086566     
1.12965051743821     0.000695490068352    16.2766689490366     0.999332404532061    -0.0111760741645     0.999332404532061    -0.0111760741645     0.000695490068352    16.2766689490366     
1.14350618021433     0.00069656312696     16.455839802228      0.999331988727026    -0.011313148948651   0.999331988727026    -0.011313148948651   0.00069656312696     16.455839802228      
1.15753178881707     0.000697653825049    16.636704697446      0.999331570371374    -0.011451904928755   0.999331570371374    -0.011451904928755   0.000697653825049    16.636704697446      
1.17172942770708     0.000698762508708    16.8192715547456     0.999331149449306    -0.011592362723819   0.999331149449306    -0.011592362723819   0.000698762508708    16.8192715547456     
1.18610120691185     0.000699889530707    17.0035480762392     0.999330725944928    -0.011734543205723   0.999330725944928    -0.011734543205723   0.000699889530707    17.0035480762392     
1.20064926233929     0.000701035250599    17.1895417371642     0.999330299842208    -0.011878467502316   0.999330299842208    -0.011878467502316   0.000701035250599    17.1895417371642     
1.21537575609517     0.000702200034828    17.3772597768056     0.999329871125054    -0.012024157000564   0.999329871125054    -0.012024157000564   0.000702200034828    17.3772597768056     
1.23028287680443     0.000703384256835    17.5667091892764     0.999329439777241    -0.012171633349717   0.999329439777241    -0.012171633349717   0.000703384256835    17.5667091892764     
1.24537283993649     0.000704588297166    17.7578967141587     0.999329005782433    -0.012320918464534   0.999329005782433    -0.012320918464534   0.000704588297166    17.7578967141587     
1.26064788813444     0.000705812543581    17.9508288270107     0.99932856912423     -0.012472034528534   0.99932856912423     -0.012472034528534   0.000705812543581    17.9508288270107     
1.27611029154841     0.000707057391161    18.1455117297444     0.99932812978607     -0.012625003997295   0.99932812978607     -0.012625003997295   0.000707057391161    18.1455117297444     
1.29176234817291     0.000708323242418    18.3419513408761     0.999327687751334    -0.012779849601788   0.999327687751334    -0.012779849601788   0.000708323242418    18.3419513408761     
1.30760638418838     0.000709610507403    18.5401532856589     0.999327243003247    -0.012936594351755   0.999327243003247    -0.012936594351755   0.000709610507403    18.5401532856589     
1.32364475430687     0.00071091960382     18.7401228861006     0.999326795524973    -0.013095261539128   0.999326795524973    -0.013095261539128   0.00071091960382     18.7401228861006     
1.33987984212205     0.000712250957129    18.9418651508719     0.999326345299537    -0.01325587474149    0.999326345299537    -0.01325587474149    0.000712250957129    18.9418651508719     
1.35631406046338     0.000713605000664    19.1453847651162     0.999325892309848    -0.013418457825574   0.999325892309848    -0.013418457825574   0.000713605000664    19.1453847651162     
1.37294985175476     0.000714982175739    19.3506860801613     0.999325436538732    -0.013583034950816   0.999325436538732    -0.013583034950816   0.000714982175739    19.3506860801613     
1.38978968837749     0.000716382931759    19.5577731031478     0.999324977968879    -0.013749630572938   0.999324977968879    -0.013749630572938   0.000716382931759    19.5577731031478     
1.40683607303774     0.000717807726332    19.7666494865764     0.999324516582868    -0.013918269447586   0.999324516582868    -0.013918269447586   0.000717807726332    19.7666494865764     
1.42409153913845     0.00071925702538     19.9773185177852     0.999324052363164    -0.014088976634003   0.999324052363164    -0.014088976634003   0.00071925702538     19.9773185177852     
1.44155865115588     0.00072073130325     20.1897831083663     0.99932358529214     -0.014261777498757   0.99932358529214     -0.014261777498757   0.00072073130325     20.1897831083663     
1.45924000502072     0.000722231042823    20.4040457835306     0.999323115352022    -0.014436697719508   0.999323115352022    -0.014436697719508   0.000722231042823    20.4040457835306     
1.4771382285039      0.000723756735626    20.6201086714296     0.999322642524939    -0.014613763288821   0.999322642524939    -0.014613763288821   0.000723756735626    20.6201086714296     
1.49525598160712     0.000725308881943    20.8379734924474     0.999322166792885    -0.01479300051803    0.999322166792885    -0.01479300051803    0.000725308881943    20.8379734924474     
1.51359595695819     0.000726887990926    21.0576415484717     0.999321688137757    -0.014974436041146   0.999321688137757    -0.014974436041146   0.000726887990926    21.0576415484717     
1.53216088021117     0.0007284945807      21.2791137121567     0.99932120654131     -0.015158096818816   0.99932120654131     -0.015158096818816   0.0007284945807      21.2791137121567     
1.55095351045147     0.000730129178478    21.5023904161884     0.999320721985195    -0.015344010142324   0.999320721985195    -0.015344010142324   0.000730129178478    21.5023904161884     
1.56997664060592     0.000731792320668    21.7274716425675     0.99932023445094     -0.01553220363765    0.99932023445094     -0.01553220363765    0.000731792320668    21.7274716425675     
1.58923309785782     0.00073348455298     21.9543569119205     0.999319743919946    -0.015722705269574   0.999319743919946    -0.015722705269574   0.00073348455298     21.9543569119205     
1.60872574406712     0.000735206430538    22.1830452728541     0.999319250373486    -0.015915543345826   0.999319250373486    -0.015915543345826   0.000735206430538    22.1830452728541     
1.62845747619576     0.000736958517982    22.4135352913668     0.999318753792712    -0.016110746521299   0.999318753792712    -0.016110746521299   0.000736958517982    22.4135352913668     
1.64843122673818     0.000738741389577    22.6458250403324     0.999318254158662    -0.016308343802299   0.999318254158662    -0.016308343802299   0.000738741389577    22.6458250403324     
1.66864996415718     0.000740555629319    22.87991208907       0.999317751452243    -0.01650836455086    0.999317751452243    -0.01650836455086    0.000740555629319    22.87991208907       
1.68911669332506     0.000742401831041    23.1157934930178     0.999317245654213    -0.016710838489102   0.999317245654213    -0.016710838489102   0.000742401831041    23.1157934930178     
1.7098344559702      0.000744280598512    23.3534657835247     0.99931673674522     -0.016915795703649   0.99931673674522     -0.016915795703649   0.000744280598512    23.3534657835247     
1.73080633112912     0.000746192545545    23.5929249577779     0.999316224705796    -0.017123266650099   0.999316224705796    -0.017123266650099   0.000746192545545    23.5929249577779     
1.7520354356041      0.000748138296097    23.8341664688841     0.999315709516317    -0.017333282157548   0.999315709516317    -0.017333282157548   0.000748138296097    23.8341664688841     
1.77352492442637     0.000750118484367    24.0771852161184     0.999315191157035    -0.017545873433167   0.999315191157035    -0.017545873433167   0.000750118484367    24.0771852161184     
1.795277991325       0.0007521337549      24.3219755353647     0.999314669608074    -0.017761072066847   0.999314669608074    -0.017761072066847   0.0007521337549      24.3219755353647     
1.81729786920158     0.000754184762682    24.5685311897593     0.999314144849433    -0.017978910035882   0.999314144849433    -0.017978910035882   0.000754184762682    24.5685311897593     
1.83958783061065     0.000756272173236    24.8168453605619     0.999313616860946    -0.018199419709726   0.999313616860946    -0.018199419709726   0.000756272173236    24.8168453605619     
1.86215118824608     0.00075839666272     25.0669106382695     0.999313085622338    -0.0184226338548     0.999313085622338    -0.0184226338548     0.00075839666272     25.0669106382695     
1.88499129543341     0.000760558918018    25.3187190139944     0.999312551113185    -0.018648585639359   0.999312551113185    -0.018648585639359   0.000760558918018    25.3187190139944     
1.90811154662817     0.000762759636834    25.572261871125      0.999312013312939    -0.018877308638422   0.999312013312939    -0.018877308638422   0.000762759636834    25.572261871125      
1.93151537792041     0.000764999527782    25.8275299772889     0.999311472200891    -0.019108836838758   0.999311472200891    -0.019108836838758   0.000764999527782    25.8275299772889     
1.95520626754533     0.000767279310475    26.0845134766409     0.999310927756193    -0.019343204643936   0.999310927756193    -0.019343204643936   0.000767279310475    26.0845134766409     
1.97918773640025     0.000769599715611    26.3432018824909     0.999310379957888    -0.019580446879434   0.999310379957888    -0.019580446879434   0.000769599715611    26.3432018824909     
2.0034633485678      0.000771961485061    26.6035840702987     0.999309828784821    -0.019820598797818   0.999309828784821    -0.019820598797818   0.000771961485061    26.6035840702987     
2.02803671184571     0.00077436537195     26.8656482710502     0.999309274215744    -0.020063696083972   0.999309274215744    -0.020063696083972   0.00077436537195     26.8656482710502     
2.05291147828292     0.000776812140739    27.1293820650382     0.999308716229241    -0.020309774860405   0.999308716229241    -0.020309774860405   0.000776812140739    27.1293820650382     
2.07809134472235     0.000779302567306    27.3947723760692     0.999308154803731    -0.020558871692617   0.999308154803731    -0.020558871692617   0.000779302567306    27.3947723760692     
2.10358005335036     0.000781837439023    27.6618054661131     0.999307589917515    -0.020811023594525   0.999307589917515    -0.020811023594525   0.000781837439023    27.6618054661131     
2.12938139225286     0.000784417554832    27.9304669304193     0.99930702154873     -0.021066268033971   0.99930702154873     -0.021066268033971   0.000784417554832    27.9304669304193     
2.15549919597832     0.000787043725316    28.2007416931174     0.999306449675368    -0.021324642938282   0.999306449675368    -0.021324642938282   0.000787043725316    28.2007416931174     
2.18193734610764     0.000789716772777    28.4726140033232     0.999305874275263    -0.021586186699905   0.999305874275263    -0.021586186699905   0.000789716772777    28.4726140033232     
2.20869977183101     0.000792437531298    28.7460674317679     0.999305295326098    -0.021850938182113   0.999305295326098    -0.021850938182113   0.000792437531298    28.7460674317679     
2.23579045053189     0.000795206846815    29.0210848679716     0.999304712805385    -0.022118936724775   0.999304712805385    -0.022118936724775   0.000795206846815    29.0210848679716     
2.2632134083781      0.000798025577181    29.2976485179782     0.999304126690512    -0.022390222150206   0.999304126690512    -0.022390222150206   0.000798025577181    29.2976485179782     
2.29097272092018     0.00080089459223     29.5757399026716     0.99930353695868     -0.022664834769075   0.99930353695868     -0.022664834769075   0.00080089459223     29.5757399026716     
2.31907251369713     0.000803814773835    29.855339856688      0.99930294358694     -0.0229428153864     0.99930294358694     -0.0229428153864     0.000803814773835    29.855339856688      
2.34751696284946     0.000806787015971    30.1364285279435     0.9993023465522      -0.023224205307608   0.9993023465522      -0.023224205307608   0.000806787015971    30.1364285279435     
2.37631029573992     0.000809812224768    30.4189853777943     0.99930174583117     -0.023509046344668   0.99930174583117     -0.023509046344668   0.000809812224768    30.4189853777943     
2.40545679158173     0.000812891318566    30.7029891818414     0.999301141400417    -0.023797380822309   0.999301141400417    -0.023797380822309   0.000812891318566    30.7029891818414     
2.43496078207455     0.000816025227971    30.9884180313976     0.999300533236355    -0.024089251584299   0.999300533236355    -0.024089251584299   0.000816025227971    30.9884180313976     
2.46482665204824     0.000819214895899    31.2752493356304     0.999299921315191    -0.024384701999818   0.999299921315191    -0.024384701999818   0.000819214895899    31.2752493356304     
2.49505884011455     0.000822461277629    31.5634598243918     0.999299305613018    -0.024683775969896   0.999299305613018    -0.024683775969896   0.000822461277629    31.5634598243918     
2.52566183932675     0.000825765340849    31.8530255517495     0.999298686105703    -0.024986517933935   0.999298686105703    -0.024986517933935   0.000825765340849    31.8530255517495     
2.5566401978474      0.000829128065697    32.1439219002276     0.99929806276899     -0.025292972876311   0.99929806276899     -0.025292972876311   0.000829128065697    32.1439219002276     
2.5879985196243      0.000832550444805    32.4361235857694     0.999297435578405    -0.025603186333059   0.999297435578405    -0.025603186333059   0.000832550444805    32.4361235857694     
2.61974146507468     0.000836033483339    32.7296046634281     0.999296804509336    -0.025917204398633   0.999296804509336    -0.025917204398633   0.000836033483339    32.7296046634281     
2.65187375177785     0.000839578199039    33.0243385337945     0.999296169536974    -0.026235073732757   0.999296169536974    -0.026235073732757   0.000839578199039    33.0243385337945     
2.68440015517634     0.000843185622253    33.320297950167      0.99929553063633     -0.026556841567357   0.99929553063633     -0.026556841567357   0.000843185622253    33.320297950167      
2.71732550928555     0.000846856795974    33.6174550264675     0.999294887782244    -0.026882555713573   0.999294887782244    -0.026882555713573   0.000846856795974    33.6174550264675     
2.75065470741225     0.000850592775873    33.9157812459092     0.99929424094937     -0.027212264568864   0.99929424094937     -0.027212264568864   0.000850592775873    33.9157812459092     
2.78439270288177     0.00085439463033     34.215247470414      0.999293590112184    -0.027546017124201   0.999293590112184    -0.027546017124201   0.00085439463033     34.215247470414      
2.81854450977416     0.000858263440466    34.5158239507837     0.999292935244963    -0.027883862971337   0.999292935244963    -0.027883862971337   0.000858263440466    34.5158239507837     
2.85311520366939     0.00086220030017     34.8174803376201     0.999292276321811    -0.028225852310181   0.999292276321811    -0.028225852310181   0.00086220030017     34.8174803376201     
2.88810992240163     0.00086620631613     35.1201856929942     0.999291613316614    -0.028572035956251   0.999291613316614    -0.028572035956251   0.00086620631613     35.1201856929942     
2.9235338668229      0.000870282607856    35.4239085028581     0.999290946203114    -0.028922465348224   0.999290946203114    -0.028922465348224   0.000870282607856    35.4239085028581     
2.95939230157593     0.000874430307712    35.7286166901933     0.99929027495482     -0.029277192555578   0.99929027495482     -0.029277192555578   0.000874430307712    35.7286166901933     
2.99569055587665     0.000878650560933    36.0342776288893     0.999289599545053    -0.029636270286325   0.999289599545053    -0.029636270286325   0.000878650560933    36.0342776288893     
3.03243402430615     0.000882944525657    36.3408581583418     0.999288919946945    -0.02999975189484    0.999288919946945    -0.02999975189484    0.000882944525657    36.3408581583418     
3.06962816761245     0.000887313372945    36.6483245987588     0.999288236133416    -0.03036769138979    0.999288236133416    -0.03036769138979    0.000887313372945    36.6483245987588     
3.10727851352208     0.000891758286805    36.9566427671646     0.99928754807721     -0.030740143442157   0.99928754807721     -0.030740143442157   0.000891758286805    36.9566427671646     
3.14539065756156     0.000896280464214    37.2657779940824     0.999286855750841    -0.031117163393352   0.999286855750841    -0.031117163393352   0.000896280464214    37.2657779940824     
3.183970263889       0.000900881115145    37.575695140886      0.999286159126624    -0.031498807263446   0.999286159126624    -0.031498807263446   0.000900881115145    37.575695140886      
3.22302306613594     0.000905561462588    37.8863586177963     0.999285458176672    -0.031885131759482   0.999285458176672    -0.031885131759482   0.000905561462588    37.8863586177963     
3.26255486825942     0.000910322742573    38.1977324025076     0.999284752872874    -0.032276194283906   0.999284752872874    -0.032276194283906   0.000910322742573    38.1977324025076     
3.30257154540461     0.000915166204192    38.5097800594212     0.999284043186916    -0.03267205294309    0.999284043186916    -0.03267205294309    0.000915166204192    38.5097800594212     
3.3430790447779      0.000920093109631    38.8224647594641     0.999283329090277    -0.033072766555965   0.999283329090277    -0.033072766555965   0.000920093109631    38.8224647594641     
3.3840833865308      0.000925104734187    39.1357493004682     0.999282610554212    -0.033478394662755   0.999282610554212    -0.033478394662755   0.000925104734187    39.1357493004682     
3.42559066465466     0.000930202366298    39.4495961280856     0.999281887549736    -0.033888997533824   0.999281887549736    -0.033888997533824   0.000930202366298    39.4495961280856     
3.4676070478863      0.000935387307571    39.7639673572126     0.999281160047672    -0.034304636178632   0.999281160047672    -0.034304636178632   0.000935387307571    39.7639673572126     
3.51013878062484     0.00094066087281     40.0788247938933     0.999280428018596    -0.034725372354789   0.999280428018596    -0.034725372354789   0.00094066087281     40.0788247938933     
3.55319218385971     0.000946024390048    40.3941299576758     0.999279691432888    -0.035151268577236   0.999279691432888    -0.035151268577236   0.000946024390048    40.3941299576758     
3.59677365611007     0.000951479200574    40.7098441043858     0.999278950260645    -0.035582388127528   0.999278950260645    -0.035582388127528   0.000951479200574    40.7098441043858     
3.64088967437573     0.000957026658974    41.0259282492922     0.999278204471789    -0.036018795063234   0.999278204471789    -0.036018795063234   0.000957026658974    41.0259282492922     
3.68554679509979     0.000962668133162    41.3423431906239     0.999277454035961    -0.036460554227452   0.999277454035961    -0.036460554227452   0.000962668133162    41.3423431906239     
3.73075165514301     0.000968405004423    41.6590495334112     0.999276698922608    -0.036907731258442   0.999276698922608    -0.036907731258442   0.000968405004423    41.6590495334112     
3.77651097277017     0.000974238667449    41.9760077136125     0.999275939100891    -0.037360392599375   0.999275939100891    -0.037360392599375   0.000974238667449    41.9760077136125     
3.82283154864855     0.000980170530386    42.2931780224909     0.999275174539752    -0.0378186055082     0.999275174539752    -0.0378186055082     0.000980170530386    42.2931780224909     
3.86972026685862     0.000986202014881    42.6105206312074     0.999274405207885    -0.03828243806764    0.999274405207885    -0.03828243806764    0.000986202014881    42.6105206312074     
3.91718409591713     0.000992334556132    42.9279956155898     0.999273631073742    -0.038751959195301   0.999273631073742    -0.038751959195301   0.000992334556132    42.9279956155898     
3.96523008981276     0.000998569602938    43.2455629810432     0.999272852105514    -0.039227238653907   0.999272852105514    -0.039227238653907   0.000998569602938    43.2455629810432     
4.01386538905451     0.001004908617759    43.5631826875614     0.999272068271131    -0.039708347061667   0.999272068271131    -0.039708347061667   0.001004908617759    43.5631826875614     
4.06309722173284     0.001011353076777    43.880814674804      0.999271279538263    -0.040195355902759   0.999271279538263    -0.040195355902759   0.001011353076777    43.880814674804      
4.11293290459397     0.001017904469957    44.1984188871981     0.999270485874355    -0.040688337537955   0.999270485874355    -0.040688337537955   0.001017904469957    44.1984188871981     
4.1633798441272      0.001024564301118    44.5159552990283     0.999269687246526    -0.041187365215361   0.999269687246526    -0.041187365215361   0.001024564301118    44.5159552990283     
4.21444553766574     0.001031334088005    44.8333839394756     0.999268883621695    -0.041692513081305   0.999268883621695    -0.041692513081305   0.001031334088005    44.8333839394756     
4.26613757450089     0.001038215362367    45.1506649175671     0.999268074966444    -0.042203856191341   0.999268074966444    -0.042203856191341   0.001038215362367    45.1506649175671     
4.31846363700994     0.001045209670037    45.4677584469987     0.999267261247137    -0.042721470521405   0.999267261247137    -0.042721470521405   0.001045209670037    45.4677584469987     
4.37143150179795     0.001052318571019    45.7846248707936     0.999266442429827    -0.043245432979097   0.999266442429827    -0.043245432979097   0.001052318571019    45.7846248707936     
4.42504904085349     0.001059543639581    46.1012246857594     0.999265618480298    -0.043775821415105   0.999265618480298    -0.043775821415105   0.001059543639581    46.1012246857594     
4.47932422271853     0.00106688646435     46.4175185667051     0.999264789364054    -0.044312714634765   0.999264789364054    -0.044312714634765   0.00106688646435     46.4175185667051     
4.53426511367273     0.001074348648415    46.7334673903866     0.999263955046288    -0.044856192409772   0.999263955046288    -0.044856192409772   0.001074348648415    46.7334673903866     
4.58987987893224     0.001081931809433    47.0490322591407     0.999263115491926    -0.04540633549002    0.999263115491926    -0.04540633549002    0.001081931809433    47.0490322591407     
4.64617678386319     0.001089637579743    47.3641745241776     0.999262270665586    -0.045963225615606   0.999262270665586    -0.045963225615606   0.001089637579743    47.3641745241776     
4.70316419521009     0.001097467606483    47.6788558084948     0.99926142053159     -0.046526945528963   0.99926142053159     -0.046526945528963   0.001097467606483    47.6788558084948     
4.76085058233924     0.001105423551715    47.9930380293827     0.999260565053952    -0.047097578987151   0.999260565053952    -0.047097578987151   0.001105423551715    47.9930380293827     
4.8192445184975      0.001113507092557    48.306683420491      0.999259704196393    -0.047675210774301   0.999259704196393    -0.047675210774301   0.001113507092557    48.306683420491      
4.87835468208635     0.001121719921316    48.6197545534232     0.999258837922315    -0.048259926714203   0.999258837922315    -0.048259926714203   0.001121719921316    48.6197545534232     
4.93818985795173     0.001130063745634    48.9322143588336     0.99925796619478     -0.048851813683056   0.99925796619478     -0.048851813683056   0.001130063745634    48.9322143588336     
4.99875893868958     0.001138540288631    49.2440261469972     0.999257088976571    -0.049450959622369   0.999257088976571    -0.049450959622369   0.001138540288631    49.2440261469972     
5.06007092596748     0.001147151289067    49.5551536278296     0.999256206230128    -0.050057453552026   0.999256206230128    -0.050057453552026   0.001147151289067    49.5551536278296     
5.12213493186241     0.001155898501498    49.8655609303269     0.999255317917558    -0.050671385583504   0.999255317917558    -0.050671385583504   0.001155898501498    49.8655609303269     
5.18496018021502     0.001164783696448    50.1752126214096     0.999254424000635    -0.051292846933258   0.999254424000635    -0.051292846933258   0.001164783696448    50.1752126214096     
5.24855600800044     0.001173808660579    50.4840737241426     0.999253524440806    -0.051921929936269   0.999253524440806    -0.051921929936269   0.001173808660579    50.4840737241426     
5.31293186671592     0.001182975196876    50.7921097353172     0.999252619199175    -0.05255872805976    0.999252619199175    -0.05255872805976    0.001182975196876    50.7921097353172     
5.37809732378551     0.001192285124834    51.0992866423711     0.999251708236493    -0.053203335917073   0.999251708236493    -0.053203335917073   0.001192285124834    51.0992866423711     
5.44406206398193     0.001201740280648    51.4055709396348     0.999250791513165    -0.053855849281725   0.999250791513165    -0.053855849281725   0.001201740280648    51.4055709396348     
5.51083589086594     0.001211342517425    51.710929643886      0.999249868989222    -0.054516365101629   0.999249868989222    -0.054516365101629   0.001211342517425    51.710929643886      
5.57842872824327     0.001221093705379    52.0153303092005     0.999248940624362    -0.055184981513496   0.999248940624362    -0.055184981513496   0.001221093705379    52.0153303092005     
5.64685062163954     0.001230995732057    52.3187410410874     0.999248006377901    -0.05586179785741    0.999248006377901    -0.05586179785741    0.001230995732057    52.3187410410874     
5.71611173979318     0.001241050502555    52.6211305098991     0.999247066208786    -0.056546914691579   0.999247066208786    -0.056546914691579   0.001241050502555    52.6211305098991     
5.78622237616668     0.001251259939748    52.9224679635053     0.999246120075574    -0.057240433807271   0.999246120075574    -0.057240433807271   0.001251259939748    52.9224679635053     
5.85719295047639     0.001261625984529    53.2227232392293     0.999245167936472    -0.057942458243933   0.999245167936472    -0.057942458243933   0.001261625984529    53.2227232392293     
5.9290340102411      0.001272150596045    53.5218667750362     0.999244209749261    -0.058653092304492   0.999244209749261    -0.058653092304492   0.001272150596045    53.5218667750362     
6.00175623234957     0.001282835751955    53.8198696199726     0.999243245471353    -0.059372441570846   0.999243245471353    -0.059372441570846   0.001282835751955    53.8198696199726     
6.07537042464733     0.00129368344868     54.116703443856      0.999242275059757    -0.060100612919546   0.999242275059757    -0.060100612919546   0.00129368344868     54.116703443856      
6.1498875275429      0.001304695701669    54.4123405462117     0.99924129847107     -0.060837714537667   0.99924129847107     -0.060837714537667   0.001304695701669    54.4123405462117     
6.22531861563374     0.00131587454567     54.7067538644619     0.99924031566148     -0.061583855938876   0.99924031566148     -0.061583855938876   0.00131587454567     54.7067538644619     
6.30167489935216     0.001327222035007    54.9999169813628     0.999239326586762    -0.062339147979695   0.999239326586762    -0.062339147979695   0.001327222035007    54.9999169813628     
6.37896772663136     0.001338740243863    55.2918041317034     0.999238331202273    -0.063103702875967   0.999238331202273    -0.063103702875967   0.001338740243863    55.2918041317034     
6.45720858459197     0.001350431266573    55.5823902082648     0.999237329462928    -0.063877634219517   0.999237329462928    -0.063877634219517   0.001350431266573    55.5823902082648     
6.53640910124921     0.00136229721792     55.8716507670451     0.999236321323199    -0.064661056995024   0.999236321323199    -0.064661056995024   0.00136229721792     55.8716507670451     
6.61658104724106     0.00137434023344     56.1595620317684     0.999235306737134    -0.065454087597099   0.999235306737134    -0.065454087597099   0.00137434023344     56.1595620317684     
6.69773633757757     0.001386562469735    56.4461008976717     0.999234285658323    -0.066256843847569   0.999234285658323    -0.066256843847569   0.001386562469735    56.4461008976717     
6.77988703341167     0.001398966104789    56.7312449345963     0.999233258039896    -0.067069445012971   0.999233258039896    -0.067069445012971   0.001398966104789    56.7312449345963     
6.86304534383162     0.001411553338293    57.014972389382      0.999232223834529    -0.067892011822273   0.999232223834529    -0.067892011822273   0.001411553338293    57.014972389382      
6.9472236276756      0.001424326391977    57.297262187585      0.999231182994411    -0.068724666484788   0.999231182994411    -0.068724666484788   0.001424326391977    57.297262187585      
7.03243439536835     0.00143728750995     57.57809393453       0.999230135471268    -0.069567532708339   0.999230135471268    -0.069567532708339   0.00143728750995     57.57809393453       
7.11869031078052     0.001450438959038    57.8574479157095     0.999229081216336    -0.070420735717621   0.999229081216336    -0.070420735717621   0.001450438959038    57.8574479157095     
7.20600419311073     0.001463783029143    58.1353050965508     0.999228020180352    -0.071284402272798   0.999228020180352    -0.071284402272798   0.001463783029143    58.1353050965508     
7.29438901879074     0.001477322033593    58.4116471215587     0.999226952313558    -0.072158660688328   0.999226952313558    -0.072158660688328   0.001477322033593    58.4116471215587     
7.38385792341396     0.001491058309511    58.6864563128591     0.99922587756568     -0.073043640852018   0.99922587756568     -0.073043640852018   0.001491058309511    58.6864563128591     
7.47442420368769     0.001504994218182    58.9597156681543     0.99922479588593     -0.073939474244312   0.99922479588593     -0.073939474244312   0.001504994218182    58.9597156681543     
7.56610131940918     0.001519132145432    59.2314088581141     0.999223707223003    -0.074846293957819   0.999223707223003    -0.074846293957819   0.001519132145432    59.2314088581141     
7.65890289546607     0.001533474502007    59.5015202232121     0.999222611525047    -0.07576423471707    0.999222611525047    -0.07576423471707    0.001533474502007    59.5015202232121     
7.75284272386126     0.001548023723964    59.770034770039      0.999221508739665    -0.076693432898532   0.999221508739665    -0.076693432898532   0.001548023723964    59.770034770039      
7.84793476576267     0.001562782273065    60.0369381670984     0.999220398813911    -0.077634026550853   0.999220398813911    -0.077634026550853   0.001562782273065    60.0369381670984     
7.94419315357809     0.00157775263718     60.3022167401164     0.999219281694293    -0.078586155415368   0.999219281694293    -0.078586155415368   0.00157775263718     60.3022167401164     
8.04163219305555     0.001592937330689    60.5658574668769     0.999218157326725    -0.079549960946843   0.999218157326725    -0.079549960946843   0.001592937330689    60.5658574668769     
8.14026636540942     0.001608338894901    60.8278479716058     0.999217025656563    -0.080525586334488   0.999217025656563    -0.080525586334488   0.001608338894901    60.8278479716058     
8.24011032947252     0.001623959898468    61.0881765189263     0.999215886628553    -0.081513176523209   0.999215886628553    -0.081513176523209   0.001623959898468    61.0881765189263     
8.34117892387478     0.001639802937813    61.3468320074023     0.999214740186852    -0.082512878235143   0.999214740186852    -0.082512878235143   0.001639802937813    61.3468320074023     
8.44348716924844     0.001655870637557    61.6038039626902     0.999213586275003    -0.083524839991436   0.999213586275003    -0.083524839991436   0.001655870637557    61.6038039626902     
8.54705027046046     0.00167216565096     61.8590825303232     0.999212424835932    -0.084549212134303   0.999212424835932    -0.084549212134303   0.00167216565096     61.8590825303232     
8.65188361887221     0.001688690660359    62.1126584681453     0.999211255811943    -0.085586146849346   0.999211255811943    -0.085586146849346   0.001688690660359    62.1126584681453     
8.7580027946269      0.001705448377618    62.3645231384138     0.999210079144686    -0.086635798188159   0.999210079144686    -0.086635798188159   0.001705448377618    62.3645231384138     
8.86542356896508     0.001722441544582    62.6146684995973     0.999208894775158    -0.087698322091195   0.999208894775158    -0.087698322091195   0.001722441544582    62.6146684995973     
8.97416190656854     0.001739672933535    62.8630870978788     0.999207702643694    -0.088773876410925   0.999207702643694    -0.088773876410925   0.001739672933535    62.8630870978788     
9.08423396793294     0.001757145347665    63.1097720583929     0.99920650268997     -0.089862620935281   0.99920650268997     -0.089862620935281   0.001757145347665    63.1097720583929     
9.19565611176957     0.001774861621537    63.3547170762117     0.999205294852943    -0.090964717411371   0.999205294852943    -0.090964717411371   0.001774861621537    63.3547170762117     
9.30844489743654     0.001792824621565    63.5979164070982     0.999204079070894    -0.092080329569504   0.999204079070894    -0.092080329569504   0.001792824621565    63.5979164070982     
9.4226170873998      0.001811037246497    63.8393648580495     0.999202855281386    -0.093209623147501   0.999202855281386    -0.093209623147501   0.001811037246497    63.8393648580495     
9.53818964972435     0.001829502427902    64.079057777643      0.999201623421267    -0.094352765915299   0.999201623421267    -0.094352765915299   0.001829502427902    64.079057777643      
9.65517976059602     0.001848223130663    64.3169910462109     0.999200383426635    -0.095509927699864   0.999200383426635    -0.095509927699864   0.001848223130663    64.3169910462109     
9.77360480687413     0.001867202353473    64.553161065851      0.999199135232834    -0.096681280410406   0.999199135232834    -0.096681280410406   0.001867202353473    64.553161065851      
9.89348238867553     0.001886443129342    64.7875647503013     0.999197878774473    -0.097866998063909   0.999197878774473    -0.097866998063909   0.001886443129342    64.7875647503013     
10.0148303219903     0.001905948526107    65.020199514687      0.999196613985338    -0.099067256810955   0.999196613985338    -0.099067256810955   0.001905948526107    65.020199514687      
10.1376666413294     0.001925721646943    65.2510632651605     0.999195340798463    -0.100282234961891   0.999195340798463    -0.100282234961891   0.001925721646943    65.2510632651605     
10.2620096024052     0.001945765630887    65.4801543884503     0.999194059146065    -0.101512113013299   0.999194059146065    -0.101512113013299   0.001945765630887    65.4801543884503     
10.3878776848443     0.001966083653366    65.70747174133       0.999192768959533    -0.102757073674792   0.999192768959533    -0.102757073674792   0.001966083653366    65.70747174133       
10.5152895949342     0.001986678926724    65.9330146400292     0.99919147016942     -0.104017301896143   0.99919147016942     -0.104017301896143   0.001986678926724    65.9330146400292     
10.6442642684033     0.002007554700764    66.1567828495936     0.999190162705438    -0.105292984894746   0.999190162705438    -0.105292984894746   0.002007554700764    66.1567828495936     
10.7748208732348     0.002028714263286    66.3787765732125     0.999188846496425    -0.10658431218341    0.999188846496425    -0.10658431218341    0.002028714263286    66.3787765732125     
10.9069788125162     0.00205016094064     66.598996441526      0.999187521470347    -0.107891475598496   0.999187521470347    -0.107891475598496   0.00205016094064     66.598996441526      
11.0407577273219     0.002071898098282    66.8174435019231     0.999186187554236    -0.109214669328394   0.999186187554236    -0.109214669328394   0.002071898098282    66.8174435019231     
11.1761774996331     0.002093929141325    67.0341192078461     0.999184844674269    -0.110554089942364   0.999184844674269    -0.110554089942364   0.002093929141325    67.0341192078461     
11.3132582552921     0.002116257515116    67.2490254081098     0.999183492755623    -0.111909936419705   0.999183492755623    -0.111909936419705   0.002116257515116    67.2490254081098     
11.4520203669938     0.002138886705799    67.4621643362489     0.999182131722567    -0.113282410179307   0.999182131722567    -0.113282410179307   0.002138886705799    67.4621643362489     
11.5924844573128     0.002161820240897    67.6735385999028     0.999180761498397    -0.11467171510955    0.999180761498397    -0.11467171510955    0.002161820240897    67.6735385999028     
11.7346714017691     0.002185061689891    67.8831511702498     0.999179382005407    -0.11607805759857    0.999179382005407    -0.11607805759857    0.002185061689891    67.8831511702498     
11.87860233193       0.002208614664815    68.0910053714972     0.9991779931649      -0.117501646564903   0.9991779931649      -0.117501646564903   0.002208614664815    68.0910053714972     
12.0242986385507     0.002232482820844    68.2971048704418     0.999176594897125    -0.118942693488498   0.999176594897125    -0.118942693488498   0.002232482820844    68.2971048704418     
12.1717819747537     0.002256669856899    68.5014536661017     0.99917518712132     -0.120401412442111   0.99917518712132     -0.120401412442111   0.002256669856899    68.5014536661017     
12.3210742592464     0.002281179516255    68.7040560794368     0.999173769755656    -0.121878020123092   0.999173769755656    -0.121878020123092   0.002281179516255    68.7040560794368     
12.472197679579      0.00230601558715     68.9049167431567     0.999172342717185    -0.123372735885543   0.999172342717185    -0.123372735885543   0.00230601558715     68.9049167431567     
12.6251746954417     0.002331181903405    69.1040405916297     0.999170905921872    -0.124885781772886   0.999170905921872    -0.124885781772886   0.002331181903405    69.1040405916297     
12.7800280420028     0.002356682345054    69.3014328508973     0.999169459284578    -0.126417382550834   0.999169459284578    -0.126417382550834   0.002356682345054    69.3014328508973     
12.9367807332874     0.002382520838967    69.4970990287986     0.999168002718963    -0.127967765740736   0.999168002718963    -0.127967765740736   0.002382520838967    69.4970990287986     
13.0954560655978     0.002408701359498    69.6910449052148     0.999166536137557    -0.129537161653374   0.999166536137557    -0.129537161653374   0.002408701359498    69.6910449052148     
13.2560776209758     0.002435227929121    69.8832765224346     0.999165059451674    -0.131125803423135   0.999165059451674    -0.131125803423135   0.002435227929121    69.8832765224346     
13.4186692707074     0.002462104619085    70.0738001756491     0.999163572571412    -0.132733927042629   0.999163572571412    -0.132733927042629   0.002462104619085    70.0738001756491     
13.5832551788704     0.00248933555007     70.2626224035776     0.999162075405618    -0.134361771397708   0.999162075405618    -0.134361771397708   0.00248933555007     70.2626224035776     
13.7498598059256     0.002516924892854    70.4497499792325     0.999160567861881    -0.136009578302939   0.999160567861881    -0.136009578302939   0.002516924892854    70.4497499792325     
13.9185079123523     0.002544876868978    70.6351899008221     0.999159049846493    -0.137677592537487   0.999159049846493    -0.137677592537487   0.002544876868978    70.6351899008221     
14.0892245623281     0.00257319575143     70.8189493827997     0.999157521264424    -0.139366061881459   0.999157521264424    -0.139366061881459   0.00257319575143     70.8189493827997     
14.2620351274535     0.002601885865323    71.0010358470573     0.999155982019286    -0.141075237152668   0.999155982019286    -0.141075237152668   0.002601885865323    71.0010358470573     
14.4369652905233     0.002630951588594    71.1814569142724     0.999154432013332    -0.142805372243882   0.999154432013332    -0.142805372243882   0.002630951588594    71.1814569142724     
14.6140410493427     0.002660397352696    71.360220395403      0.999152871147414    -0.144556724160494   0.999152871147414    -0.144556724160494   0.002660397352696    71.360220395403      
14.7932887205918     0.002690227643308    71.5373342833401     0.999151299320951    -0.146329553058674   0.999151299320951    -0.146329553058674   0.002690227643308    71.5373342833401     
14.9747349437364     0.002720447001046    71.712806744715      0.999149716431904    -0.148124122283984   0.999149716431904    -0.148124122283984   0.002720447001046    71.712806744715      
15.1584066849868     0.002751060022182    71.8866461118634     0.99914812237673     -0.149940698410462   0.99914812237673     -0.149940698410462   0.002751060022182    71.8866461118634     
15.3443312413061     0.002782071359377    72.0588608749494     0.999146517050395    -0.151779551280189   0.999146517050395    -0.151779551280189   0.002782071359377    72.0588608749494     
15.5325362444666     0.002813485722411    72.2294596742488     0.999144900346283    -0.15364095404334    0.999144900346283    -0.15364095404334    0.002813485722411    72.2294596742488     
15.7230496651565     0.00284530787893     72.3984512925926     0.999143272156229    -0.155525183198725   0.999143272156229    -0.155525183198725   0.00284530787893     72.3984512925926     
15.915899817137      0.002877542655196    72.5658446479711     0.999141632370424    -0.157432518634819   0.999141632370424    -0.157432518634819   0.002877542655196    72.5658446479711     
16.1111153614497     0.002910194936842    72.7316487862999     0.999139980877417    -0.159363243671314   0.999139980877417    -0.159363243671314   0.002910194936842    72.7316487862999     
16.308725310677      0.002943269669647    72.8958728743457     0.999138317564096    -0.161317645101154   0.999138317564096    -0.161317645101154   0.002943269669647    72.8958728743457     
16.5087590332532     0.002976771860304    73.0585261928144     0.999136642315604    -0.163296013233108   0.999136642315604    -0.163296013233108   0.002976771860304    73.0585261928144     
16.7112462578293     0.003010706577206    73.2196181295982     0.999134955015353    -0.165298641934848   0.999134955015353    -0.165298641934848   0.003010706577206    73.2196181295982     
16.9162170776918     0.003045078951238    73.3791581731836     0.99913325554494     -0.16732582867656    0.99913325554494     -0.16732582867656    0.003045078951238    73.3791581731836     
17.1237019552341     0.003079894176575    73.5371559062182     0.999131543784149    -0.169377874575098   0.999131543784149    -0.169377874575098   0.003079894176575    73.5371559062182     
17.3337317264846     0.003115157511496    73.6936209992354     0.999129819610909    -0.171455084438658   0.999129819610909    -0.171455084438658   0.003115157511496    73.6936209992354     
17.5463376056894     0.003150874279194    73.8485632045369     0.999128082901232    -0.173557766812023   0.999128082901232    -0.173557766812023   0.003150874279194    73.8485632045369     
17.7615511899507     0.003187049868609    74.0019923502308     0.999126333529172    -0.17568623402234    0.999126333529172    -0.17568623402234    0.003187049868609    74.0019923502308     
17.9794044639234     0.003223689735261    74.1539183344241     0.999124571366819    -0.177840802225472   0.999124571366819    -0.177840802225472   0.003223689735261    74.1539183344241     
18.1999298045683     0.003260799402092    74.3043511195691     0.999122796284213    -0.180021791452914   0.999122796284213    -0.180021791452914   0.003260799402092    74.3043511195691     
18.4231599859638     0.003298384460325    74.4533007269606     0.99912100814935     -0.182229525659283   0.99912100814935     -0.182229525659283   0.003298384460325    74.4533007269606     
18.6491281841771     0.003336450570322    74.6007772313833     0.999119206828079    -0.184464332770381   0.999119206828079    -0.184464332770381   0.003336450570322    74.6007772313833     
18.8778679821942     0.00337500346246     74.7467907559082     0.999117392184104    -0.186726544731863   0.999117392184104    -0.186726544731863   0.00337500346246     74.7467907559082     
19.1094133749115     0.003414048938013    74.8913514668338     0.999115564078924    -0.189016497558487   0.999115564078924    -0.189016497558487   0.003414048938013    74.8913514668338     
19.3437987741878     0.003453592870042    75.0344695687732     0.999113722371778    -0.191334531383976   0.999113722371778    -0.191334531383976   0.003453592870042    75.0344695687732     
19.5810590139584     0.003493641204299    75.1761552998827     0.999111866919589    -0.193680990511473   0.999111866919589    -0.193680990511473   0.003493641204299    75.1761552998827     
19.8212293554125     0.00353419996014     75.3164189272302     0.999109997576955    -0.196056223464646   0.999109997576955    -0.196056223464646   0.00353419996014     75.3164189272302     
20.064345492233      0.003575275231443    75.4552707423038     0.99910811419603     -0.198460583039378   0.99910811419603     -0.198460583039378   0.003575275231443    75.4552707423038     
20.3104435559019     0.003616873187548    75.5927210566542     0.999106216626549    -0.200894426356131   0.999106216626549    -0.200894426356131   0.003616873187548    75.5927210566542     
20.5595601210696     0.003659000074192    75.728780197672      0.99910430471573     -0.203358114912917   0.99910430471573     -0.203358114912917   0.003659000074192    75.728780197672      
20.8117322109909     0.003701662214469    75.8634585044964     0.999102378308199    -0.205852014638927   0.999102378308199    -0.205852014638927   0.003701662214469    75.8634585044964     
21.0669973030271     0.003744866009794    75.9967663240524     0.999100437246002    -0.208376495948837   0.999100437246002    -0.208376495948837   0.003744866009794    75.9967663240524     
21.3253933342158     0.003788617940873    76.128714007216      0.99909848136847     -0.210931933797742   0.99909848136847     -0.210931933797742   0.003788617940873    76.128714007216      
21.5869587069093     0.003832924568699    76.2593119051026     0.999096510512224    -0.213518707736795   0.999096510512224    -0.213518707736795   0.003832924568699    76.2593119051026     
21.8517322944817     0.003877792535542    76.388570365479      0.999094524511083    -0.216137201969508   0.999094524511083    -0.216137201969508   0.003877792535542    76.388570365479      
22.1197534471062     0.003923228565963    76.5164997292931     0.999092523195994    -0.218787805408748   0.999092523195994    -0.218787805408748   0.003923228565963    76.5164997292931     
22.391061997603      0.003969239467835    76.643110327323      0.999090506395012    -0.221470911734432   0.999090506395012    -0.221470911734432   0.003969239467835    76.643110327323      
22.6656982673599     0.004015832133372    76.7684124769393     0.999088473933178    -0.224186919451919   0.999088473933178    -0.224186919451919   0.004015832133372    76.7684124769393     
22.943703072324      0.004063013540179    76.8924164789805     0.999086425632498    -0.226936231951129   0.999086425632498    -0.226936231951129   0.004063013540179    76.8924164789805     
23.2251177290682     0.004110790752304    77.0151326147388     0.999084361311848    -0.229719257566378   0.999084361311848    -0.229719257566378   0.004110790752304    77.0151326147388     
23.5099840609312     0.004159170921312    77.1365711430532     0.999082280786939    -0.232536409636949   0.999082280786939    -0.232536409636949   0.004159170921312    77.1365711430532     
23.7983444042338     0.004208161287361    77.2567422975068     0.999080183870206    -0.235388106568392   0.999080183870206    -0.235388106568392   0.004208161287361    77.2567422975068     
24.0902416145701     0.004257769180301    77.3756562837284     0.999078070370757    -0.238274771894591   0.999078070370757    -0.238274771894591   0.004257769180301    77.3756562837284     
24.3857190731773     0.004308002020777    77.4933232767941     0.99907594009428     -0.241196834340579   0.99907594009428     -0.241196834340579   0.004308002020777    77.4933232767941     
24.6848206933824     0.004358867321353    77.6097534187259     0.999073792843018    -0.244154727886126   0.999073792843018    -0.244154727886126   0.004358867321353    77.6097534187259     
24.987590927129      0.004410372687638    77.7249568160871     0.999071628415621    -0.247148891830103   0.999071628415621    -0.247148891830103   0.004410372687638    77.7249568160871     
25.2940747715832     0.004462525819441    77.8389435376704     0.999069446607109    -0.250179770855628   0.999069446607109    -0.250179770855628   0.004462525819441    77.8389435376704     
25.6043177758214     0.004515334511921    77.9517236122774     0.9990672472088      -0.253247815096025   0.9990672472088      -0.253247815096025   0.004515334511921    77.9517236122774     
25.9183660475994     0.004568806656769    78.0633070265864     0.999065030008178    -0.256353480201567   0.999065030008178    -0.256353480201567   0.004568806656769    78.0633070265864     
26.2362662602051     0.004622950243389    78.1737037231063     0.999062794788869    -0.259497227407054   0.999062794788869    -0.259497227407054   0.004622950243389    78.1737037231063     
26.5580656593949     0.0046777733601      78.2829235982156     0.999060541330483    -0.262679523600202   0.999060541330483    -0.262679523600202   0.0046777733601      78.2829235982156     
26.8838120704153     0.004733284195353    78.3909765002826     0.999058269408618    -0.265900841390895   0.999058269408618    -0.265900841390895   0.004733284195353    78.3909765002826     
27.2135539051105     0.00478949103896     78.4978722278655     0.999055978794647    -0.269161659181235   0.999055978794647    -0.269161659181235   0.00478949103896     78.4978722278655     
27.5473401691175     0.004846402283335    78.60362052799       0.999053669255752    -0.272462461236508   0.999053669255752    -0.272462461236508   0.004846402283335    78.60362052799       
27.8852204691488     0.004904026424758    78.7082310945025     0.999051340554718    -0.275803737756967   0.999051340554718    -0.275803737756967   0.004904026424758    78.7082310945025     
28.2272450203655     0.004962372064643    78.8117135664967     0.999048992449905    -0.279185984950522   0.999048992449905    -0.279185984950522   0.004962372064643    78.8117135664967     
28.5734646538396     0.005021447910832    78.9140775268108     0.999046624695126    -0.282609705106311   0.999046624695126    -0.282609705106311   0.005021447910832    78.9140775268108     
28.9239308241088     0.005081262778895    79.0153325005952     0.999044237039527    -0.286075406669167   0.999044237039527    -0.286075406669167   0.005081262778895    79.0153325005952     
29.2786956168235     0.005141825593453    79.1154879539458     0.999041829227503    -0.289583604314991   0.999041829227503    -0.289583604314991   0.005141825593453    79.1154879539458     
29.6378117564872     0.005203145389512    79.2145532926043     0.999039400998588    -0.293134819027067   0.999039400998588    -0.293134819027067   0.005203145389512    79.2145532926043     
30.0013326142933     0.005265231313811    79.31253786072       0.999036952087314    -0.296729578173272   0.999036952087314    -0.296729578173272   0.005265231313811    79.31253786072       
30.3693122160562     0.005328092626198    79.4094509396746     0.999034482223146    -0.300368415584276   0.999034482223146    -0.300368415584276   0.005328092626198    79.4094509396746     
30.7418052502406     0.005391738701003    79.5053017469658     0.999031991130323    -0.304051871632662   0.999031991130323    -0.304051871632662   0.005391738701003    79.5053017469658     
31.1188670760898     0.005456179028447    79.6000994351487     0.999029478527756    -0.307780493313026   0.999029478527756    -0.307780493313026   0.005456179028447    79.6000994351487     
31.5005537318524     0.005521423216055    79.6938530908329     0.999026944128916    -0.311554834323048   0.999026944128916    -0.311554834323048   0.005521423216055    79.6938530908329     
31.8869219431109     0.005587480990092    79.7865717337345     0.99902438764169     -0.315375455145574   0.99902438764169     -0.315375455145574   0.005587480990092    79.7865717337345     
32.2780291312122     0.005654362197011    79.8782643157799     0.999021808768249    -0.319242923131669   0.999021808768249    -0.319242923131669   0.005654362197011    79.8782643157799     
32.6739334218014     0.005722076804926    79.9689397202605     0.999019207204927    -0.323157812584708   0.999019207204927    -0.323157812584708   0.005722076804926    79.9689397202605     
33.0746936534603     0.005790634905096    80.0586067610368     0.999016582642114    -0.3271207048455     0.999016582642114    -0.3271207048455     0.005790634905096    80.0586067610368     
33.4803693864519     0.005860046713428    80.14727418179       0.999013934764054    -0.331132188378411   0.999013934764054    -0.331132188378411   0.005860046713428    80.14727418179       
33.8910209115722     0.005930322572001    80.2349506553189     0.99901126324876     -0.335192858858599   0.99901126324876     -0.335192858858599   0.005930322572001    80.2349506553189     
34.3067092591103     0.006001472950607    80.3216447828819     0.999008567767838    -0.339303319260246   0.999008567767838    -0.339303319260246   0.006001472950607    80.3216447828819     
34.7274962079189     0.006073508448309    80.4073650935821     0.99900584798637     -0.343464179945947   0.99900584798637     -0.343464179945947   0.006073508448309    80.4073650935821     
35.1534442945956     0.006146439795018    80.4921200437927     0.999003103562716    -0.347676058757101   0.999003103562716    -0.347676058757101   0.006146439795018    80.4921200437927     
35.584616822777      0.006220277853092    80.5759180166233     0.999000334148398    -0.351939581105475   0.999000334148398    -0.351939581105475   0.006220277853092    80.5759180166233     
36.0210778725469     0.00629503361895     80.6587673214249     0.998997539387914    -0.356255380065857   0.998997539387914    -0.356255380065857   0.00629503361895     80.6587673214249     
36.4628923099594     0.006370718224708    80.7406761933313     0.998994718918615    -0.360624096469854   0.998994718918615    -0.360624096469854   0.006370718224708    80.7406761933313     
36.9101257966795     0.006447342939837    80.8216527928368     0.998991872370475    -0.365046379000796   0.998991872370475    -0.365046379000796   0.006447342939837    80.8216527928368     
37.3628447997416     0.006524919172832    80.9017052054086     0.998988999365975    -0.369522884289859   0.998988999365975    -0.369522884289859   0.006524919172832    80.9017052054086     
37.8211166014277     0.006603458472916    80.9808414411324     0.998986099519912    -0.374054277013309   0.998986099519912    -0.374054277013309   0.006603458472916    80.9808414411324     
38.2850093092665     0.006682972531746    81.0590694343901     0.998983172439195    -0.378641229990949   0.998983172439195    -0.378641229990949   0.006682972531746    81.0590694343901     
38.754591866156      0.006763473185158    81.1363970435677     0.998980217722704    -0.383284424285793   0.998980217722704    -0.383284424285793   0.006763473185158    81.1363970435677     
39.2299340606089     0.006844972414921    81.2128320507938     0.998977234961049    -0.387984549304899   0.998977234961049    -0.387984549304899   0.006844972414921    81.2128320507938     
39.711106537125      0.006927482350514    81.2883821617065     0.998974223736443    -0.392742302901498   0.998974223736443    -0.392742302901498   0.006927482350514    81.2883821617065     
40.1981808066904     0.00701101527093     81.3630550052467     0.998971183622432    -0.397558391478301   0.998971183622432    -0.397558391478301   0.00701101527093     81.3630550052467     
40.6912292574045     0.007095583606496    81.4368581334789     0.998968114183759    -0.402433530092143   0.998968114183759    -0.402433530092143   0.007095583606496    81.4368581334789     
41.1903251652391     0.007181199940717    81.5097990214367     0.998965014976094    -0.407368442559813   0.998965014976094    -0.407368442559813   0.007181199940717    81.5097990214367     
41.6955427049282     0.007267877012141    81.5818850669925     0.998961885545873    -0.412363861565252   0.998961885545873    -0.412363861565252   0.007267877012141    81.5818850669925     
42.2069569609914     0.007355627716252    81.6531235907504     0.998958725430049    -0.417420528768015   0.998958725430049    -0.417420528768015   0.007355627716252    81.6531235907504     
42.7246439388935     0.007444465107376    81.7235218359619     0.998955534155901    -0.422539194913081   0.998955534155901    -0.422539194913081   0.007444465107376    81.7235218359619     
43.2486805763395     0.007534402400621    81.793086968462      0.998952311240743    -0.427720619941951   0.998952311240743    -0.427720619941951   0.007534402400621    81.793086968462      
43.7791447547096     0.007625452973831    81.8618260766264     0.998949056191767    -0.432965573105174   0.998949056191767    -0.432965573105174   0.007625452973831    81.8618260766264     
44.3161153106335     0.007717630369571    81.9297461713476     0.99894576850576     -0.43827483307619    0.99894576850576     -0.43827483307619    0.007717630369571    81.9297461713476     
44.859672047707      0.00781094829713     81.9968541860304     0.998942447668848    -0.44364918806656    0.998942447668848    -0.44364918806656    0.00781094829713     81.9968541860304     
45.4098957483523     0.007905420634553    82.0631569766044     0.998939093156294    -0.449089435942641   0.998939093156294    -0.449089435942641   0.007905420634553    82.0631569766044     
45.9668681858236     0.008001061430695    82.1286613215538     0.998935704432158    -0.454596384343616   0.998935704432158    -0.454596384343616   0.008001061430695    82.1286613215538     
46.5306721363603     0.008097884907299    82.1933739219632     0.998932280949142    -0.460170850801057   0.998932280949142    -0.460170850801057   0.008097884907299    82.1933739219632     
47.1013913914889     0.008195905461103    82.257301401579      0.998928822148218    -0.465813662859828   0.998928822148218    -0.465813662859828   0.008195905461103    82.257301401579      
47.6791107704761     0.008295137665967    82.3204503068853     0.998925327458402    -0.471525658200538   0.998925327458402    -0.471525658200538   0.008295137665967    82.3204503068853     
48.2639161329341     0.008395596275031    82.3828271071938     0.998921796296475    -0.477307684763483   0.998921796296475    -0.477307684763483   0.008395596275031    82.3828271071938     
48.8558943915815     0.008497296222896    82.4444381947462     0.998918228066664    -0.483160600874053   0.998918228066664    -0.483160600874053   0.008497296222896    82.4444381947462     
49.4551335251598     0.00860025262783     82.5052898848306     0.998914622160372    -0.489085275369688   0.998914622160372    -0.489085275369688   0.00860025262783     82.5052898848306     
50.0617225915083     0.008704480794006    82.5653884159079     0.998910977955835    -0.495082587728392   0.998910977955835    -0.495082587728392   0.008704480794006    82.5653884159079     
50.6757517408005     0.008809996213761    82.6247399497509     0.998907294817873    -0.501153428198793   0.998907294817873    -0.501153428198793   0.008809996213761    82.6247399497509     
51.2973122289412     0.008916814569887    82.683350571593      0.998903572097501    -0.507298697931786   0.998903572097501    -0.507298697931786   0.008916814569887    82.683350571593      
51.9264964311295     0.009024951737946    82.7412262902876     0.998899809131623    -0.513519309113756   0.998899809131623    -0.513519309113756   0.009024951737946    82.7412262902876     
52.5633978555869     0.009134423788614    82.7983730384757     0.99889600524274     -0.519816185101484   0.99889600524274     -0.519816185101484   0.009134423788614    82.7983730384757     
53.2081111574549     0.009245246990057    82.8547966727644     0.998892159738539    -0.52619026055862    0.998892159738539    -0.52619026055862    0.009245246990057    82.8547966727644     
53.8607321528618     0.009357437810328    82.9105029739107     0.998888271911588    -0.532642481593863   0.998888271911588    -0.532642481593863   0.009357437810328    82.9105029739107     
54.5213578331632     0.009471012919801    82.9654976470158     0.998884341038943    -0.539173805900772   0.998884341038943    -0.539173805900772   0.009471012919801    82.9654976470158     
55.1900863793564     0.009585989193628    83.0197863217251     0.9988803663818      -0.545785202899335   0.9988803663818      -0.545785202899335   0.009585989193628    83.0197863217251     
55.8670171766723     0.009702383714232    83.0733745524347     0.998876347185099    -0.55247765387921    0.998876347185099    -0.55247765387921    0.009702383714232    83.0733745524347     
56.5522508293452     0.00982021377382     83.1262678185053     0.998872282677174    -0.559252152144731   0.998872282677174    -0.559252152144731   0.00982021377382     83.1262678185053     
57.2458891755653     0.009939496876941    83.1784715244804     0.998868172069295    -0.566109703161664   0.998868172069295    -0.566109703161664   0.009939496876941    83.1784715244804     
57.9480353026126     0.010060250743059    83.2299910003111     0.998864014555298    -0.573051324705701   0.998864014555298    -0.573051324705701   0.010060250743059    83.2299910003111     
58.6587935621785     0.010182493309166    83.2808315015845     0.99885980931117     -0.580078047012872   0.99885980931117     -0.580078047012872   0.010182493309166    83.2808315015845     
59.3782695858741     0.01030624273243     83.3309982097577     0.998855555494606    -0.587190912931659   0.998855555494606    -0.587190912931659   0.01030624273243     83.3309982097577     
60.1065703009285     0.010431517392861    83.3804962323944     0.998851252244575    -0.594390978076984   0.998851252244575    -0.594390978076984   0.010431517392861    83.3804962323944     
60.843803946081      0.010558335896026    83.4293306034068     0.998846898680876    -0.601679310986149   0.998846898680876    -0.601679310986149   0.010558335896026    83.4293306034068     
61.5900800876663     0.010686717075783    83.4775062832986     0.998842493903671    -0.609056993276528   0.998842493903671    -0.609056993276528   0.010686717075783    83.4775062832986     
62.3455096358993     0.010816679997054    83.5250281594129     0.998838036993025    -0.61652511980528    0.998838036993025    -0.61652511980528    0.010816679997054    83.5250281594129     
63.110204861357      0.010948243958631    83.5719010461812     0.998833527008407    -0.624084798830947   0.998833527008407    -0.624084798830947   0.010948243958631    83.5719010461812     
63.8842794116651     0.011081428496016    83.618129685375      0.998828962988208    -0.631737152177032   0.998828962988208    -0.631737152177032   0.011081428496016    83.618129685375      
64.6678483283875     0.011216253384292    83.663718746359      0.998824343949226    -0.639483315397499   0.998824343949226    -0.639483315397499   0.011216253384292    83.663718746359      
65.4610280641237     0.011352738641035    83.7086728263459     0.998819668886166    -0.647324437944375   0.998819668886166    -0.647324437944375   0.011352738641035    83.7086728263459     
66.2639364998158     0.011490904529248    83.7529964506522     0.998814936771086    -0.655261683337305   0.998814936771086    -0.655261683337305   0.011490904529248    83.7529964506522     
67.0766929622679     0.011630771560347    83.7966940729547     0.998810146552843    -0.663296229335152   0.998810146552843    -0.663296229335152   0.011630771560347    83.7966940729547     
67.8994182418798     0.011772360497171    83.839770075548      0.998805297156575    -0.671429268109747   0.998805297156575    -0.671429268109747   0.011772360497171    83.839770075548      
68.7322346105991     0.011915692357031    83.8822287696015     0.998800387483109    -0.679662006421649   0.998800387483109    -0.679662006421649   0.011915692357031    83.8822287696015     
69.5752658400928     0.012060788414796    83.9240743954169     0.998795416408351    -0.687995665798072   0.998795416408351    -0.687995665798072   0.012060788414796    83.9240743954169     
70.4286372201422     0.012207670206014    83.9653111226855     0.998790382782731    -0.696431482712999   0.998790382782731    -0.696431482712999   0.012207670206014    83.9653111226855     
71.292475577263      0.012356359530076    84.0059430507441     0.998785285430537    -0.704970708769378   0.998785285430537    -0.704970708769378   0.012356359530076    84.0059430507441     
72.1669092935543     0.012506878453411    84.0459742088307     0.998780123149339    -0.713614610883604   0.998780123149339    -0.713614610883604   0.012506878453411    84.0459742088307     
73.0520683257783     0.01265924931272     84.0854085563396     0.998774894709318    -0.72236447147219    0.998774894709318    -0.72236447147219    0.01265924931272     84.0854085563396     
73.9480842246742     0.012813494718254    84.124249983074      0.998769598852584    -0.731221588640671   0.998769598852584    -0.731221588640671   0.012813494718254    84.124249983074      
74.8550901545094     0.012969637557125    84.1625023094979     0.998764234292535    -0.740187276374819   0.998764234292535    -0.740187276374819   0.012969637557125    84.1625023094979     
75.7732209128696     0.01312770099666     84.2001692869865     0.998758799713152    -0.749262864734172   0.998758799713152    -0.749262864734172   0.01312770099666     84.2001692869865     
76.7026129506926     0.01328770848779     84.2372545980733     0.99875329376828     -0.758449700047851   0.99875329376828     -0.758449700047851   0.01328770848779     84.2372545980733     
77.6434043925474     0.013449683768489    84.2737618566968     0.998747715080896    -0.767749145112744   0.998747715080896    -0.767749145112744   0.013449683768489    84.2737618566968     
78.5957350571616     0.013613650867242    84.3096946084435     0.998742062242393    -0.777162579394116   0.998742062242393    -0.777162579394116   0.013613650867242    84.3096946084435     
79.5597464782013     0.013779634106562    84.345056330789      0.998736333811762    -0.786691399228581   0.998736333811762    -0.786691399228581   0.013779634106562    84.345056330789      
80.5355819253059     0.013947658106549    84.3798504333363     0.998730528314885    -0.796337018029588   0.998730528314885    -0.796337018029588   0.013947658106549    84.3798504333363     
81.5233864253797     0.014117747788485    84.414080258051      0.998724644243661    -0.806100866495275   0.998724644243661    -0.806100866495275   0.014117747788485    84.414080258051      
82.5233067841467     0.014289928378474    84.4477490794931     0.998718680055207    -0.815984392818883   0.998718680055207    -0.815984392818883   0.014289928378474    84.4477490794931     
83.5354916079673     0.014464225411132    84.480860105047      0.998712634171041    -0.825989062901715   0.998712634171041    -0.825989062901715   0.014464225411132    84.480860105047      
84.5600913259251     0.01464066473331     84.513416475146      0.998706504976209    -0.836116360568632   0.998706504976209    -0.836116360568632   0.01464066473331     84.513416475146      
85.5972582121826     0.014819272507866    84.5454212634949     0.998700290818369    -0.846367787786077   0.998700290818369    -0.846367787786077   0.014819272507866    84.5454212634949     
86.6471464086123     0.015000075217485    84.5768774772881     0.99869399000693     -0.856744864882813   0.99869399000693     -0.856744864882813   0.015000075217485    84.5768774772881     
87.709911947705      0.015183099668536    84.6077880574242     0.998687600812098    -0.867249130773255   0.998687600812098    -0.867249130773255   0.015183099668536    84.6077880574242     
88.7857127757586     0.015368372994978    84.6381558787164     0.998681121463928    -0.877882143183429   0.998681121463928    -0.877882143183429   0.015368372994978    84.6381558787164     
89.8747087763525     0.015555922662319    84.6679837500985     0.998674550151365    -0.88864547887978    0.998674550151365    -0.88864547887978    0.015555922662319    84.6679837500985     
90.9770617941087     0.015745776471606    84.6972744148277     0.998667885021249    -0.899540733900554   0.998667885021249    -0.899540733900554   0.015745776471606    84.6972744148277     
92.092935658745      0.01593796256348     84.7260305506815     0.998661124177271    -0.910569523790035   0.998661124177271    -0.910569523790035   0.01593796256348     84.7260305506815     
93.222496209423      0.016132509422259    84.7542547701514     0.998654265678933    -0.921733483835572   0.998654265678933    -0.921733483835572   0.016132509422259    84.7542547701514     
94.3659113193951     0.01632944588009     84.7819496206316     0.998647307540494    -0.933034269307471   0.998647307540494    -0.933034269307471   0.01632944588009     84.7819496206316     
95.5233509209531     0.016528801121128    84.8091175846021     0.998640247729855    -0.94447355570161    0.998640247729855    -0.94447355570161    0.016528801121128    84.8091175846021     
96.6949870306837     0.016730604685782    84.8357610798087     0.998633084167453    -0.956053038985198   0.998633084167453    -0.956053038985198   0.016730604685782    84.8357610798087     
97.8809937750329     0.016934886475001    84.8618824594364     0.998625814725062    -0.967774435845155   0.998625814725062    -0.967774435845155   0.016934886475001    84.8618824594364     
99.0815474161844     0.017141676754609    84.8874840122783     0.998618437224684    -0.979639483939754   0.998618437224684    -0.979639483939754   0.017141676754609    84.8874840122783     
100.296826378256     0.017351006159695    84.9125679629001     0.998610949437268    -0.991649942153015   0.998610949437268    -0.991649942153015   0.017351006159695    84.9125679629001     
101.527011273815     0.017562905699053    84.9371364717983     0.998603349081527    -1.00380759085231    0.998603349081527    -1.00380759085231    0.017562905699053    84.9371364717983     
102.772284930723     0.017777406759672    84.9611916355535     0.998595633822626    -1.01611423214886    0.998595633822626    -1.01611423214886    0.017777406759672    84.9611916355535     
104.032832419305     0.017994541111276    84.9847354869781     0.998587801270916    -1.02857169016152    0.998587801270916    -1.02857169016152    0.017994541111276    84.9847354869781     
105.308841079856     0.018214340910922    85.0077699952591     0.998579848980584    -1.04118181128349    0.998579848980584    -1.04118181128349    0.018214340910922    85.0077699952591     
106.600500550483     0.01843683870765     85.0302970660949     0.998571774448266    -1.05394646445238    0.998571774448266    -1.05394646445238    0.01843683870765     85.0302970660949     
107.908002795286     0.018662067447177    85.0523185418254     0.998563575111692    -1.0668675414233     0.998563575111692    -1.0668675414233     0.018662067447177    85.0523185418254     
109.231542132892     0.018890060476662    85.0738362015586     0.998555248348242    -1.07994695704534    0.998555248348242    -1.07994695704534    0.018890060476662    85.0738362015586     
110.571315265332     0.01912085154951     85.0948517612892     0.99854679147345     -1.09318664954127    0.99854679147345     -1.09318664954127    0.01912085154951     85.0948517612892     
111.927521307271     0.019354474830241    85.1153668740126     0.998538201739533    -1.10658858079042    0.998538201739533    -1.10658858079042    0.019354474830241    85.1153668740126     
113.300361815606     0.019590964899409    85.1353831298325     0.998529476333834    -1.12015473661514    0.998529476333834    -1.12015473661514    0.019590964899409    85.1353831298325     
114.690040819419     0.01983035675858     85.1549020560623     0.998520612377255    -1.13388712707044    0.998520612377255    -1.13388712707044    0.01983035675858     85.1549020560623     
116.096764850297     0.020072685835368    85.1739251173205     0.998511606922606    -1.14778778673708    0.998511606922606    -1.14778778673708    0.020072685835368    85.1739251173205     
117.52074297303      0.020317987988524    85.1924537156203     0.998502456953027    -1.16185877501827    0.998502456953027    -1.16185877501827    0.020317987988524    85.1924537156203     
118.962186816677     0.02056629951309     85.2104891904525     0.99849315938019     -1.17610217643965    0.99849315938019     -1.17610217643965    0.02056629951309     85.2104891904525     
120.421310606024     0.0208176571456      85.2280328188621     0.99848371104264     -1.19052010095286    0.99848371104264     -1.19052010095286    0.0208176571456      85.2280328188621     
121.898331193418     0.021072098069354    85.2450858155186     0.998474108703988    -1.20511468424282    0.998474108703988    -1.20511468424282    0.021072098069354    85.2450858155186     
123.393468090995     0.021329659919737    85.2616493327802     0.998464349051083    -1.2198880880384     0.998464349051083    -1.2198880880384     0.021329659919737    85.2616493327802     
124.906943503305     0.021590380789613    85.2777244607515     0.998454428692134    -1.23484250042683    0.998454428692134    -1.23484250042683    0.021590380789613    85.2777244607515     
126.438982360334     0.021854299234767    85.2933122273337     0.998444344154819    -1.24998013617182    0.998444344154819    -1.24998013617182    0.021854299234767    85.2933122273337     
127.989812350936     0.022121454279412    85.3084135982697     0.998434091884331    -1.26530323703539    0.998434091884331    -1.26530323703539    0.022121454279412    85.3084135982697     
129.559663956666     0.022391885421765    85.3230294771813     0.998423668241316    -1.28081407210334    0.998423668241316    -1.28081407210334    0.022391885421765    85.3230294771813     
131.14877048604      0.022665632639671    85.3371607056005     0.99841306949988     -1.29651493811474    0.99841306949988     -1.29651493811474    0.022665632639671    85.3371607056005     
132.757368109205     0.022942736396303    85.350808062994      0.998402291845443    -1.31240815979501    0.998402291845443    -1.31240815979501    0.022942736396303    85.350808062994      
134.38569589304      0.023223237645917    85.3639722667803     0.998391331372592    -1.32849609019308    0.998391331372592    -1.32849609019308    0.023223237645917    85.3639722667803     
136.033995836682     0.023507177839677    85.3766539723405     0.998380184082856    -1.34478111102232    0.998380184082856    -1.34478111102232    0.023507177839677    85.3766539723405     
137.702512907499     0.023794598931536    85.3888537730224     0.998368845882475    -1.36126563300556    0.998368845882475    -1.36126563300556    0.023794598931536    85.3888537730224     
139.391495077487     0.024085543384191    85.400572200137      0.998357312580017    -1.37795209622392    0.998357312580017    -1.37795209622392    0.024085543384191    85.400572200137      
141.101193360133     0.024380054175097    85.4118097229487     0.998345579884079    -1.39484297046997    0.998345579884079    -1.39484297046997    0.024380054175097    85.4118097229487     
142.831861847712     0.02467817480255     85.422566748658      0.998333643400789    -1.4119407556046     0.998333643400789    -1.4119407556046     0.02467817480255     85.422566748658      
144.583757749053     0.024979949291835    85.4328436223778     0.998321498631314    -1.42924798191832    0.998321498631314    -1.42924798191832    0.024979949291835    85.4328436223778     
146.357141427768     0.025285422201443    85.4426406271017     0.998309140969344    -1.44676721049656    0.998309140969344    -1.44676721049656    0.025285422201443    85.4426406271017     
148.15227644094      0.025594638629351    85.4519579836658     0.998296565698443    -1.46450103358923    0.998296565698443    -1.46450103358923    0.025594638629351    85.4519579836658     
149.969429578298     0.025907644219375    85.4607958507033     0.998283767989385    -1.48245207498454    0.998283767989385    -1.48245207498454    0.025907644219375    85.4607958507033     
151.808870901865     0.02622448516759     85.4691543245917     0.998270742897381    -1.50062299038697    0.998270742897381    -1.50062299038697    0.02622448516759     85.4691543245917     
153.670873786095     0.026545208228816    85.477033439393      0.998257485359272    -1.51901646779975    0.998257485359272    -1.51901646779975    0.026545208228816    85.477033439393      
155.555714958497     0.026869860723176    85.4844331667861     0.998243990190686    -1.53763522791163    0.998243990190686    -1.53763522791163    0.026869860723176    85.4844331667861     
157.463674540769     0.027198490542727    85.4913534159927     0.998230252083026    -1.55648202448802    0.998230252083026    -1.55648202448802    0.027198490542727    85.4913534159927     
159.395036090423     0.027531146158153    85.4977940336949     0.99821626560047     -1.57555964476663    0.99821626560047     -1.57555964476663    0.027531146158153    85.4977940336949     
161.35008664293      0.027867876625537    85.5037548039466     0.998202025176885    -1.59487090985761    0.998202025176885    -1.59487090985761    0.027867876625537    85.5037548039466     
163.329116754378     0.0282087315932      85.5092354480759     0.998187525112632    -1.61441867514816    0.998187525112632    -1.61441867514816    0.0282087315932      85.5092354480759     
165.332420544654     0.028553761308614    85.514235624582      0.998172759571343    -1.63420583071189    0.998172759571343    -1.63420583071189    0.028553761308614    85.514235624582      
167.360295741156     0.028903016625387    85.5187549290224     0.998157722576553    -1.65423530172251    0.998157722576553    -1.65423530172251    0.028903016625387    85.5187549290224     
169.413043723037     0.029256549010314    85.5227928938948     0.998142408008319    -1.67451004887251    0.998142408008319    -1.67451004887251    0.029256549010314    85.5227928938948     
171.490969566002     0.029614410550513    85.5263489885098     0.9981268095997      -1.69503306879628    0.9981268095997      -1.69503306879628    0.029614410550513    85.5263489885098     
173.594382087643     0.029976653960627    85.5294226188568     0.998110920933218    -1.71580739449815    0.998110920933218    -1.71580739449815    0.029976653960627    85.5294226188568     
175.723593893336     0.030343332590098    85.5320131274621     0.99809473543714     -1.73683609578512    0.99809473543714     -1.73683609578512    0.030343332590098    85.5320131274621     
177.878921422701     0.03071450043052     85.5341197932394     0.998078246381768    -1.75812227970448    0.998078246381768    -1.75812227970448    0.03071450043052     85.5341197932394     
180.060684996627     0.031090212123065    85.5357418313326     0.998061446875581    -1.77966909098631    0.998061446875581    -1.77966909098631    0.031090212123065    85.5357418313326     
182.269208864885     0.031470522965982    85.536878392951      0.998044329861266    -1.80147971249077    0.998044329861266    -1.80147971249077    0.031470522965982    85.536878392951      
184.504821254308     0.031855488922176    85.5375285651965     0.998026888111732    -1.8235573656606     0.998026888111732    -1.8235573656606     0.031855488922176    85.5375285651965     
186.76785441758      0.032245166626854    85.5376913708837     0.998009114225941    -1.84590531097831    0.998009114225941    -1.84590531097831    0.032245166626854    85.5376913708837     
189.058644682608     0.032639613395257    85.5373657683513     0.997991000624701    -1.86852684842867    0.997991000624701    -1.86852684842867    0.032639613395257    85.5373657683513     
191.37753250251      0.033038887230459    85.5365506512663     0.997972539546284    -1.89142531796609    0.997972539546284    -1.89142531796609    0.033038887230459    85.5365506512663     
193.724862506214     0.03344304683125     85.5352448484207     0.997953723042066    -1.91460409998738    0.997953723042066    -1.91460409998738    0.03344304683125     85.5352448484207     
196.100983549671     0.033852151600089    85.5334471235193     0.997934542971904    -1.93806661580927    0.997934542971904    -1.93806661580927    0.033852151600089    85.5334471235193     
198.506248767708     0.03426626165114     85.5311561749605     0.9979149909995      -1.96181632815154    0.9979149909995      -1.96181632815154    0.03426626165114     85.5311561749605     
200.941015626504     0.034685437818376    85.5283706356091     0.997895058587666    -1.98585674162516    0.997895058587666    -1.98585674162516    0.034685437818376    85.5283706356091     
203.405645976718     0.035109741663772    85.5250890725609     0.997874736993376    -2.01019140322578    0.997874736993376    -2.01019140322578    0.035109741663772    85.5250890725609     
205.90050610727      0.035539235485565    85.5213099868993     0.997854017262816    -2.03482390283252    0.997854017262816    -2.03482390283252    0.035539235485565    85.5213099868993     
208.425966799773     0.035973982326595    85.5170318134442     0.997832890226238    -2.05975787371219    0.997832890226238    -2.05975787371219    0.035973982326595    85.5170318134442     
210.982403383643     0.036414045982727    85.5122529204933     0.99781134649272     -2.08499699302881    0.99781134649272     -2.08499699302881    0.036414045982727    85.5122529204933     
213.570195791873     0.036859491011342    85.5069716095541     0.997789376444769    -2.11054498235864    0.997789376444769    -2.11054498235864    0.036859491011342    85.5069716095541     
216.189728617507     0.037310382739915    85.5011861150694     0.997766970232833    -2.1364056082106     0.997766970232833    -2.1364056082106     0.037310382739915    85.5011861150694     
218.84139117079      0.037766787274661    85.4948946041337     0.997744117769668    -2.16258268255235    0.997744117769668    -2.16258268255235    0.037766787274661    85.4948946041337     
221.525577537027     0.03822877150927     85.488095176202      0.997720808724566    -2.18908006334179    0.997720808724566    -2.18908006334179    0.03822877150927     85.488095176202      
224.242686635159     0.038696403133703    85.4807858627903     0.997697032517427    -2.21590165506416    0.997697032517427    -2.21590165506416    0.038696403133703    85.4807858627903     
226.993122277038     0.039169750643082    85.4729646271684     0.997672778312697    -2.24305140927475    0.997672778312697    -2.24305140927475    0.039169750643082    85.4729646271684     
229.777293227452     0.039648883346646    85.4646293640441     0.997648035013222    -2.2705333251474     0.997648035013222    -2.2705333251474     0.039648883346646    85.4646293640441     
232.595613264866     0.040133871376787    85.4557778992396     0.997622791253841    -2.29835145002845    0.997622791253841    -2.29835145002845    0.040133871376787    85.4557778992396     
235.448501242922     0.040624785698163    85.4464079893595     0.997597035394891    -2.32650987999654    0.997597035394891    -2.32650987999654    0.040624785698163    85.4464079893595     
238.336381152688     0.041121698116885    85.436517321451      0.997570755515582    -2.35501276042821    0.997570755515582    -2.35501276042821    0.041121698116885    85.436517321451      
241.259682185669     0.041624681289782    85.4261035126557     0.997543939407155    -2.3838642865691     0.997543939407155    -2.3838642865691     0.041624681289782    85.4261035126557     
244.218838797593     0.042133808733742    85.4151641098532     0.997516574565905    -2.41306870411115    0.997516574565905    -2.41306870411115    0.042133808733742    85.4151641098532     
247.214290772979     0.042649154835122    85.4036965892968     0.997488648186033    -2.44263030977548    0.997488648186033    -2.44263030977548    0.042649154835122    85.4036965892968     
250.2464832905       0.043170794859239    85.3916983562405     0.997460147152317    -2.47255345190117    0.997460147152317    -2.47255345190117    0.043170794859239    85.3916983562405     
253.31586698914      0.043698804959933    85.3791667445586     0.997431058032649    -2.50284253104003    0.997431058032649    -2.50284253104003    0.043698804959933    85.3791667445586     
256.42289803517      0.044233262189201    85.3660990163561     0.997401367070322    -2.53350200055709    0.997401367070322    -2.53350200055709    0.044233262189201    85.3660990163561     
259.568038189941     0.044774244506904    85.352492361572      0.997371060176186    -2.5645363672371     0.997371060176186    -2.5645363672371     0.044774244506904    85.352492361572      
262.751754878512     0.045321830790545    85.3383438975733     0.99734012292062     -2.59595019189708    0.99734012292062     -2.59595019189708    0.045321830790545    85.3383438975733     
265.974521259117     0.045876100845123    85.3236506687418     0.997308540525281    -2.62774809000471    0.997308540525281    -2.62774809000471    0.045876100845123    85.3236506687418     
269.236816293484     0.046437135413047    85.308409646052      0.997276297854642    -2.65993473230264    0.997276297854642    -2.65993473230264    0.046437135413047    85.308409646052      
272.539124818018     0.047005016184127    85.292617726641      0.997243379407416    -2.69251484543906    0.997243379407416    -2.69251484543906    0.047005016184127    85.292617726641      
275.881937615858     0.047579825805633    85.2762717333705     0.997209769307668    -2.72549321260401    0.997209769307668    -2.72549321260401    0.047579825805633    85.2762717333705     
279.265751489815     0.04816164789241     85.2593684143802     0.997175451295803    -2.75887467417193    0.997175451295803    -2.75887467417193    0.04816164789241     85.2593684143802     
282.691069336205     0.048750567037073    85.2419044426333     0.997140408719245    -2.79266412834995    0.997140408719245    -2.79266412834995    0.048750567037073    85.2419044426333     
286.15840021959      0.049346668820255    85.2238764154537     0.997104624523021    -2.8268665318327     0.997104624523021    -2.8268665318327     0.049346668820255    85.2238764154537     
289.668259448434     0.049950039820922    85.2052808540552     0.997068081239994    -2.8614869004626     0.997068081239994    -2.8614869004626     0.049950039820922    85.2052808540552     
293.221168651687     0.050560767626748    85.1861142030623     0.997030760980939    -2.89653030989661    0.997030760980939    -2.89653030989661    0.050560767626748    85.1861142030623     
296.817655856308     0.051178940844551    85.1663728300232     0.996992645424384    -2.93200189627893    0.996992645424384    -2.93200189627893    0.051178940844551    85.1663728300232     
300.45825556574      0.051804649110784    85.1460530249147     0.996953715806186    -2.96790685691965    0.996953715806186    -2.96790685691965    0.051804649110784    85.1460530249147     
304.143508839349     0.052437983102084    85.1251509996386     0.996913952908838    -3.00425045097944    0.996913952908838    -3.00425045097944    0.052437983102084    85.1251509996386     
307.873963372829     0.053079034545871    85.1036628875108     0.996873337050593    -3.04103800016047    0.996873337050593    -3.04103800016047    0.053079034545871    85.1036628875108     
311.650173579609     0.053727896231008    85.0815847427415     0.996831848074289    -3.07827488940309    0.996831848074289    -3.07827488940309    0.053727896231008    85.0815847427415     
315.472700673239     0.0543846620185      85.0589125399082     0.996789465335879    -3.11596656758875    0.996789465335879    -3.11596656758875    0.0543846620185      85.0589125399082     
319.342112750804     0.055049426852244    85.0356421734205     0.99674616769276     -3.15411854824857    0.99674616769276     -3.15411854824857    0.055049426852244    85.0356421734205     
323.258984877349     0.055722286769828    85.0117694569767     0.996701933491801    -3.19273641027846    0.996701933491801    -3.19273641027846    0.055722286769828    85.0117694569767     
327.223899171348     0.056403338913365    84.9872901230131     0.996656740557028    -3.23182579865936    0.996656740557028    -3.23182579865936    0.056403338913365    84.9872901230131     
331.237444891213     0.057092681540375    84.9621998221449     0.996610566177146    -3.27139242518425    0.996610566177146    -3.27139242518425    0.057092681540375    84.9621998221449     
335.300218522873     0.057790414034694    84.9364941226001     0.996563387092651    -3.31144206919037    0.996563387092651    -3.31144206919037    0.057790414034694    84.9364941226001     
339.412823868419     0.058496636917426    84.9101685096446     0.9965151794827      -3.35198057829762    0.9965151794827      -3.35198057829762    0.058496636917426    84.9101685096446     
343.575872135841     0.059211451857916    84.8832183850009     0.996465918951666    -3.39301386915268    0.996465918951666    -3.39301386915268    0.059211451857916    84.8832183850009     
347.789982029868     0.059934961684763    84.8556390662583     0.996415580515379    -3.43454792817886    0.996415580515379    -3.43454792817886    0.059934961684763    84.8556390662583     
352.055779843912     0.060667270396838    84.8274257862758     0.996364138587012    -3.47658881233171    0.996364138587012    -3.47658881233171    0.060667270396838    84.8274257862758     
356.373899553152     0.061408483174344    84.7985736925781     0.996311566962744    -3.51914264986015    0.996311566962744    -3.51914264986015    0.061408483174344    84.7985736925781     
360.744982908755     0.062158706389872    84.7690778467435     0.996257838806914    -3.56221564107331    0.996257838806914    -3.56221564107331    0.062158706389872    84.7690778467435     
365.169679533246     0.062918047619477    84.7389332237848     0.996202926637018    -3.60581405911279    0.996202926637018    -3.60581405911279    0.062918047619477    84.7389332237848     
369.648647017061     0.06368661565377     84.7081347115233     0.996146802308224    -3.64994425073051    0.996146802308224    -3.64994425073051    0.06368661565377     84.7081347115233     
374.182551016268     0.064464520508997    84.6766771099553     0.996089436997616    -3.69461263707175    0.996089436997616    -3.69461263707175    0.064464520508997    84.6766771099553     
378.772065351507     0.065251873438126    84.6445551306115     0.996030801188004    -3.73982571446357    0.996030801188004    -3.73982571446357    0.065251873438126    84.6445551306115     
383.417872108122     0.066048786941927    84.6117633959105     0.995970864651396    -3.78559005520831    0.995970864651396    -3.78559005520831    0.066048786941927    84.6117633959105     
388.120661737536     0.066855374780039    84.5782964385042     0.995909596432126    -3.83191230838248    0.995909596432126    -3.83191230838248    0.066855374780039    84.5782964385042     
392.881133159865     0.067671751982017    84.5441487006172     0.995846964829515    -3.8787992006403     0.995846964829515    -3.8787992006403     0.067671751982017    84.5441487006172     
397.699993867786     0.068498034858361    84.5093145333799     0.99578293738018     -3.92625753702216    0.99578293738018     -3.92625753702216    0.068498034858361    84.5093145333799     
402.57796003169      0.069334341011515    84.4737881961549     0.995717480839982    -3.9742942017682     0.995717480839982    -3.9742942017682     0.069334341011515    84.4737881961549     
407.515756606112     0.070180789346828    84.437563855857      0.995650561165456    -4.02291615913606    0.995650561165456    -4.02291615913606    0.070180789346828    84.437563855857      
412.514117437476     0.071037500083476    84.4006355862673     0.9955821434949      -4.07213045422346    0.9955821434949      -4.07213045422346    0.071037500083476    84.4006355862673     
417.573785373155     0.071904594765335    84.3629973673417     0.995512192129017    -4.12194421379478    0.995512192129017    -4.12194421379478    0.071904594765335    84.3629973673417     
422.695512371875     0.072782196271805    84.324643084513      0.995440670511125    -4.17236464711251    0.995440670511125    -4.17236464711251    0.072782196271805    84.324643084513      
427.880059615468     0.073670428828559    84.2855665279873     0.995367541206876    -4.22339904677203    0.995367541206876    -4.22339904677203    0.073670428828559    84.2855665279873     
433.128197621996     0.074569418018232    84.2457613920363     0.995292765883565    -4.27505478954054    0.995292765883565    -4.27505478954054    0.074569418018232    84.2457613920363     
438.440706360267     0.075479290791029    84.2052212742826     0.995216305288941    -4.32733933719985    0.995216305288941    -4.32733933719985    0.075479290791029    84.2052212742826     
443.818375365749     0.076400175475247    84.163939674981      0.995138119229598    -4.38026023739262    0.995138119229598    -4.38026023739262    0.076400175475247    84.163939674981      
449.262003857915     0.0773322017877      84.121909996295      0.995058166548785    -4.43382512447169    0.995058166548785    -4.43382512447169    0.0773322017877      84.121909996295      
454.772400859016     0.078275500844039    84.0791255415683     0.994976405103817    -4.48804172035276    0.994976405103817    -4.48804172035276    0.078275500844039    84.0791255415683     
460.350385314316     0.079230205168964    84.0355795145926     0.994892791742908    -4.5429178353698     0.994892791742908    -4.5429178353698     0.079230205168964    84.0355795145926     
465.996786213809     0.080196448706306    83.99126501887       0.994807282281537    -4.59846136913331    0.994807282281537    -4.59846136913331    0.080196448706306    83.99126501887       
471.712442715415     0.081174366828983    83.9461750568732     0.994719831478296    -4.6546803113908     0.994719831478296    -4.6546803113908     0.081174366828983    83.9461750568732     
477.498204269696     0.082164096348797    83.9003025293011     0.99463039301012     -4.71158274288933    0.99463039301012     -4.71158274288933    0.082164096348797    83.9003025293011     
483.354930746104     0.0831657755261      83.8536402343313     0.994538919447107    -4.76917683624047    0.994538919447107    -4.76917683624047    0.0831657755261      83.8536402343313     
489.283492560765     0.08417954407926     83.8061808668698     0.994445362226631    -4.82747085678585    0.994445362226631    -4.82747085678585    0.08417954407926     83.8061808668698     
495.284770805847     0.085205543193988    83.7579170177975     0.994349671627047    -4.88647316346531    0.994349671627047    -4.88647316346531    0.085205543193988    83.7579170177975     
501.359657380502     0.086243915532431    83.7088411732154     0.994251796740649    -4.94619220968469    0.994251796740649    -4.94619220968469    0.086243915532431    83.7088411732154     
507.509055123419     0.087294805242102    83.6589457136865     0.994151685446232    -5.00663654418546    0.994151685446232    -5.00663654418546    0.087294805242102    83.6589457136865     
513.733877947002     0.088358357964558    83.6082229134768     0.994049284380858    -5.06781481191397    0.994049284380858    -5.06781481191397    0.088358357964558    83.6082229134768     
520.035050973194     0.089434720843867    83.5566649397953     0.993944538911179    -5.12973575489051    0.993944538911179    -5.12973575489051    0.089434720843867    83.5566649397953     
526.41351067097      0.090524042534824    83.5042638520317     0.993837393104049    -5.19240821307884    0.993837393104049    -5.19240821307884    0.090524042534824    83.5042638520317     
532.870204995509     0.0916264732109      83.4510116009956     0.993727789696515    -5.25584112525393    0.993727789696515    -5.25584112525393    0.0916264732109      83.4510116009956     
539.406093529077     0.092742164571922    83.396900028154      0.99361567006519     -5.3200435298689     0.99361567006519     -5.3200435298689     0.092742164571922    83.396900028154      
546.022147623644     0.093871269851456    83.3419208648696     0.993500974194976    -5.38502456592075    0.993500974194976    -5.38502456592075    0.093871269851456    83.3419208648696     
552.71935054524      0.095013943823882    83.2860657316405     0.993383640647092    -5.45079347381299    0.993383640647092    -5.45079347381299    0.095013943823882    83.2860657316405     
559.498697620089     0.096170342811135    83.2293261373405     0.993263606526453    -5.51735959621653    0.993263606526453    -5.51735959621653    0.096170342811135    83.2293261373405     
566.361196382526     0.097340624689111    83.1716934784614     0.993140807448344    -5.58473237892745    0.993140807448344    -5.58473237892745    0.097340624689111    83.1716934784614     
573.307866724745     0.098524948893701    83.1131590383578     0.993015177504417    -5.65292137172065    0.993015177504417    -5.65292137172065    0.098524948893701    83.1131590383578     
580.339741048366     0.099723476426446    83.0537139864946     0.992886649227981    -5.7219362292002     0.992886649227981    -5.7219362292002     0.099723476426446    83.0537139864946     
587.457864417873     0.100936369859784    82.9933493776975     0.992755153558506    -5.79178671164452    0.992755153558506    -5.79178671164452    0.100936369859784    82.9933493776975     
594.663294715924     0.102163793341868    82.9320561514087     0.992620619805522    -5.86248268584617    0.992620619805522    -5.86248268584617    0.102163793341868    82.9320561514087     
601.957102800578     0.103405912600954    82.8698251309457     0.992482975611646    -5.93403412594674    0.992482975611646    -5.93403412594674    0.103405912600954    82.8698251309457     
609.340372664442     0.104662894949302    82.8066470227668     0.992342146914911    -6.00645111426437    0.992342146914911    -6.00645111426437    0.104662894949302    82.8066470227668     
616.814201595769     0.105934909286592    82.742512415741      0.992198057910359    -6.07974384211459    0.992198057910359    -6.07974384211459    0.105934909286592    82.742512415741      
624.37970034154      0.107222126102823    82.6774117804257     0.99205063101081     -6.15392261062318    0.99205063101081     -6.15392261062318    0.107222126102823    82.6774117804257     
632.037993272535     0.108524717480674    82.6113354683514     0.991899786806852    -6.2289978315313     0.991899786806852    -6.2289978315313     0.108524717480674    82.6113354683514     
639.790218550442     0.10984285709729     82.5442737113141     0.991745444026039    -6.3049800279902     0.991745444026039    -6.3049800279902     0.10984285709729     82.5442737113141     
647.637528297002     0.111176720225485    82.4762166206767     0.991587519491283    -6.38187983534718    0.991587519491283    -6.38187983534718    0.111176720225485    82.4762166206767     
655.581088765242     0.112526483734312    82.4071541866798     0.991425928078437    -6.45970800191999    0.991425928078437    -6.45970800191999    0.112526483734312    82.4071541866798     
663.622080512794     0.113892326088991    82.3370762777636     0.991260582673008    -6.53847538976046    0.991260582673008    -6.53847538976046    0.113892326088991    82.3370762777636     
671.761698577351     0.115274427350157    82.2659726399005     0.991091394126068    -6.61819297540445    0.991091394126068    -6.61819297540445    0.115274427350157    82.2659726399005     
680.001152654276     0.116672969172392    82.1938328959398     0.990918271209269    -6.69887185061012    0.990918271209269    -6.69887185061012    0.116672969172392    82.1938328959398     
688.341667276377     0.118088134802021    82.1206465449659     0.990741120569073    -6.78052322308072    0.990741120569073    -6.78052322308072    0.118088134802021    82.1206465449659     
696.784481995895     0.119520109074143    82.0464029616698     0.990559846680043    -6.86315841717315    0.990559846680043    -6.86315841717315    0.119520109074143    82.0464029616698     
705.330851568732     0.120969078408825    81.9710913957375     0.990374351797238    -6.94678887458929    0.990374351797238    -6.94678887458929    0.120969078408825    81.9710913957375     
713.982046140924     0.12243523080649     81.894700971252      0.990184535907803    -7.0314261550515     0.990184535907803    -7.0314261550515     0.12243523080649     81.894700971252      
722.739351437409     0.123918755842403    81.8172206861137     0.989990296681583    -7.11708193695902    0.989990296681583    -7.11708193695902    0.123918755842403    81.8172206861137     
731.60406895311      0.125419844660251    81.73863941148       0.989791529420873    -7.20376801802495    0.989791529420873    -7.20376801802495    0.125419844660251    81.73863941148       
740.577516146357     0.126938689964765    81.658945891222      0.989588127009238    -7.29149631589353    0.989588127009238    -7.29149631589353    0.126938689964765    81.658945891222      
749.661026634695     0.128475486013352    81.5781287414044     0.989379979859367    -7.38027886873505    0.989379979859367    -7.38027886873505    0.128475486013352    81.5781287414044     
758.855950393073     0.130030428606697    81.4961764497848     0.989166975860118    -7.47012783581838    0.989166975860118    -7.47012783581838    0.130030428606697    81.4961764497848     
768.16365395448      0.131603715078287    81.4130773753375     0.988949000322482    -7.56105549805927    0.988949000322482    -7.56105549805927    0.131603715078287    81.4130773753375     
777.585520613035     0.133195544282811    81.3288197478017     0.988725935924702    -7.65307425854292    0.988725935924702    -7.65307425854292    0.133195544282811    81.3288197478017     
787.122950629575     0.134806116583409    81.2433916672546     0.98849766265642     -7.74619664302048    0.98849766265642     -7.74619664302048    0.134806116583409    81.2433916672546     
796.777361439748     0.136435633837702    81.1567811037124     0.988264057761846    -7.84043530037636    0.988264057761846    -7.84043530037636    0.136435633837702    81.1567811037124     
806.550187864684     0.138084299382576    81.0689758967595     0.988024995681999    -7.9358030030671     0.988024995681999    -7.9358030030671     0.138084299382576    81.0689758967595     
816.442882324222     0.139752318017652    80.9799637552081     0.987780347995995    -8.03231264752818    0.987780347995995    -8.03231264752818    0.139752318017652    80.9799637552081     
826.456915052777     0.141439895987417    80.8897322567888     0.987529983361344    -8.12997725454892    0.987529983361344    -8.12997725454892    0.141439895987417    80.8897322567888     
836.593774317834     0.143147240961922    80.7982688478756     0.987273767453284    -8.22880996961225    0.987273767453284    -8.22880996961225    0.143147240961922    80.7982688478756     
846.85496664114      0.144874562016063    80.7055608432442     0.987011562903204    -8.32882406319976    0.987011562903204    -8.32882406319976    0.144874562016063    80.7055608432442     
857.242017022596     0.146622069607309    80.6115954258683     0.986743229236032    -8.43003293105823    0.986743229236032    -8.43003293105823    0.146622069607309    80.6115954258683     
867.756469166901     0.148389975551892    80.5163596467539     0.986468622806678    -8.53245009442697    0.986468622806678    -8.53245009442697    0.148389975551892    80.5163596467539     
878.399885712972     0.15017849299935     80.4198404248125     0.986187596735571    -8.63608920022471    0.986187596735571    -8.63608920022471    0.15017849299935     80.4198404248125     
889.173848466185     0.151987836405404    80.3220245467786     0.985900000843175    -8.74096402119252    0.985900000843175    -8.74096402119252    0.151987836405404    80.3220245467786     
900.079958633461     0.153818221503078    80.2228986671687     0.985605681583563    -8.84708845599251    0.985605681583563    -8.84708845599251    0.153818221503078    80.2228986671687     
911.119837061222     0.155669865272015    80.1224493082882     0.985304481977072    -8.95447652925937    0.985304481977072    -8.95447652925937    0.155669865272015    80.1224493082882     
922.295124476297     0.157542985905927    80.0206628602854     0.98499624154199     -9.06314239160273    0.98499624154199     -9.06314239160273    0.157542985905927    80.0206628602854     
933.607481729751     0.159437802778112    79.9175255812547     0.98468079622536     -9.17310031955931    0.98468079622536     -9.17310031955931    0.159437802778112    79.9175255812547     
945.058590043723     0.161354536404951    79.8130235973941     0.984357978332772    -9.28436471549067    0.984357978332772    -9.28436471549067    0.161354536404951    79.8130235973941     
956.650151261278     0.163293408407368    79.7071429032151     0.984027616457374    -9.3969501074266     0.984027616457374    -9.3969501074266     0.163293408407368    79.7071429032151     
968.383888099346     0.16525464147011     79.5998693618106     0.983689535407859    -9.51087114885       0.983689535407859    -9.51087114885       0.16525464147011     79.5998693618106     
980.26154440474      0.16723845929885     79.4911887051814     0.983343556135692    -9.62614261842237    0.983343556135692    -9.62614261842237    0.16723845929885     79.4911887051814     
992.28488541332      0.16924508657498     79.3810865346242     0.982989495661364    -9.7427794196463     0.982989495661364    -9.7427794196463     0.16924508657498     79.3810865346242     
1004.45569801235     0.171274748908055    79.2695483211837     0.982627166999913    -9.860796580463      0.982627166999913    -9.860796580463      0.171274748908055    79.2695483211837     
1016.77579100605     0.173327672785805    79.1565594061713     0.982256379085551    -9.98020925278278    0.982256379085551    -9.98020925278278    0.173327672785805    79.1565594061713     
1029.24699538442     0.175404085521618    79.0421050017526     0.981876936695516    -10.1010327119449    0.981876936695516    -10.1010327119449    0.175404085521618    79.0421050017526     
1041.87116459538     0.177504215199437    78.9261701916079     0.981488640373137    -10.2232823561043    0.981488640373137    -10.2232823561043    0.177504215199437    78.9261701916079     
1054.65017482019     0.179628290615978    78.8087399316651     0.981091286350226    -10.346973705544     0.981091286350226    -10.346973705544     0.179628290615978    78.8087399316651     
1067.58592525231     0.181776541220205    78.6897990509124     0.980684666468686    -10.4721224019077    0.980684666468686    -10.4721224019077    0.181776541220205    78.6897990509124     
1080.68033837964     0.183949197049919    78.5693322522899     0.980268568101441    -10.5987442073512    0.980268568101441    -10.5987442073512    0.183949197049919    78.5693322522899     
1093.93536027025     0.186146488665463    78.4473241136653     0.979842774072789    -10.7268550036103    0.979842774072789    -10.7268550036103    0.186146488665463    78.4473241136653     
1107.35296086159     0.188368647080398    78.3237590888948     0.979407062578108    -10.8564707909815    0.979407062578108    -10.8564707909815    0.188368647080398    78.3237590888948     
1120.93513425327     0.190615903689044    78.1986215089747     0.978961207103008    -10.9876076872102    0.978961207103008    -10.9876076872102    0.190615903689044    78.1986215089747     
1134.6838990034      0.192888490190862    78.0718955832854     0.978504976341974    -11.1202819262878    0.978504976341974    -11.1202819262878    0.192888490190862    78.0718955832854     
1148.60129842862     0.195186638511523    77.94356540093       0.978038134116539    -11.2545098571502    0.978038134116539    -11.2545098571502    0.195186638511523    77.94356540093       
1162.68940090773     0.197510580720609    77.8136149321739     0.977560439293093    -11.3903079422776    0.977560439293093    -11.3903079422776    0.197510580720609    77.8136149321739     
1176.95030018912     0.199860548945828    77.6820280299861     0.977071645700239    -11.5276927561879    0.977071645700239    -11.5276927561879    0.199860548945828    77.6820280299861     
1191.38611570193     0.202236775283662    77.5487884316861     0.976571502045957    -11.6666809838269    0.976571502045957    -11.6666809838269    0.202236775283662    77.5487884316861     
1205.99899287102     0.20463949170635     77.4138797607009     0.976059751834478    -11.8072894188445    0.976059751834478    -11.8072894188445    0.20463949170635     77.4138797607009     
1220.79110343586     0.207068929965091    77.2772855284353     0.975536133282975    -11.9495349617582    0.975536133282975    -11.9495349617582    0.207068929965091    77.2772855284353     
1235.76464577324     0.209525321489412    77.1389891362588     0.975000379238254    -12.0934346179986    0.975000379238254    -12.0934346179986    0.209525321489412    77.1389891362588     
1250.92184522402     0.212008897282528    76.9989738776126     0.97445221709329     -12.2390054958331    0.97445221709329     -12.2390054958331    0.212008897282528    76.9989738776126     
1266.26495442387     0.214519887812688    76.8572229402419     0.973891368703962    -12.3862648041643    0.973891368703962    -12.3862648041643    0.214519887812688    76.8572229402419     
1281.79625363799     0.21705852290032     76.7137194085551     0.973317550305846    -12.5352298501983    0.973317550305846    -12.5352298501983    0.21705852290032     76.7137194085551     
1297.51805110009     0.219625031600921    76.5684462661167     0.972730472431255    -12.6859180369814    0.972730472431255    -12.6859180369814    0.219625031600921    76.5684462661167     
1313.43268335534     0.2222196420836      76.4213863982738     0.972129839826702    -12.8383468607981    0.972129839826702    -12.8383468607981    0.2222196420836      76.4213863982738     
1329.54251560769     0.224842581505113    76.2725225949256     0.971515351370647    -12.9925339084284    0.971515351370647    -12.9925339084284    0.224842581505113    76.2725225949256     
1345.84994207137     0.227494075879374    76.1218375534352     0.970886699991917    -13.1484968542598    0.970886699991917    -13.1484968542598    0.227494075879374    76.1218375534352     
1362.3573863267      0.230174349942271    75.969313881689      0.970243572588703    -13.30625345725      0.970243572588703    -13.30625345725      0.230174349942271    75.969313881689      
1379.06730168027     0.232883627011707    75.8149341013109     0.969585649948332    -13.4658215577357    0.969585649948332    -13.4658215577357    0.232883627011707    75.8149341013109     
1395.98217152958     0.23562212884279     75.6586806510306     0.968912606667966    -13.6272190740835    0.968912606667966    -13.6272190740835    0.23562212884279     75.6586806510306     
1413.10450973207     0.238390075478038    75.5005358902144     0.968224111076251    -13.790463999179     0.968224111076251    -13.790463999179     0.238390075478038    75.5005358902144     
1430.43686097879     0.241187685092527    75.3404821025602     0.967519825156173    -13.9555743967488    0.967519825156173    -13.9555743967488    0.241187685092527    75.3404821025602     
1447.98180117251     0.244015173833867    75.1785014999624     0.966799404469194    -14.1225683975131    0.966799404469194    -14.1225683975131    0.244015173833867    75.1785014999624     
1465.74193781063     0.246872755656928    75.0145762265498     0.966062498080805    -14.2914641951618    0.966062498080805    -14.2914641951618    0.246872755656928    75.0145762265498     
1483.71991037261     0.249760642153202    74.8486883629029     0.965308748487669    -14.4622800421515    0.965308748487669    -14.4622800421515    0.249760642153202    74.8486883629029     
1501.91839071232     0.252679042374738    74.6808199304517     0.964537791546559    -14.6350342453197    0.964537791546559    -14.6350342453197    0.252679042374738    74.6808199304517     
1520.34008345511     0.255628162652529    74.5109528960622     0.963749256405131    -14.8097451613093    0.963749256405131    -14.8097451613093    0.255628162652529    74.5109528960622     
1538.98772639972     0.258608206409306    74.3390691768117     0.962942765434918    -14.9864311918024    0.962942765434918    -14.9864311918024    0.258608206409306    74.3390691768117     
1557.86409092523     0.261619373966604    74.1651506449621     0.962117934166437    -15.1651107785548    0.962117934166437    -15.1651107785548    0.261619373966604    74.1651506449621     
1576.97198240289     0.264661862346085    73.9891791331301     0.961274371226894    -15.345802398232     0.961274371226894    -15.345802398232     0.264661862346085    73.9891791331301     
1596.3142406131      0.267735865064977    73.8111364396632     0.960411678280484    -15.5285245570378    0.960411678280484    -15.5285245570378    0.267735865064977    73.8111364396632     
1615.89374016737     0.270841571925621    73.6310043342237     0.959529449971513    -15.7132957851334    0.959529449971513    -15.7132957851334    0.270841571925621    73.6310043342237     
1635.71339093563     0.273979168799015    73.4487645635836     0.958627273870702    -15.9001346308436    0.958627273870702    -15.9001346308436    0.273979168799015    73.4487645635836     
1655.77613847865     0.277148837402313    73.2643988576371     0.957704730424642    -16.0890596546435    0.957704730424642    -16.0890596546435    0.277148837402313    73.2643988576371     
1676.08496448578     0.280350755070233    73.0778889356338     0.95676139290887     -16.280089422924     0.95676139290887     -16.280089422924     0.280350755070233    73.0778889356338     
1696.64288721813     0.283585094520307    72.889216512635      0.955796827384632    -16.4732425015305    0.955796827384632    -16.4732425015305    0.283585094520307    72.889216512635      
1717.45296195711     0.286852023611961    72.6983633061986     0.954810592659666    -16.6685374490723    0.954810592659666    -16.6685374490723    0.286852023611961    72.6983633061986     
1738.51828145849     0.290151705099337    72.5053110432975     0.953802240253152    -16.8659928099965    0.953802240253152    -16.8659928099965    0.290151705099337    72.5053110432975     
1759.84197641209     0.293484296377916    72.3100414674707     0.952771314365273    -17.0656271074265    0.952771314365273    -17.0656271074265    0.293484296377916    72.3100414674707     
1781.42721590698     0.296849949224831    72.1125363462162     0.951717351851387    -17.267458835758     0.951717351851387    -17.267458835758     0.296849949224831    72.1125363462162     
1803.27720790256     0.30024880953293     71.912777478624      0.950639882201337    -17.4715064530109    0.950639882201337    -17.4715064530109    0.30024880953293     71.912777478624      
1825.39519970523     0.303681017038578    71.7107467032559     0.949538427524008    -17.6777883729341    0.949538427524008    -17.6777883729341    0.303681017038578    71.7107467032559     
1847.78447845104     0.307146705043161    71.5064259062733     0.948412502537466    -17.8863229568582    0.948412502537466    -17.8863229568582    0.307146705043161    71.5064259062733     
1870.44837159424     0.310646000128398    71.2997970298156     0.94726161456502     -18.0971285052974    0.94726161456502     -18.0971285052974    0.310646000128398    71.2997970298156     
1893.39024740176     0.314179021865412    71.0908420806332     0.946085263537401    -18.3102232492922    0.946085263537401    -18.3102232492922    0.314179021865412    71.0908420806332     
1916.61351545381     0.317745882517674    70.8795431389748     0.944882942001506    -18.5256253414966    0.944882942001506    -18.5256253414966    0.317745882517674    70.8795431389748     
1940.12162715062     0.32134668673783     70.6658823677348     0.943654135135854    -18.7433528470028    0.943654135135854    -18.7433528470028    0.32134668673783     70.6658823677348     
1963.91807622537     0.324981531258519    70.4498420218576     0.942398320773216    -18.9634237339051    0.942398320773216    -18.9634237339051    0.324981531258519    70.4498420218576     
1988.00639926339     0.328650504577244    70.2314044580052     0.941114969430701    -19.185855863599     0.941114969430701    -19.185855863599     0.328650504577244    70.2314044580052     
2012.39017622783     0.332353686635418    70.010552144485      0.939803544347513    -19.4106669808162    0.939803544347513    -19.4106669808162    0.332353686635418    70.010552144485      
2037.07303099165     0.336091148491692    69.7872676714419     0.938463501530957    -19.6378747033936    0.938463501530957    -19.6378747033936    0.336091148491692    69.7872676714419     
2062.05863187623     0.339862951989712    69.5615337613121     0.937094289810766    -19.8674965117763    0.937094289810766    -19.8674965117763    0.339862951989712    69.5615337613121     
2087.3506921965      0.343669149420451    69.3333332795399     0.935695350902306    -20.0995497382543    0.935695350902306    -20.0995497382543    0.343669149420451    69.3333332795399     
2112.95297081288     0.347509783179257    69.1026492455589     0.934266119478835    -20.334051555933     0.934266119478835    -20.334051555933     0.347509783179257    69.1026492455589     
2138.86927268985     0.351384885417902    68.8694648440316     0.932806023253341    -20.5710189674402    0.932806023253341    -20.5710189674402    0.351384885417902    68.8694648440316     
2165.10344946146     0.355294477691693    68.6337634363529     0.93131448307011     -20.8104687933664    0.93131448307011     -20.8104687933664    0.355294477691693    68.6337634363529     
2191.65940000376     0.359238570602035    68.3955285724079     0.929790913006596    -21.0524176604469    0.929790913006596    -21.0524176604469    0.359238570602035    68.3955285724079     
2218.54107101423     0.363217163434581    68.1547440025881     0.928234720485748    -21.2968819894818    0.928234720485748    -21.2968819894818    0.363217163434581    68.1547440025881     
2245.75245759835     0.367230243793283    67.91139369006       0.926645306399263    -21.5438779829992    0.926645306399263    -21.5438779829992    0.367230243793283    67.91139369006       
2273.29760386333     0.371277787230648    67.6654618232819     0.925022065242105    -21.7934216126659    0.925022065242105    -21.7934216126659    0.371277787230648    67.6654618232819     
2301.18060351913     0.375359756874524    67.4169328287662     0.923364385258621    -22.0455286064492    0.923364385258621    -22.0455286064492    0.375359756874524    67.4169328287662     
2329.4056004869      0.379476103051708    67.1657913840826     0.921671648600575    -22.3002144355319    0.921671648600575    -22.3002144355319    0.379476103051708    67.1657913840826     
2357.97678951478     0.383626762908811    66.912022431095      0.919943231497474    -22.5574943009894    0.919943231497474    -22.5574943009894    0.383626762908811    66.912022431095      
2386.89841680137     0.387811660030739    66.6556111894265     0.918178504439604    -22.8173831202341    0.918178504439604    -22.8173831202341    0.387811660030739    66.6556111894265     
2416.17478062677     0.392030704057207    66.3965431701475     0.9163768323739      -23.0798955132312    0.9163768323739      -23.0798955132312    0.392030704057207    66.3965431701475     
2445.81023199138     0.396283790297718    66.1348041896765     0.914537574913177    -23.3450457884958    0.914537574913177    -23.3450457884958    0.396283790297718    66.1348041896765     
2475.80917526255     0.400570799345544    65.8703803838869     0.912660086558957    -23.6128479288794    0.912660086558957    -23.6128479288794    0.400570799345544    65.8703803838869     
2506.17606882913     0.404891596691091    65.6032582224105     0.910743716938135    -23.883315577153     0.910743716938135    -23.883315577153     0.404891596691091    65.6032582224105     
2536.9154257641      0.409246032335327    65.3334245231257     0.908787811053907    -24.1564620213998    0.908787811053907    -24.1564620213998    0.409246032335327    65.3334245231257     
2568.03181449524     0.413633940403675    65.0608664668229     0.906791709551132    -24.4323001802236    0.906791709551132    -24.4323001802236    0.413633940403675    65.0608664668229     
2599.52985948415     0.418055138761044    64.7855716120332     0.904754748996379    -24.7108425877877    0.904754748996379    -24.7108425877877    0.418055138761044    64.7855716120332     
2631.41424191348     0.422509428628606    64.5075279100073     0.90267626217304     -24.9921013786972    0.90267626217304     -24.9921013786972    0.422509428628606    64.5075279100073     
2663.68970038265     0.426996594202895    64.2267237198324     0.900555578391546    -25.2760882727334    0.900555578391546    -25.2760882727334    0.426996594202895    64.2267237198324     
2696.3610316121      0.431516402277974    63.9431478236723     0.898392023815049    -25.56281455946      0.898392023815049    -25.56281455946      0.431516402277974    63.9431478236723     
2729.43309115617     0.436068601871287    63.6567894421159     0.896184921800651    -25.8522910827118    0.896184921800651    -25.8522910827118    0.436068601871287    63.6567894421159     
2762.91079412472     0.440652923854004    63.3676382496133     0.89393359325643     -26.1445282249861    0.89393359325643     -26.1445282249861    0.440652923854004    63.3676382496133     
2796.7991159136      0.445269080586492    63.0756843899917     0.891637357014258    -26.4395358917473    0.891637357014258    -26.4395358917473    0.445269080586492    63.0756843899917     
2831.10309294408     0.449916765559792    62.7809184920224     0.889295530218696    -26.7373234956696    0.889295530218696    -26.7373234956696    0.449916765559792    62.7809184920224     
2865.82782341138     0.45459565304387     62.483331685024      0.886907428731886    -27.037899940834     0.886907428731886    -27.037899940834     0.45459565304387     62.483331685024      
2900.97846804232     0.459305397743416    62.1829156144856     0.884472367554558    -27.3412736068959    0.884472367554558    -27.3412736068959    0.459305397743416    62.1829156144856     
2936.56025086233     0.464045634462106    61.8796624576799     0.88198966126314     -27.6474523332494    0.88198966126314     -27.6474523332494    0.464045634462106    61.8796624576799     
2972.57845997182     0.468815977776193    61.5735649392515     0.879458624462978    -27.9564434032085    0.879458624462978    -27.9564434032085    0.468815977776193    61.5735649392515     
3009.03844833207     0.473616021718244    61.2646163467537     0.876878572257529    -28.2682535282247    0.876878572257529    -28.2682535282247    0.473616021718244    61.2646163467537     
3045.94563456082     0.478445339472072    60.9528105461087     0.874248820733516    -28.5828888321703    0.874248820733516    -28.5828888321703    0.478445339472072    60.9528105461087     
3083.30550373753     0.483303483079635    60.6381419969705     0.87156868746179     -28.9003548357052    0.87156868746179     -28.9003548357052    0.483303483079635    60.6381419969705     
3121.1236082186      0.488189983160995    60.3206057679572     0.868837492013818    -29.2206564407601    0.868837492013818    -29.2206564407601    0.488189983160995    60.3206057679572     
3159.40556846251     0.493104348648197    60.0001975517328     0.8660545564935      -29.5437979151558    0.8660545564935      -29.5437979151558    0.493104348648197    60.0001975517328     
3198.15707386518     0.498046066534125    59.676913679905      0.863219206084021    -29.8697828773911    0.863219206084021    -29.8697828773911    0.498046066534125    59.676913679905      
3237.38388360547     0.503014601637249    59.3507511377122     0.860330769609451    -30.198614281624     0.860330769609451    -30.198614281624     0.503014601637249    59.3507511377122     
3277.0918275011      0.508009396383276    59.0217075784742     0.857388580110671    -30.5302944028739    0.857388580110671    -30.5302944028739    0.508009396383276    59.0217075784742     
3317.2868068751      0.513029870604785    58.6897813377646     0.854391975435232    -30.8648248224821    0.854391975435232    -30.8648248224821    0.513029870604785    58.6897813377646     
3357.97479543283     0.51807542135973     58.3549714472861     0.851340298840608    -31.202206413851     0.851340298840608    -31.202206413851     0.51807542135973     58.3549714472861     
3399.16184014979     0.523145422769852    58.0172776484114     0.848232899610324    -31.5424393284976    0.848232899610324    -31.5424393284976    0.523145422769852    58.0172776484114     
3440.85406217028     0.528239225880071    57.6767004053531     0.845069133682415    -31.8855229824555    0.845069133682415    -31.8855229824555    0.528239225880071    57.6767004053531     
3483.05765771717     0.533356158539744    57.333240917937      0.84184836428943     -32.2314560430527    0.84184836428943     -32.2314560430527    0.533356158539744    57.333240917937      
3525.77889901274     0.538495525306803    56.9869011339407     0.838569962609396    -32.5802364160977    0.838569962609396    -32.5802364160977    0.538495525306803    56.9869011339407     
3569.02413521083     0.543656607375808    56.6376837609608     0.835233308426944    -32.931861233514     0.835233308426944    -32.931861233514     0.543656607375808    56.6376837609608     
3612.79979334046     0.548838662530724    56.2855922777825     0.831837790803667    -33.2863268414443    0.831837790803667    -33.2863268414443    0.548838662530724    56.2855922777825     
3657.11237926102     0.554040925123503    55.9306309452052     0.828382808756978    -33.6436287888695    0.828382808756978    -33.6436287888695    0.554040925123503    55.9306309452052     
3701.96847862914     0.55926260607925     55.5728048162993     0.824867771946408    -34.0037618167683    0.824867771946408    -34.0037618167683    0.55926260607925     55.5728048162993     
3747.37475787739     0.564502892928867    55.212119746055      0.82129210136639     -34.3667198478513    0.82129210136639     -34.3667198478513    0.564502892928867    55.212119746055      
3793.33796520515     0.569760949870095    54.8485824003838     0.817655230044429    -34.7324959769096    0.817655230044429    -34.7324959769096    0.569760949870095    54.8485824003838     
3839.86493158141     0.575035917857597    54.4822002644461     0.8139566037436      -35.1010824618001    0.8139566037436      -35.1010824618001    0.575035917857597    54.4822002644461     
3886.96257176001     0.580326914722973    54.1129816502634     0.810195681668141    -35.4724707151105    0.810195681668141    -35.4724707151105    0.580326914722973    54.1129816502634     
3934.63788530731     0.58563303532533     53.7409357035816     0.806371937170932    -35.8466512965298    0.806371937170932    -35.8466512965298    0.58563303532533     53.7409357035816     
3982.89795764244     0.590953351733072    53.3660724099556     0.80248485846161     -36.2236139059571    0.80248485846161     -36.2236139059571    0.590953351733072    53.3660724099556     
4031.74996109036     0.596286913437533    52.9884026000142     0.798533949313951    -36.6033473773828    0.798533949313951    -36.6033473773828    0.596286913437533    52.9884026000142     
4081.2011559477      0.601632747598939    52.6079379538803     0.794518729771168    -36.9858396735666    0.794518729771168    -36.9858396735666    0.601632747598939    52.6079379538803     
4131.25889156189     0.606989859325174    52.2246910047107     0.790438736847669    -37.3710778815441    0.790438736847669    -37.3710778815441    0.606989859325174    52.2246910047107     
4181.93060742333     0.612357231983823    51.8386751413203     0.7862935252259      -37.7590482089932    0.7862935252259      -37.7590482089932    0.612357231983823    51.8386751413203     
4233.22383427106     0.617733827547652    51.4499046098725     0.782082667946626    -38.1497359814772    0.782082667946626    -38.1497359814772    0.617733827547652    51.4499046098725     
4285.14619521199     0.623118586973947    51.058394514593      0.77780575709129     -38.5431256406003    0.77780575709129     -38.5431256406003    0.623118586973947    51.058394514593      
4337.70540685376     0.628510430617738    50.6641608174913     0.773462404454762    -38.9392007430896    0.773462404454762    -38.9392007430896    0.628510430617738    50.6641608174913     
4390.90928045163     0.633908258679058    50.2672203370566     0.76905224220689     -39.3379439608309    0.76905224220689     -39.3379439608309    0.633908258679058    50.2672203370566     
4444.76572306936     0.639310951684178    49.8675907459087     0.76457492354137     -39.7393370818735    0.76457492354137     -39.7393370818735    0.639310951684178    49.8675907459087     
4499.28273875436     0.644717371000734    49.4652905673794     0.760030123310138    -40.1433610124239    0.760030123310138    -40.1433610124239    0.644717371000734    49.4652905673794     
4554.46842972718     0.650126359386531    49.0603391710045     0.755417538641789    -40.5499957798405    0.755417538641789    -40.5499957798405    0.650126359386531    49.0603391710045     
4610.33099758571     0.655536741571741    48.652756766907      0.7507368895423      -40.9592205366452    0.7507368895423      -40.9592205366452    0.655536741571741    48.652756766907      
4666.87874452407     0.660947324874042    48.2425643990597     0.745987919476464    -41.3710135655551    0.745987919476464    -41.3710135655551    0.660947324874042    48.2425643990597     
4724.12007456643     0.666356899846255    47.829783937408      0.741170395928384    -41.785352285548     0.741170395928384    -41.785352285548     0.666356899846255    47.829783937408      
4782.06349481606     0.671764240955824    47.4144380688449     0.736284110939438    -42.2022132589605    0.736284110939438    -42.2022132589605    0.671764240955824    47.4144380688449     
4840.71761671958     0.677168107295438    46.9965502870297     0.731328881622062    -42.6215721996187    0.731328881622062    -42.6215721996187    0.677168107295438    46.9965502870297     
4900.09115734684     0.682567243323996    46.5761448810424     0.726304550647885    -43.0434039820036    0.726304550647885    -43.0434039820036    0.682567243323996    46.5761448810424     
4960.19294068639     0.687960379636928    46.1532469228745     0.721210986708565    -43.4676826514356    0.721210986708565    -43.4676826514356    0.687960379636928    46.1532469228745     
5021.03189895691     0.693346233764928    45.7278822537495     0.716048084947939    -43.894381435278     0.716048084947939    -43.894381435278     0.693346233764928    45.7278822537495     
5082.61707393465     0.698723510999878    45.3000774692847     0.710815767363978    -44.3234727551353    0.710815767363978    -44.3234727551353    0.698723510999878    45.3000774692847     
5144.95761829728     0.704090905246773    44.8698599034912     0.70551398317918     -44.7549282400348    0.70551398317918     -44.7549282400348    0.704090905246773    44.8698599034912     
5208.0627969841      0.709447099900292    44.4372576116292     0.700142709178102    -45.1887187405649    0.700142709178102    -45.1887187405649    0.709447099900292    44.4372576116292     
5271.94198857298     0.7147907687446      44.0022993519214     0.694701950010705    -45.6248143439468    0.694701950010705    -45.6248143439468    0.7147907687446      44.0022993519214     
5336.60468667418     0.72012057687477     43.5650145661524     0.689191738460417    -46.0631843899998    0.689191738460417    -46.0631843899998    0.72012057687477     43.5650145661524     
5402.06050134131     0.725435181638303    43.1254333591602     0.683612135675776    -46.5037974879741    0.683612135675776    -46.5037974879741    0.725435181638303    43.1254333591602     
5468.31916049952     0.730733233594945    42.6835864772502     0.677963231364578    -46.9466215342015    0.677963231364578    -46.9466215342015    0.730733233594945    42.6835864772502     
5535.39051139124     0.736013377493052    42.2395052855537     0.67224514394978     -47.3916237305203    0.67224514394978     -47.3916237305203    0.736013377493052    42.2395052855537     
5603.28452203972     0.741274253260606    41.7932217443598     0.666458020686155    -47.838770603423     0.666458020686155    -47.838770603423     0.741274253260606    41.7932217443598     
5672.0112827304      0.74651449700892     41.344768384454      0.660602037737138    -48.288028023866     0.660602037737138    -48.288028023866     0.74651449700892     41.344768384454      
5741.58100751054     0.751732742047063    40.8941782814962     0.654677400211146    -48.7393612276829    0.654677400211146    -48.7393612276829    0.751732742047063    40.8941782814962     
5812.00403570716     0.756927619904839    40.4414850294809     0.648684342157046    -49.1927348365242    0.648684342157046    -49.1927348365242    0.756927619904839    40.4414850294809     
5883.29083346376     0.76209776136233     39.9867227133145     0.642623126518206    -49.6481128792582    0.642623126518206    -49.6481128792582    0.76209776136233     39.9867227133145     
5955.45199529567     0.767241797483683    39.52992588056       0.636494045045086    -50.1054588137417    0.636494045045086    -50.1054588137417    0.767241797483683    39.52992588056       
6028.49824566464     0.772358360653008    39.071129512397      0.630297418166175    -50.5647355488727    0.630297418166175    -50.5647355488727    0.772358360653008    39.071129512397      
6102.4404405727      0.77744608561017     38.6103689938403     0.62403359481724     -51.0259054668373    0.62403359481724     -51.0259054668373    0.77744608561017     38.6103689938403     
6177.28956917554     0.782503610484135    38.1476800832792     0.617702952229151    -51.4889304454343    0.617702952229151    -51.4889304454343    0.782503610484135    38.1476800832792     
6253.05675541565     0.787529577821652    37.6830988813892     0.611305895674499    -51.9537718803741    0.611305895674499    -51.9537718803741    0.787529577821652    37.6830988813892     
6329.75325967567     0.792522635608998    37.2166617994727     0.604842858173468    -52.4203907074298    0.604842858173468    -52.4203907074298    0.792522635608998    37.2166617994727     
6407.39048045174     0.797481438284476    36.748405527293      0.598314300159458    -52.8887474243088    0.598314300159458    -52.8887474243088    0.797481438284476    36.748405527293      
6485.97995604765     0.802404647739455    36.2783670004623     0.591720709105228    -53.3588021121075    0.591720709105228    -53.3588021121075    0.802404647739455    36.2783670004623     
6565.53336628954     0.807290934305676    35.8065833674495     0.585062599110303    -53.830514456198     0.585062599110303    -53.830514456198     0.807290934305676    35.8065833674495     
6646.06253426179     0.812138977726692    35.3330919562714     0.578340510450672    -54.3038437663869    0.578340510450672    -54.3038437663869    0.812138977726692    35.3330919562714     
6727.57942806414     0.816947468111178    34.8579302409422     0.571555009091824    -54.7787489961662    0.571555009091824    -54.7787489961662    0.816947468111178    34.8579302409422     
6810.09616259039     0.821715106866157    34.3811358077421     0.564706686166314    -55.2551887608789    0.564706686166314    -55.2551887608789    0.821715106866157    34.3811358077421     
6893.62500132879     0.826440607607938    33.9027463213824     0.557796157417251    -55.7331213545831    0.557796157417251    -55.7331213545831    0.826440607607938    33.9027463213824     
6978.17835818477     0.831122697048932    33.4227994911355     0.550824062609082    -56.2125047654047    0.550824062609082    -56.2125047654047    0.831122697048932    33.4227994911355     
7063.76879932575     0.835760115858345    32.9413330370032     0.543791064907308    -56.6932966891319    0.543791064907308    -56.6932966891319    0.835760115858345    32.9413330370032     
7150.40904504879     0.840351619495006    32.4583846559954     0.53669785022877     -57.1754545407941    0.53669785022877     -57.1754545407941    0.840351619495006    32.4583846559954     
7238.11197167095     0.844895979010568    31.9739919885928     0.529545126564246    -57.6589354639378    0.529545126564246    -57.6589354639378    0.844895979010568    31.9739919885928     
7326.89061344306     0.84939198182149     31.4881925854657     0.522333623275306    -58.1436963372903    0.522333623275306    -58.1436963372903    0.84939198182149     31.4881925854657     
7416.75816448677     0.853838432448272    31.0010238745238     0.515064090367287    -58.6296937784601    0.515064090367287    -58.6296937784601    0.853838432448272    31.0010238745238     
7507.72798075549     0.858234153220561    30.512523128365      0.5077372977405      -59.1168841443025    0.5077372977405      -59.1168841443025    0.858234153220561    30.512523128365      
7599.81358201929     0.862577984946832    30.0227274322002     0.500354034421726    -59.6052235275231    0.500354034421726    -59.6052235275231    0.862577984946832    30.0227274322002     
7693.02865387416     0.866868787547479    29.5316736523221     0.492915107778222    -60.0946677490508    0.492915107778222    -60.0946677490508    0.866868787547479    29.5316736523221     
7787.38704977601     0.871105440650342    29.0393984051852     0.485421342716393    -60.5851723456645    0.485421342716393    -60.5851723456645    0.871105440650342    29.0393984051852     
7882.9027930995      0.875286844147716    28.5459380271678     0.47787358086747     -61.0766925522763    0.47787358086747     -61.0766925522763    0.875286844147716    28.5459380271678     
7979.59007922219     0.879411918714089    28.0513285450856     0.470272679762506    -61.5691832782146    0.470272679762506    -61.5691832782146    0.879411918714089    28.0513285450856     
8077.46327763418     0.883479606284034    27.5556056475132     0.462619511998963    -62.0625990767636    0.462619511998963    -62.0625990767636    0.883479606284034    27.5556056475132     
8176.53693407375     0.887488870489722    27.0588046569848     0.45491496440135     -62.5568941071018    0.45491496440135     -62.5568941071018    0.887488870489722    27.0588046569848     
8276.82577268907     0.891438697057744    26.5609605031284     0.447159937178184    -63.0520220876784    0.447159937178184    -63.0520220876784    0.891438697057744    26.5609605031284     
8378.34469822653     0.895328094165032    26.0621076967967     0.439355343077761    -63.5479362399149    0.439355343077761    -63.5479362399149    0.895328094165032    26.0621076967967     
8481.10879824574     0.899156092753832    25.5622803052447     0.431502106544995    -64.0445892209584    0.431502106544995    -64.0445892209584    0.899156092753832    25.5622803052447     
8585.13334536199     0.90292174680581     25.0615119284123     0.423601162881762    -64.5419330440153    0.423601162881762    -64.5419330440153    0.90292174680581     25.0615119284123     
8690.43379951588     0.906624133575488    24.5598356763608     0.415653457413054    -65.0399189845557    0.415653457413054    -65.0399189845557    0.906624133575488    24.5598356763608     
8797.02581027106     0.910262353783443    24.0572841479036     0.407659944661215    -65.5384974704091    0.407659944661215    -65.5384974704091    0.910262353783443    24.0572841479036     
8904.92521913994     0.913835531769667    23.5538894104896     0.399621587530579    -66.0376179534192    0.399621587530579    -66.0376179534192    0.913835531769667    23.5538894104896     
9014.14806193811     0.9173428156078      23.0496829813638     0.391539356504672    -66.5372287599433    0.391539356504672    -66.5372287599433    0.9173428156078      23.0496829813638     
9124.71057116755     0.920783377180954    22.5446958100538     0.383414228858173    -67.0372769169789    0.383414228858173    -67.0372769169789    0.920783377180954    22.5446958100538     
9236.62917842901     0.924156412219992    22.0389582622134     0.37524718788574     -67.5377079501143    0.37524718788574     -67.5377079501143    0.924156412219992    22.0389582622134     
9349.92051686409     0.927461140305324    21.5325001048511     0.367039222149738    -68.0384656487936    0.367039222149738    -68.0384656487936    0.927461140305324    21.5325001048511     
9464.60142362723     0.930696804833221    21.0253504929771     0.358791324748876    -68.5394917934898    0.358791324748876    -68.5394917934898    0.930696804833221    21.0253504929771     
9580.68894238803     0.933862672947997    20.5175379576853     0.350504492609618    -69.0407258383316    0.350504492609618    -69.0407258383316    0.933862672947997    20.5175379576853     
9698.20032586417     0.936958035441276    20.0090903956971     0.342179725802304    -69.5421045413787    0.342179725802304    -69.5421045413787    0.936958035441276    20.0090903956971     
9817.15303838559     0.939982206619814    19.5000350603792     0.333818026883665    -70.0435615331242    0.333818026883665    -70.0435615331242    0.939982206619814    19.5000350603792     
9937.56475848994     0.942934524143362    18.9903985542502     0.325420400267525    -70.545026811744     0.325420400267525    -70.545026811744     0.942934524143362    18.9903985542502     
10059.45338155       0.94581434883416     18.4802068229892     0.316987851625369    -71.0464261510649    0.316987851625369    -71.0464261510649    0.94581434883416     18.4802068229892     
10182.837022433      0.948621064459731    17.9694851509439     0.308521387318308    -71.5476804040117    0.308521387318308    -71.5476804040117    0.948621064459731    17.9694851509439     
10307.7340181933     0.95135407749068     17.4582581581512     0.300022013862161    -72.0487046802103    0.300022013862161    -72.0487046802103    0.95135407749068     17.4582581581512     
10434.1629307972     0.954012816835324    16.946549798862      0.291490737427153    -72.5494073712425    0.291490737427153    -72.5494073712425    0.954012816835324    16.946549798862      
10562.1425498816     0.956596733552954    16.4343833615696     0.282928563373864    -73.0496889903871    0.282928563373864    -73.0496889903871    0.956596733552954    16.4343833615696     
10691.6918955469     0.959105300547636    15.9217814705349     0.274336495827142    -73.5494407850773    0.274336495827142    -73.5494407850773    0.959105300547636    15.9217814705349     
10822.8302211831     0.961538012244482    15.4087660887931     0.265715537289686    -74.0485430691128    0.265715537289686    -74.0485430691128    0.961538012244482    15.4087660887931     
10955.5770163318     0.9638943842503      14.8953585226358     0.257066688297387    -74.5468632069573    0.257066688297387    -74.5468632069573    0.9638943842503      14.8953585226358     
11089.9520095823     0.966173953000654    14.3815794275453     0.248390947118627    -75.0442531630191    0.248390947118627    -75.0442531630191    0.966173953000654    14.3815794275453     
11225.9751715038     0.968376275395272    13.8674488155631     0.239689309500285    -75.5405465028325    0.239689309500285    -75.5405465028325    0.968376275395272    13.8674488155631     
11363.6667176134     0.970500928423828    13.3529860640707     0.230962768463787    -76.0355546980399    0.230962768463787    -76.0355546980399    0.970500928423828    13.3529860640707     
11503.0471113804     0.972547508784074    12.8382099259585     0.222212314155511    -76.5290625393666    0.222212314155511    -76.5290625393666    0.972547508784074    12.8382099259585     
11644.1370672675     0.974515632494316    12.32313854115       0.213438933756993    -77.0208223960578    0.213438933756993    -77.0208223960578    0.974515632494316    12.32313854115       
11786.9575538096     0.976404934502203    11.8077894494554     0.204643611462489    -77.510546968611     0.204643611462489    -77.510546968611     0.976404934502203    11.8077894494554     
11931.5297967299     0.978215068291792    11.2921796047203     0.195827328533917    -77.9979000522537    0.195827328533917    -77.9979000522537    0.978215068291792    11.2921796047203     
12077.8752820944     0.979945705490789    10.7763253902312     0.186991063447197    -78.4824846433314    0.186991063447197    -78.4824846433314    0.979945705490789    10.7763253902312     
12226.0157595053     0.981596535479883    10.2602426353436     0.178135792149723    -78.9638274514357    0.178135792149723    -78.9638274514357    0.981596535479883    10.2602426353436     
12375.9732453334     0.983167265006012    9.74394663329073     0.169262488457179    -79.44135848209      0.169262488457179    -79.44135848209      0.983167265006012    9.74394663329073     
12527.7700259896     0.984657617801347    9.22745216013263     0.160372124630798    -79.9143837559977    0.160372124630798    -79.9143837559977    0.984657617801347    9.22745216013263     
12681.4286612378     0.986067334209803    8.71077349479819     0.151465672195902    -80.3820483120087    0.151465672195902    -80.3820483120087    0.986067334209803    8.71077349479819     
12836.9719875473     0.987396170822706    8.19392444017966     0.142544103093753    -80.8432852000379    0.142544103093753    -80.8432852000379    0.987396170822706    8.19392444017966     
12994.4231214869     0.988643900125306    7.67691834522902     0.133608391308657    -81.2967438554401    0.133608391308657    -81.2967438554401    0.988643900125306    7.67691834522902     
13153.8054631601     0.989810310155688    7.15976812800735     0.124659515194993    -81.7406874265572    0.124659515194993    -81.7406874265572    0.989810310155688    7.15976812800735     
13315.1426996831     0.990895204177588    6.64248629963769     0.115698460869345    -82.1728421304771    0.115698460869345    -82.1728421304771    0.990895204177588    6.64248629963769     
13478.4588087052     0.99189840036853     6.12508498911034     0.106726227280608    -82.5901702785125    0.106726227280608    -82.5901702785125    0.99189840036853     6.12508498911034     
13643.7780619721     0.992819731524658    5.60757596888645     0.097743834024016    -82.9885176906934    0.097743834024016    -82.9885176906934    0.992819731524658    5.60757596888645     
13811.1250289329     0.993659044783504    5.08997068124639     0.088752333832806    -83.362046171809     0.088752333832806    -83.362046171809     0.993659044783504    5.08997068124639     
13980.5245803922     0.994416201365904    4.57228026532648     0.079752833432042    -83.7022809377517    0.079752833432042    -83.7022809377517    0.994416201365904    4.57228026532648     
14152.0018922059     0.995091076338141    4.05451558479042     0.070746530199267    -83.9964294706566    0.070746530199267    -83.9964294706566    0.995091076338141    4.05451558479042     
14325.5824490229     0.99568355839532     3.53668725607585     0.061734780779873    -84.224227083063     0.061734780779873    -84.224227083063     0.99568355839532     3.53668725607585     
14501.2920480726     0.996193549666912    3.01880567715955     0.052719239904043    -84.35154649405      0.052719239904043    -84.35154649405      0.996193549666912    3.01880567715955     
14679.1568029986     0.996620965545251    2.50088105678296     0.043702170757426    -84.3161047498307    0.043702170757426    -84.3161047498307    0.996620965545251    2.50088105678296     
14859.2031477403     0.996965734537741    1.982923444077       0.034687238736222    -83.9909305430496    0.034687238736222    -83.9909305430496    0.996965734537741    1.982923444077       
15041.4578404606     0.997227798143367    1.46494275852899     0.025681973462341    -83.0712566389168    0.025681973462341    -83.0712566389168    0.997227798143367    1.46494275852899     
15225.9479675234     0.997407110754061    0.946948820229787    0.016708163608593    -80.5991929842178    0.016708163608593    -80.5991929842178    0.997407110754061    0.946948820229787    
15412.7009475188     0.997503639581316    0.428951380340839    0.007882957736912    -71.3235068012608    0.007882957736912    -71.3235068012608    0.997503639581316    0.428951380340839    
15601.7445353378     0.997517364608399    -0.089039848278622   0.002927886279367    31.9685407973034     0.002927886279367    31.9685407973034     0.997517364608399    -0.089039848278622   
15793.1068262976     0.997448278568346    -0.607015160346928   0.010884181916065    76.1378881303537     0.010884181916065    76.1378881303537     0.997448278568346    -0.607015160346928   
15986.8162603169     0.997296386947888    -1.12496482739814    0.019792984244011    81.5870652965634     0.019792984244011    81.5870652965634     0.997296386947888    -1.12496482739814    
16182.9016261424     0.997061708017288    -1.64287906704403    0.028780891908606    83.3195285345081     0.028780891908606    83.3195285345081     0.997061708017288    -1.64287906704403    
16381.3920656277     0.996744272886       -2.16074801232131    0.037789006190474    83.9780383819519     0.037789006190474    83.9780383819519     0.996744272886       -2.16074801232131    
16582.3170780639     0.996344125583979    -2.67856168118691    0.046802939863063    84.1818899591186     0.046802939863063    84.1818899591186     0.996344125583979    -2.67856168118691    
16785.7065245642     0.995861323168291    -3.19630994621913    0.055817001060592    84.1512755357215     0.055817001060592    84.1512755357215     0.995861323168291    -3.19630994621913    
16991.5906325013     0.995295935854662    -3.71398250458899    0.064828154046972    83.9840413280062     0.064828154046972    83.9840413280062     0.995295935854662    -3.71398250458899    
17200                0.99464804717344     -4.23156884835881    0.073834397058117    83.730272636759      0.073834397058117    83.730272636759      0.99464804717344     -4.23156884835881    
