# MHz S MA R 50      
!Freq                MagS11               AngS11               MagS21               AngS21               MagS12               AngS12               MagS22               AngS22               
1                    0.026974558381538    45.8835737069678     0.981413592980201    -1.13066313692415    0.981413592980201    -1.13066313692415    0.026974558381538    45.8835737069678     
1.00879225865478     0.027114936724934    46.0920683848186     0.981390196323664    -1.140578355792      0.981390196323664    -1.140578355792      0.027114936724934    46.0920683848186     
1.01766182112181     0.02725687843205     46.3002427586408     0.981366653513247    -1.15058037659351    0.981366653513247    -1.15058037659351    0.02725687843205     46.3002427586408     
1.0266093670762      0.027400398318079    46.5080834730649     0.981342963137494    -1.16066995666146    0.981342963137494    -1.16066995666146    0.027400398318079    46.5080834730649     
1.03563558216895     0.027545511296803    46.7155772438928     0.981319123765214    -1.17084785988615    0.981319123765214    -1.17084785988615    0.027545511296803    46.7155772438928     
1.04474115807947     0.027692232381211    46.9227108614725     0.981295133945166    -1.18111485677114    0.981295133945166    -1.18111485677114    0.027692232381211    46.9227108614725     
1.05392679256859     0.027840576684137    47.1294711940094     0.981270992205734    -1.19147172448932    0.981270992205734    -1.19147172448932    0.027840576684137    47.1294711940094     
1.06319318953206     0.027990559418911    47.3358451908226     0.981246697054622    -1.2019192469396     0.981246697054622    -1.2019192469396     0.027990559418911    47.3358451908226     
1.07254105905442     0.02814219590003     47.541819885536      0.981222246978454    -1.21245821480385    0.981222246978454    -1.21245821480385    0.02814219590003     47.541819885536      
1.08197111746349     0.028295501543842    47.747382399207      0.981197640442487    -1.22308942560446    0.981197640442487    -1.22308942560446    0.028295501543842    47.747382399207      
1.09148408738523     0.028450491869253    47.9525199433875     0.981172875890232    -1.23381368376223    0.981172875890232    -1.23381368376223    0.028450491869253    47.9525199433875     
1.10108069779909     0.028607182498446    48.15721982312       0.981147951743098    -1.24463180065487    0.981147951743098    -1.24463180065487    0.028607182498446    48.15721982312       
1.11076168409393     0.02876558915762     48.3614694398618     0.981122866400041    -1.25554459467578    0.981122866400041    -1.25554459467578    0.02876558915762     48.3614694398618     
1.12052778812429     0.028925727677745    48.5652562943404     0.98109761823719     -1.2665528912935     0.98109761823719     -1.2665528912935     0.028925727677745    48.5652562943404     
1.13037975826735     0.029087613995335    48.7685679893351     0.981072205607454    -1.27765752311144    0.981072205607454    -1.27765752311144    0.029087613995335    48.7685679893351     
1.14031834948016     0.029251264153241    48.9713922323844     0.98104662684017     -1.28885932992821    0.98104662684017     -1.28885932992821    0.029251264153241    48.9713922323844     
1.15034432335758     0.029416694301458    49.1737168384204     0.981020880240695    -1.3001591587984     0.981020880240695    -1.3001591587984     0.029416694301458    49.1737168384204     
1.16045844819059     0.029583920697951    49.3755297323243     0.980994964090016    -1.31155786409378    0.980994964090016    -1.31155786409378    0.029583920697951    49.3755297323243     
1.1706614990252      0.029752959709502    49.5768189514064     0.980968876644351    -1.3230563075651     0.980968876644351    -1.3230563075651     0.029752959709502    49.5768189514064     
1.18095425772182     0.02992382781257     49.777572647805      0.980942616134734    -1.33465535840421    0.980942616134734    -1.33465535840421    0.02992382781257     49.777572647805      
1.19133751301517     0.030096541594175    49.977779090808      0.980916180766613    -1.34635589330685    0.980916180766613    -1.34635589330685    0.030096541594175    49.977779090808      
1.20181206057474     0.030271117752792    50.1774266690933     0.98088956871941     -1.35815879653579    0.98088956871941     -1.35815879653579    0.030271117752792    50.1774266690933     
1.21237870306574     0.030447573099271    50.3765038928869     0.980862778146105    -1.37006495998453    0.980862778146105    -1.37006495998453    0.030447573099271    50.3765038928869     
1.22303825021064     0.03062592455777     50.5749993960401     0.980835807172787    -1.38207528324146    0.980835807172787    -1.38207528324146    0.03062592455777     50.5749993960401     
1.23379151885117     0.030806189166709    50.7729019380226     0.980808653898235    -1.3941906736546     0.980808653898235    -1.3941906736546     0.030806189166709    50.7729019380226     
1.24463933301098     0.03098838407974     50.9702004058356     0.980781316393426    -1.4064120463967     0.980781316393426    -1.4064120463967     0.03098838407974     50.9702004058356     
1.25558252395872     0.031172526566738    51.1668838158358     0.980753792701118    -1.41874032453101    0.980753792701118    -1.41874032453101    0.031172526566738    51.1668838158358     
1.26662193027179     0.031358634014805    51.3629413154815     0.980726080835344    -1.43117643907739    0.980726080835344    -1.43117643907739    0.031358634014805    51.3629413154815     
1.27775839790055     0.031546723929298    51.5583621849897     0.980698178780981    -1.44372132907915    0.980698178780981    -1.44372132907915    0.031546723929298    51.5583621849897     
1.2889927802332      0.031736813934869    51.7531358389111     0.980670084493204    -1.45637594167006    0.980670084493204    -1.45637594167006    0.031736813934869    51.7531358389111     
1.30032593816115     0.031928921776529    51.9472518276198     0.980641795897061    -1.4691412321423     0.980641795897061    -1.4691412321423     0.031928921776529    51.9472518276198     
1.31175874014498     0.032123065320728    52.1406998387193     0.980613310886945    -1.48201816401464    0.980613310886945    -1.48201816401464    0.032123065320728    52.1406998387193     
1.323292062281       0.032319262556445    52.3334696983616     0.980584627326051    -1.4950077091011     0.980584627326051    -1.4950077091011     0.032319262556445    52.3334696983616     
1.33492678836839     0.032517531596311    52.5255513724856     0.980555743045922    -1.50811084758042    0.980555743045922    -1.50811084758042    0.032517531596311    52.5255513724856     
1.34666380997691     0.032717890677738    52.7169349679668     0.980526655845897    -1.52132856806583    0.980526655845897    -1.52132856806583    0.032717890677738    52.7169349679668     
1.35850402651525     0.032920358164066    52.9076107336884     0.980497363492551    -1.53466186767535    0.980497363492551    -1.53466186767535    0.032920358164066    52.9076107336884     
1.37044834529993     0.033124952545734    53.0975690615239     0.980467863719186    -1.54811175210273    0.980467863719186    -1.54811175210273    0.033124952545734    53.0975690615239     
1.38249768162482     0.033331692441463    53.28680048724       0.980438154225255    -1.5616792356889     0.980438154225255    -1.5616792356889     0.033331692441463    53.28680048724       
1.39465295883129     0.03354059659946     53.475295691315      0.980408232675826    -1.57536534149387    0.980408232675826    -1.57536534149387    0.03354059659946     53.475295691315      
1.40691510837899     0.033751683898636    53.6630454996776     0.980378096700974    -1.58917110136925    0.980378096700974    -1.58917110136925    0.033751683898636    53.6630454996776     
1.41928506991717     0.03396497334984     53.8500408843614     0.980347743895236    -1.60309755603131    0.980347743895236    -1.60309755603131    0.03396497334984     53.8500408843614     
1.43176379135674     0.034180484097118    54.0362729640808     0.980317171816988    -1.61714575513457    0.980317171816988    -1.61714575513457    0.034180484097118    54.0362729640808     
1.44435222894289     0.034398235418978    54.2217330047278     0.980286377987879    -1.63131675734593    0.980286377987879    -1.63131675734593    0.034398235418978    54.2217330047278     
1.45705134732836     0.034618246729677    54.4064124197872     0.980255359892164    -1.64561163041927    0.980255359892164    -1.64561163041927    0.034618246729677    54.4064124197872     
1.46986211964737     0.034840537580529    54.5903027706766     0.98022411497614     -1.66003145127088    0.98022411497614     -1.66003145127088    0.034840537580529    54.5903027706766     
1.48278552759016     0.03506512766122     54.7733957670075     0.980192640647504    -1.67457730605507    0.980192640647504    -1.67457730605507    0.03506512766122     54.7733957670075     
1.49582256147829     0.035292036801146    54.9556832667709     0.980160934274658    -1.68925029024059    0.980160934274658    -1.68925029024059    0.035292036801146    54.9556832667709     
1.50897422034046     0.035521284970763    55.1371572764488     0.980128993186122    -1.70405150868752    0.980128993186122    -1.70405150868752    0.035521284970763    55.1371572764488     
1.52224151198909     0.035752892282959    55.3178099510497     0.980096814669825    -1.71898207572476    0.980096814669825    -1.71898207572476    0.035752892282959    55.3178099510497     
1.53562545309753     0.035986878994433    55.4976335940738     0.980064395972459    -1.73404311522806    0.980064395972459    -1.73404311522806    0.035986878994433    55.4976335940738     
1.54912706927802     0.036223265507096    55.6766206574052     0.980031734298741    -1.74923576069856    0.980031734298741    -1.74923576069856    0.036223265507096    55.6766206574052     
1.56274739516023     0.036462072369488    55.8547637411343     0.979998826810794    -1.76456115534203    0.979998826810794    -1.76456115534203    0.036462072369488    55.8547637411343     
1.57648747447056     0.036703320278203    56.0320555933102     0.97996567062734     -1.78002045214853    0.97996567062734     -1.78002045214853    0.036703320278203    56.0320555933102     
1.59034836011212     0.036947030079339    56.208489109628      0.979932262823074    -1.7956148139728     0.979932262823074    -1.7956148139728     0.036947030079339    56.208489109628      
1.60433111424543     0.037193222769952    56.3840573330472     0.979898600427852    -1.81134541361502    0.979898600427852    -1.81134541361502    0.037193222769952    56.3840573330472     
1.61843680836978     0.037441919499536    56.5587534533454     0.979864680425968    -1.82721343390236    0.979864680425968    -1.82721343390236    0.037441919499536    56.5587534533454     
1.63266652340537     0.037693141571507    56.7325708066108     0.979830499755408    -1.84322006777093    0.979830499755408    -1.84322006777093    0.037693141571507    56.7325708066108     
1.64702134977615     0.037946910444711    56.9055028746696     0.979796055307075    -1.8593665183485     0.979796055307075    -1.8593665183485     0.037946910444711    56.9055028746696     
1.66150238749332     0.038203247734935    57.0775432844552     0.97976134392397     -1.8756539990375     0.97976134392397     -1.8756539990375     0.038203247734935    57.0775432844552     
1.67611074623969     0.038462175216444    57.2486858073158     0.979726362400441    -1.89208373359898    0.979726362400441    -1.89208373359898    0.038462175216444    57.2486858073158     
1.69084754545468     0.038723714823518    57.4189243582679     0.979691107481324    -1.9086569562368     0.979691107481324    -1.9086569562368     0.038723714823518    57.4189243582679     
1.70571391442011     0.038987888652019    57.5882529951897     0.979655575861144    -1.92537491168265    0.979655575861144    -1.92537491168265    0.038987888652019    57.5882529951897     
1.72071099234674     0.039254718960955    57.7566659179634     0.979619764183271    -1.94223885528158    0.979619764183271    -1.94223885528158    0.039254718960955    57.7566659179634     
1.73583992846158     0.039524228174069    57.9241574675616     0.979583669039065    -1.95925005307801    0.979583669039065    -1.95925005307801    0.039524228174069    57.9241574675616     
1.7511018820959      0.039796438881431    58.0907221250845     0.979547286966994    -1.97640978190248    0.979547286966994    -1.97640978190248    0.039796438881431    58.0907221250845     
1.76649802277415     0.040071373841054    58.2563545107462     0.979510614451772    -1.993719329459      0.979510614451772    -1.993719329459      0.040071373841054    58.2563545107462     
1.78202953030353     0.040349055980507    58.4210493828125     0.979473647923434    -2.01117999441271    0.979473647923434    -2.01117999441271    0.040349055980507    58.4210493828125     
1.79769759486441     0.040629508398558    58.5848016364925     0.979436383756439    -2.02879308647857    0.979436383756439    -2.02879308647857    0.040629508398558    58.5848016364925     
1.81350341710153     0.040912754366816    58.7476063027848     0.979398818268761    -2.04655992651026    0.979398818268761    -2.04655992651026    0.040912754366816    58.7476063027848     
1.82944820821601     0.041198817331387    58.9094585472804     0.979360947720899    -2.06448184658989    0.979360947720899    -2.06448184658989    0.041198817331387    58.9094585472804     
1.84553319005816     0.041487720914545    59.0703536689226     0.979322768314942    -2.08256019011813    0.979322768314942    -2.08256019011813    0.041487720914545    59.0703536689226     
1.86175959522113     0.041779488916413    59.2302870987292     0.979284276193597    -2.10079631190521    0.979284276193597    -2.10079631190521    0.041779488916413    59.2302870987292     
1.87812866713532     0.042074145316652    59.3892543984717     0.979245467439196    -2.11919157826215    0.979245467439196    -2.11919157826215    0.042074145316652    59.3892543984717     
1.89464166016373     0.042371714276165    59.5472512593209     0.979206338072666    -2.13774736709287    0.979206338072666    -2.13774736709287    0.042371714276165    59.5472512593209     
1.911299839698       0.042672220138808    59.7042735004556     0.979166884052537    -2.1564650679868     0.979166884052537    -2.1564650679868     0.042672220138808    59.7042735004556     
1.92810448225546     0.042975687433115    59.8603170676364     0.979127101273856    -2.175346082312      0.979127101273856    -2.175346082312      0.042975687433115    59.8603170676364     
1.94505687557688     0.043282140874026    60.0153780317479     0.979086985567175    -2.19439182330901    0.979086985567175    -2.19439182330901    0.043282140874026    60.0153780317479     
1.96215831872521     0.043591605364637    60.1694525873088     0.97904653269743     -2.21360371618518    0.97904653269743     -2.21360371618518    0.043591605364637    60.1694525873088     
1.97941012218506     0.043904105997945    60.3225370509547     0.979005738362872    -2.23298319820969    0.979005738362872    -2.23298319820969    0.043904105997945    60.3225370509547     
1.99681360796319     0.044219668058615    60.4746278598896     0.978964598193924    -2.25253171880901    0.978964598193924    -2.25253171880901    0.044219668058615    60.4746278598896     
2.01437010968978     0.044538317024745    60.6257215703136     0.978923107752084    -2.27225073966316    0.978923107752084    -2.27225073966316    0.044538317024745    60.6257215703136     
2.03208097272063     0.044860078569653    60.7758148558234     0.978881262528763    -2.29214173480244    0.978881262528763    -2.29214173480244    0.044860078569653    60.7758148558234     
2.04994755424024     0.045184978563659    60.9249045057913     0.978839057944089    -2.31220619070465    0.978839057944089    -2.31220619070465    0.045184978563659    60.9249045057913     
2.06797122336584     0.045513043075881    61.0729874237199     0.978796489345729    -2.33244560639305    0.978796489345729    -2.33244560639305    0.045513043075881    61.0729874237199     
2.08615336125231     0.045844298376044    61.2200606255775     0.978753552007697    -2.3528614935349     0.978753552007697    -2.3528614935349     0.045844298376044    61.2200606255775     
2.10449536119797     0.046178770936289    61.3661212381125     0.978710241129101    -2.37345537654049    0.978710241129101    -2.37345537654049    0.046178770936289    61.3661212381125     
2.1229986287514      0.046516487432995    61.5111664971524     0.978666551832918    -2.39422879266284    0.978666551832918    -2.39422879266284    0.046516487432995    61.5111664971524     
2.14166458181912     0.046857474748601    61.6551937458825     0.978622479164687    -2.41518329209785    0.978622479164687    -2.41518329209785    0.046857474748601    61.6551937458825     
2.16049465077425     0.047201759973446    61.7982004331124     0.978578018091236    -2.43632043808518    0.978578018091236    -2.43632043808518    0.047201759973446    61.7982004331124     
2.17949027856612     0.047549370407609    61.9401841115263     0.978533163499369    -2.45764180700965    0.978533163499369    -2.45764180700965    0.047549370407609    61.9401841115263     
2.19865292083084     0.047900333562754    62.0811424359217     0.978487910194534    -2.47914898850317    0.978487910194534    -2.47914898850317    0.047900333562754    62.0811424359217     
2.21798404600286     0.048254677163982    62.2210731614356     0.978442252899449    -2.50084358554721    0.978442252899449    -2.50084358554721    0.048254677163982    62.2210731614356     
2.23748513542749     0.048612429151697    62.359974141761      0.978396186252737    -2.522727214576      0.978396186252737    -2.522727214576      0.048612429151697    62.359974141761      
2.25715768347438     0.048973617683467    62.4978433273536     0.978349704807538    -2.5448015055802     0.978349704807538    -2.5448015055802     0.048973617683467    62.4978433273536     
2.27700319765211     0.049338271135892    62.6346787636315     0.978302803030017    -2.56706810221088    0.978302803030017    -2.56706810221088    0.049338271135892    62.6346787636315     
2.29702319872362     0.049706418106488    62.7704785891665     0.978255475298006    -2.58952866188462    0.978255475298006    -2.58952866188462    0.049706418106488    62.7704785891665     
2.31721922082282     0.050078087415559    62.905241033871      0.978207715899459    -2.61218485588857    0.978207715899459    -2.61218485588857    0.050078087415559    62.905241033871      
2.33759281157211     0.050453308108088    63.0389644171794     0.978159519031       -2.63503836948645    0.978159519031       -2.63503836948645    0.050453308108088    63.0389644171794     
2.358145532201       0.050832109455623    63.1716471462261     0.978110878796376    -2.65809090202486    0.978110878796376    -2.65809090202486    0.050832109455623    63.1716471462261     
2.37887895766572     0.051214520958171    63.3032877140216     0.978061789204901    -2.68134416704033    0.978061789204901    -2.68134416704033    0.051214520958171    63.3032877140216     
2.39979467676992     0.051600572346097    63.4338846976248     0.978012244169931    -2.70479989236671    0.978012244169931    -2.70479989236671    0.051600572346097    63.4338846976248     
2.42089429228644     0.051990293582021    63.5634367563178     0.977962237507197    -2.72845982024318    0.977962237507197    -2.72845982024318    0.051990293582021    63.5634367563178     
2.44217942108009     0.052383714862726    63.6919426297783     0.977911762933259    -2.75232570742282    0.977911762933259    -2.75232570742282    0.052383714862726    63.6919426297783     
2.4636516942316      0.052780866621058    63.8194011362551     0.977860814063776    -2.77639932528159    0.977860814063776    -2.77639932528159    0.052780866621058    63.8194011362551     
2.48531275716256     0.053181779527839    63.9458111707438     0.97780938441191     -2.80068245992791    0.97780938441191     -2.80068245992791    0.053181779527839    63.9458111707438     
2.50716426976155     0.053586484493775    64.0711717031676     0.977757467386536    -2.82517691231265    0.977757467386536    -2.82517691231265    0.053586484493775    64.0711717031676     
2.52920790651131     0.053995012671369    64.1954817765609     0.977705056290593    -2.84988449833976    0.977705056290593    -2.84988449833976    0.053995012671369    64.1954817765609     
2.55144535661706     0.054407395456834    64.3187405052564     0.977652144319252    -2.87480704897715    0.977652144319252    -2.87480704897715    0.054407395456834    64.3187405052564     
2.57387832413597     0.054823664492006    64.4409470730799     0.977598724558176    -2.89994641036834    0.977598724558176    -2.89994641036834    0.054823664492006    64.4409470730799     
2.59650852810769     0.055243851666263    64.5621007315492     0.977544789981687    -2.92530444394437    0.977544789981687    -2.92530444394437    0.055243851666263    64.5621007315492     
2.61933770268615     0.055667989118435    64.6822007980812     0.977490333450897    -2.95088302653617    0.977490333450897    -2.95088302653617    0.055667989118435    64.6822007980812     
2.64236759727237     0.056096109238723    64.8012466542053     0.977435347711884    -2.97668405048764    0.977435347711884    -2.97668405048764    0.056096109238723    64.8012466542053     
2.66559997664859     0.056528244670612    64.919237743787      0.977379825393714    -3.00270942376871    0.977379825393714    -3.00270942376871    0.056528244670612    64.919237743787      
2.68903662111345     0.056964428312785    65.0361735712575     0.977323759006566    -3.02896107008938    0.977323759006566    -3.02896107008938    0.056964428312785    65.0361735712575     
2.71267932661845     0.057404693321034    65.1520536998557     0.97726714093973     -3.05544092901372    0.97726714093973     -3.05544092901372    0.057404693321034    65.1520536998557     
2.73652990490554     0.057849073110173    65.2668777498783     0.977209963459594    -3.08215095607454    0.977209963459594    -3.08215095607454    0.057849073110173    65.2668777498783     
2.76059018364601     0.058297601355946    65.3806453969414     0.977152218707657    -3.10909312288841    0.977152218707657    -3.10909312288841    0.058297601355946    65.3806453969414     
2.78486200658046     0.058750311996932    65.4933563702533     0.977093898698416    -3.13626941727106    0.977093898698416    -3.13626941727106    0.058750311996932    65.4933563702533     
2.80934723366017     0.059207239236448    65.6050104508981     0.9770349953173      -3.16368184335318    0.9770349953173      -3.16368184335318    0.059207239236448    65.6050104508981     
2.83404774118959     0.05966841754445     65.715607470133      0.97697550031851     -3.19133242169647    0.97697550031851     -3.19133242169647    0.05966841754445     65.715607470133      
2.85896542197012     0.060133881659428    65.8251473076976     0.97691540532287     -3.21922318941023    0.97691540532287     -3.21922318941023    0.060133881659428    65.8251473076976     
2.88410218544514     0.060603666590297    65.9336298901349     0.976854701815646    -3.24735620026827    0.976854701815646    -3.24735620026827    0.060603666590297    65.9336298901349     
2.90945995784638     0.061077807618282    66.0410551891289     0.976793381144246    -3.2757335248258     0.976793381144246    -3.2757335248258     0.061077807618282    66.0410551891289     
2.93504068234148     0.061556340298804    66.147423219853      0.97673143451602     -3.30435725053726    0.97673143451602     -3.30435725053726    0.061556340298804    66.147423219853      
2.96084631918292     0.062039300463351    66.2527340393347     0.976668852995919    -3.33322948187389    0.976668852995919    -3.33322948187389    0.062039300463351    66.2527340393347     
2.98687884585822     0.062526724221346    66.3569877448348     0.976605627504145    -3.36235234044185    0.976605627504145    -3.36235234044185    0.062526724221346    66.3569877448348     
3.01314025724149     0.063018647962014    66.4601844722403     0.976541748813791    -3.3917279651005     0.976541748813791    -3.3917279651005     0.063018647962014    66.4601844722403     
3.03963256574627     0.063515108356231    66.5623243944745     0.976477207548393    -3.42135851208099    0.976477207548393    -3.42135851208099    0.063515108356231    66.5623243944745     
3.0663578014798      0.064016142358375    66.6634077199216     0.97641199417953     -3.45124615510524    0.97641199417953     -3.45124615510524    0.064016142358375    66.6634077199216     
3.0933180123985      0.064521787208162    66.7634346908669     0.976346099024247    -3.48139308550465    0.976346099024247    -3.48139308550465    0.064521787208162    66.7634346908669     
3.12051526446498     0.065032080432472    66.8624055819552     0.97627951224259     -3.51180151233951    0.97627951224259     -3.51180151233951    0.065032080432472    66.8624055819552     
3.14795164180634     0.065547059847175    66.9603206986625     0.976212223835017    -3.54247366251846    0.976212223835017    -3.54247366251846    0.065547059847175    66.9603206986625     
3.17562924687383     0.066066763558932    67.0571803757876     0.976144223639746    -3.57341178091781    0.976144223639746    -3.57341178091781    0.066066763558932    67.0571803757876     
3.20355020060402     0.066591229966997    67.1529849759584     0.976075501330149    -3.60461813050142    0.976075501330149    -3.60461813050142    0.066591229966997    67.1529849759584     
3.23171664258129     0.067120497765002    67.2477348881557     0.976006046412038    -3.63609499244049    0.976006046412038    -3.63609499244049    0.067120497765002    67.2477348881557     
3.26013073120181     0.067654605942729    67.3414305262554     0.975935848220918    -3.66784466623333    0.975935848220918    -3.66784466623333    0.067654605942729    67.3414305262554     
3.28879464383892     0.068193593787871    67.4340723275865     0.975864895919218    -3.69986946982533    0.975864895919218    -3.69986946982533    0.068193593787871    67.4340723275865     
3.31771057701        0.068737500887781    67.525660751508      0.975793178493468    -3.73217173972921    0.975793178493468    -3.73217173972921    0.068737500887781    67.525660751508      
3.34688074654476     0.069286367131197    67.616196278002      0.975720684751418    -3.76475383114465    0.975720684751418    -3.76475383114465    0.069286367131197    67.616196278002      
3.37630738775507     0.069840232709968    67.7056794062866     0.975647403319149    -3.79761811807864    0.975647403319149    -3.79761811807864    0.069840232709968    67.7056794062866     
3.40599275560624     0.070399138120748    67.794110653445      0.975573322638102    -3.83076699346534    0.975573322638102    -3.83076699346534    0.070399138120748    67.794110653445      
3.43593912488983     0.070963124166683    67.8814905530732     0.975498430962088    -3.86420286928603    0.975498430962088    -3.86420286928603    0.070963124166683    67.8814905530732     
3.46614879039793     0.071532231959073    67.9678196539462     0.97542271635423     -3.89792817668899    0.97542271635423     -3.89792817668899    0.071532231959073    67.9678196539462     
3.49662406709905     0.072106502919025    68.0530985187018     0.975346166683892    -3.93194536610916    0.975346166683892    -3.93194536610916    0.072106502919025    68.0530985187018     
3.5273672903155      0.07268597877908     68.1373277225427     0.975268769623501    -3.96625690738785    0.975268769623501    -3.96625690738785    0.07268597877908     68.1373277225427     
3.55838081590235     0.073270701584817    68.2205078519572     0.975190512645396    -4.00086528989202    0.975190512645396    -4.00086528989202    0.073270701584817    68.2205078519572     
3.58966702042796     0.073860713696444    68.3026395034577     0.975111383018578    -4.03577302263373    0.975111383018578    -4.03577302263373    0.073860713696444    68.3026395034577     
3.62122830135608     0.074456057790363    68.3837232823379     0.975031367805424    -4.07098263438877    0.975031367805424    -4.07098263438877    0.074456057790363    68.3837232823379     
3.6530670772296      0.07505677686071     68.4637598014481     0.974950453858375    -4.10649667381582    0.974950453858375    -4.10649667381582    0.07505677686071     68.4637598014481     
3.68518578785585     0.075662914220871    68.542749679989      0.974868627816502    -4.14231770957435    0.974868627816502    -4.14231770957435    0.075662914220871    68.542749679989      
3.71758689449359     0.076274513504982    68.6206935423236     0.974785876102134    -4.17844833044318    0.974785876102134    -4.17844833044318    0.076274513504982    68.6206935423236     
3.75027288004158     0.076891618669388    68.6975920168079     0.974702184917317    -4.2148911454378     0.974702184917317    -4.2148911454378     0.076891618669388    68.6975920168079     
3.7832462492289      0.077514273994084    68.7734457346393     0.974617540240333    -4.25164878392776    0.974617540240333    -4.25164878392776    0.077514273994084    68.7734457346393     
3.81650952880684     0.078142524084133    68.8482553287233     0.974531927822055    -4.28872389575362    0.974531927822055    -4.28872389575362    0.078142524084133    68.8482553287233     
3.85006526774253     0.078776413871042    68.9220214325588     0.974445333182346    -4.32611915134313    0.974445333182346    -4.32611915134313    0.078776413871042    68.9220214325588     
3.88391603741429     0.07941598861411     68.9947446791417     0.974357741606343    -4.36383724182695    0.974357741606343    -4.36383724182695    0.07941598861411     68.9947446791417     
3.91806443180867     0.080061293901759    69.0664256998863     0.974269138140704    -4.40188087915405    0.974269138140704    -4.40188087915405    0.080061293901759    69.0664256998863     
3.95251306771921     0.080712375652814    69.1370651235642     0.974179507589836    -4.44025279620623    0.974179507589836    -4.44025279620623    0.080712375652814    69.1370651235642     
3.98726458494698     0.081369280117756    69.2066635752626     0.974088834511985    -4.47895574691205    0.974088834511985    -4.47895574691205    0.081369280117756    69.2066635752626     
4.02232164650287     0.082032053879942    69.2752216753596     0.973997103215358    -4.51799250636004    0.973997103215358    -4.51799250636004    0.082032053879942    69.2752216753596     
4.05768693881163     0.082700743856785    69.3427400385175     0.973904297754136    -4.55736587091106    0.973904297754136    -4.55736587091106    0.082700743856785    69.3427400385175     
4.09336317191777     0.083375397300898    69.4092192726941     0.973810401924456    -4.59707865831011    0.973810401924456    -4.59707865831011    0.083375397300898    69.4092192726941     
4.12935307969321     0.084056061801194    69.4746599781713     0.973715399260282    -4.63713370779699    0.973715399260282    -4.63713370779699    0.084056061801194    69.4746599781713     
4.16565942004677     0.084742785283954    69.5390627466028     0.973619273029336    -4.67753388021628    0.973619273029336    -4.67753388021628    0.084742785283954    69.5390627466028     
4.20228497513552     0.085435616013843    69.6024281600766     0.973522006228808    -4.7182820581261     0.973522006228808    -4.7182820581261     0.085435616013843    69.6024281600766     
4.239232551578       0.086134602594893    69.6647567901978     0.973423581581164    -4.75938114590626    0.973423581581164    -4.75938114590626    0.086134602594893    69.6647567901978     
4.27650498066922     0.086839793971424    69.7260491971873     0.973323981529758    -4.80083406986477    0.973323981529758    -4.80083406986477    0.086839793971424    69.7260491971873     
4.3141051185977      0.087551239428939    69.7863059289979     0.973223188234516    -4.8426437783437     0.973223188234516    -4.8426437783437     0.087551239428939    69.7863059289979     
4.35203584666431     0.088268988594954    69.8455275204483     0.973121183567411    -4.8848132418236     0.973121183567411    -4.8848132418236     0.088268988594954    69.8455275204483     
4.39030007150304     0.088993091439784    69.9037144923729     0.973017949108013    -4.92734545302675    0.973017949108013    -4.92734545302675    0.088993091439784    69.9037144923729     
4.42890072530378     0.089723598277285    69.9608673507898     0.972913466138916    -4.97024342701925    0.972913466138916    -4.97024342701925    0.089723598277285    69.9608673507898     
4.46784076603698     0.090460559765523    70.0169865860853     0.972807715641068    -5.01351020131131    0.972807715641068    -5.01351020131131    0.090460559765523    70.0169865860853     
4.50712317768033     0.091204026907407    70.072072672215      0.972700678289098    -5.0571488359563     0.972700678289098    -5.0571488359563     0.091204026907407    70.072072672215      
4.54675097044743     0.091954051051255    70.1261260659213     0.972592334446544    -5.10116241364855    0.972592334446544    -5.10116241364855    0.091954051051255    70.1261260659213     
4.58672718101846     0.092710683891307    70.1791472059686     0.972482664161068    -5.14555403981942    0.972482664161068    -5.14555403981942    0.092710683891307    70.1791472059686     
4.62705487277287     0.093473977468165    70.2311365123938     0.972371647159482    -5.19032684273108    0.972371647159482    -5.19032684273108    0.093473977468165    70.2311365123938     
4.66773713602413     0.094243984169188    70.2820943857735     0.972259262842888    -5.23548397356986    0.972259262842888    -5.23548397356986    0.094243984169188    70.2820943857735     
4.70877708825656     0.095020756728806    70.3320212065078     0.972145490281561    -5.28102860653628    0.972145490281561    -5.28102860653628    0.095020756728806    70.3320212065078     
4.7501778743642      0.09580434822878     70.3809173341201     0.972030308209948    -5.32696393893479    0.972030308209948    -5.32696393893479    0.09580434822878     70.3809173341201     
4.79194266689181     0.096594812098381    70.4287831065723     0.971913695021445    -5.37329319125984    0.971913695021445    -5.37329319125984    0.096594812098381    70.4287831065723     
4.83407466627798     0.097392202114505    70.4756188395972     0.971795628763215    -5.42001960728133    0.971795628763215    -5.42001960728133    0.097392202114505    70.4756188395972     
4.8765771011004      0.098196572401718    70.5214248260458     0.971676087130853    -5.46714645412738    0.971676087130853    -5.46714645412738    0.098196572401718    70.5214248260458     
4.91945322832323     0.099007977432216    70.5662013352505     0.971555047463073    -5.51467702236458    0.971555047463073    -5.51467702236458    0.099007977432216    70.5662013352505     
4.96270633354673     0.099826472025713    70.6099486124041     0.971432486736251    -5.5626146260765     0.971432486736251    -5.5626146260765     0.099826472025713    70.6099486124041     
5.00633973125897     0.10065211134925     70.6526668779543     0.971308381558929    -5.61096260293937    0.971308381558929    -5.61096260293937    0.10065211134925     70.6526668779543     
5.05035676508988     0.101484950916915    70.6943563270142     0.971182708166248    -5.6597243142956     0.971182708166248    -5.6597243142956     0.101484950916915    70.6943563270142     
5.09476080806745     0.102325046589488    70.7350171287866     0.971055442414328    -5.70890314522453    0.971055442414328    -5.70890314522453    0.102325046589488    70.7350171287866     
5.1395552628762      0.103172454573985    70.7746494260055     0.970926559774522    -5.75850250461038    0.970926559774522    -5.75850250461038    0.103172454573985    70.7746494260055     
5.18474356211792     0.104027231423122    70.8132533343918     0.970796035327661    -5.80852582520774    0.970796035327661    -5.80852582520774    0.104027231423122    70.8132533343918     
5.23032916857475     0.104889434034683    70.8508289421235     0.970663843758208    -5.85897656370389    0.970663843758208    -5.85897656370389    0.104889434034683    70.8508289421235     
5.27631557547448     0.105759119650799    70.8873763093229     0.970529959348325    -5.90985820077859    0.970529959348325    -5.90985820077859    0.105759119650799    70.8873763093229     
5.32270630675828     0.106636345857107    70.9228954675559     0.970394355971875    -5.96117424115989    0.970394355971875    -5.96117424115989    0.106636345857107    70.9228954675559     
5.36950491735071     0.107521170581837    70.9573864193494     0.970257007088383    -6.0129282136778     0.970257007088383    -6.0129282136778     0.107521170581837    70.9573864193494     
5.41671499343215     0.108413652094774    70.9908491377204     0.970117885736863    -6.06512367131379    0.970117885736863    -6.06512367131379    0.108413652094774    70.9908491377204     
5.46434015271361     0.109313849006118    71.0232835657218     0.969976964529632    -6.11776419124735    0.969976964529632    -6.11776419124735    0.109313849006118    71.0232835657218     
5.51238404471395     0.110221820265245    71.0546896160029     0.969834215646037    -6.17085337489905    0.969834215646037    -6.17085337489905    0.110221820265245    71.0546896160029     
5.56085035103954     0.111137625159329    71.085067170383      0.969689610826067    -6.22439484796904    0.969689610826067    -6.22439484796904    0.111137625159329    71.085067170383      
5.60974278566638     0.112061323311884    71.1144160794406     0.969543121363975    -6.27839226047347    0.969543121363975    -6.27839226047347    0.112061323311884    71.1144160794406     
5.65906509522473     0.112992974681147    71.1427361621172     0.969394718101728    -6.33284928677496    0.969394718101728    -6.33284928677496    0.112992974681147    71.1427361621172     
5.70882105928616     0.113932639558372    71.1700272053355     0.969244371422477    -6.38776962561076    0.969244371422477    -6.38776962561076    0.113932639558372    71.1700272053355     
5.75901449065324     0.114880378565978    71.1962889636307     0.969092051243901    -6.44315700011549    0.969092051243901    -6.44315700011549    0.114880378565978    71.1962889636307     
5.80964923565167     0.115836252655572    71.2215211587981     0.968937727011474    -6.4990151578404     0.968937727011474    -6.4990151578404     0.115836252655572    71.2215211587981     
5.86072917442505     0.116800323105838    71.245723479554      0.968781367691702    -6.55534787076757    0.968781367691702    -6.55534787076757    0.116800323105838    71.245723479554      
5.91225822123219     0.117772651520298    71.2688955812102     0.968622941765256    -6.61215893531986    0.968622941765256    -6.61215893531986    0.117772651520298    71.2688955812102     
5.96424032474709     0.11875329982492     71.2910370853644     0.968462417220037    -6.66945217236616    0.968462417220037    -6.66945217236616    0.11875329982492     71.2910370853644     
6.01667946836151     0.119742330265585    71.3121475796031     0.968299761544161    -6.7272314272212     0.968299761544161    -6.7272314272212     0.119742330265585    71.3121475796031     
6.06957967049023     0.120739805405418    71.3322266172201     0.968134941718913    -6.7855005696412     0.968134941718913    -6.7855005696412     0.120739805405418    71.3322266172201     
6.12294498487896     0.12174578812195     71.3512737169484     0.967967924211578    -6.84426349381355    0.967967924211578    -6.84426349381355    0.12174578812195     71.3512737169484     
6.17677950091498     0.122760341604136    71.3692883627061     0.96779867496823     -6.90352411834139    0.96779867496823     -6.90352411834139    0.122760341604136    71.3692883627061     
6.23108734394054     0.123783529349205    71.3862700033574     0.967627159406458    -6.96328638622265    0.967627159406458    -6.96328638622265    0.123783529349205    71.3862700033574     
6.28587267556897     0.124815415159354    71.4022180524862     0.967453342407985    -7.02355426482359    0.967453342407985    -7.02355426482359    0.124815415159354    71.4022180524862     
6.34113969400357     0.125856063138277    71.4171318881868     0.967277188311268    -7.08433174584628    0.967277188311268    -7.08433174584628    0.125856063138277    71.4171318881868     
6.39689263435932     0.126905537687505    71.4310108528645     0.967098660904004    -7.14562284528998    0.967098660904004    -7.14562284528998    0.126905537687505    71.4310108528645     
6.45313576898744     0.127963903502585    71.4438542530545     0.966917723415554    -7.2074316034065     0.966917723415554    -7.2074316034065     0.127963903502585    71.4438542530545     
6.50987340780277     0.129031225569071    71.4556613592524     0.966734338509317    -7.26976208464903    0.966734338509317    -7.26976208464903    0.129031225569071    71.4556613592524     
6.56710989861402     0.13010756915834     71.4664314057609     0.966548468275059    -7.33261837761453    0.966548468275059    -7.33261837761453    0.13010756915834     71.4664314057609     
6.62484962745698     0.131192999823193    71.4761635905482     0.966360074221132    -7.39600459497921    0.966360074221132    -7.39600459497921    0.131192999823193    71.4761635905482     
6.68309701893058     0.132287583393296    71.484857075124      0.966169117266658    -7.45992487342702    0.966169117266658    -7.45992487342702    0.132287583393296    71.484857075124      
6.74185653653598     0.133391385970389    71.4925109844266     0.965975557733648    -7.52438337357145    0.965975557733648    -7.52438337357145    0.133391385970389    71.4925109844266     
6.8011326830186      0.134504473923317    71.499124406728      0.965779355339059    -7.58938427986918    0.965779355339059    -7.58938427986918    0.134504473923317    71.499124406728      
6.86093000071316     0.135626913882826    71.504696393549      0.965580469186769    -7.65493180052692    0.965580469186769    -7.65493180052692    0.135626913882826    71.504696393549      
6.92125307189174     0.136758772736174    71.5092259595936     0.965378857759541    -7.72103016740012    0.965378857759541    -7.72103016740012    0.136758772736174    71.5092259595936     
6.98210651911498     0.137900117621493    71.512712082695      0.965174478910854    -7.78768363588355    0.965174478910854    -7.78768363588355    0.137900117621493    71.512712082695      
7.04349500558624     0.139051015921956    71.5151537037767     0.964967289856778    -7.85489648479449    0.964967289856778    -7.85489648479449    0.139051015921956    71.5151537037767     
7.10542323550898     0.140211535259687    71.5165497268294     0.964757247167699    -7.92267301624631    0.964757247167699    -7.92267301624631    0.140211535259687    71.5165497268294     
7.16789595444724     0.141381743489451    71.5168990189019     0.964544306760024    -7.99101755551417    0.964544306760024    -7.99101755551417    0.141381743489451    71.5168990189019     
7.23091794968926     0.142561708692103    71.5162004101071     0.964328423887887    -8.05993445089194    0.964328423887887    -8.05993445089194    0.142561708692103    71.5162004101071     
7.2944940506144      0.143751499167794    71.5144526936439     0.96410955313472     -8.12942807353982    0.96410955313472     -8.12942807353982    0.143751499167794    71.5144526936439     
7.35862912906313     0.144951183428912    71.5116546258324     0.963887648404844    -8.19950281732245    0.963887648404844    -8.19950281732245    0.144951183428912    71.5116546258324     
7.42332809971042     0.14616083019278     71.5078049261668     0.963662662914966    -8.27016309863753    0.963662662914966    -8.27016309863753    0.14616083019278     71.5078049261668     
7.48859592044235     0.147380508374083    71.5029022773817     0.963434549185656    -8.34141335623503    0.963434549185656    -8.34141335623503    0.147380508374083    71.5029022773817     
7.55443759273598     0.148610287077034    71.4969453255349     0.96320325903283     -8.41325805102564    0.96320325903283     -8.41325805102564    0.148610287077034    71.4969453255349     
7.62085816204268     0.149850235587256    71.4899326801058     0.962968743559078    -8.48570166587947    0.962968743559078    -8.48570166587947    0.149850235587256    71.4899326801058     
7.68786271817473     0.151100423363389    71.4818629141093     0.962730953145098    -8.55874870541394    0.962730953145098    -8.55874870541394    0.151100423363389    71.4818629141093     
7.75545639569533     0.152360920028415    71.4727345642259     0.962489837440954    -8.63240369577077    0.962489837440954    -8.63240369577077    0.152360920028415    71.4727345642259     
7.82364437431213     0.153631795360674    71.4625461309482     0.962245345357446    -8.70667118438158    0.962245345357446    -8.70667118438158    0.153631795360674    71.4625461309482     
7.89243187927407     0.154913119284611    71.4512960787421     0.961997425057364    -8.78155573972339    0.961997425057364    -8.78155573972339    0.154913119284611    71.4512960787421     
7.96182418177185     0.15620496186118     71.4389828362274     0.96174602394671     -8.85706195106035    0.96174602394671     -8.85706195106035    0.15620496186118     71.4389828362274     
8.03182659934184     0.157507393277967    71.4256047963716     0.961491088665966    -8.93319442817533    0.961491088665966    -8.93319442817533    0.157507393277967    71.4256047963716     
8.10244449627357     0.158820483838981    71.4111603167028     0.961232565081313    -9.00995780108859    0.961232565081313    -9.00995780108859    0.158820483838981    71.4111603167028     
8.17368328402077     0.160144303954125    71.3956477195386     0.960970398275808    -9.08735671976373    0.960970398275808    -9.08735671976373    0.160144303954125    71.3956477195386     
8.24554842161611     0.161478924128332    71.3790652922329     0.960704532540595    -9.16539585380087    0.960704532540595    -9.16539585380087    0.161478924128332    71.3790652922329     
8.31804541608944     0.16282441495037     71.3614112874381     0.960434911366101    -9.24407989211766    0.960434911366101    -9.24407989211766    0.16282441495037     71.3614112874381     
8.39117982288988     0.1641808470813      71.3426839233882     0.960161477433214    -9.32341354261516    0.960161477433214    -9.32341354261516    0.1641808470813      71.3426839233882     
8.46495724631147     0.165548291242572    71.3228813841957     0.959884172604475    -9.40340153183129    0.959884172604475    -9.40340153183129    0.165548291242572    71.3228813841957     
8.53938333992267     0.166926818203791    71.3020018201698     0.959602937915299    -9.48404860458025    0.959602937915299    -9.48404860458025    0.166926818203791    71.3020018201698     
8.61446380699956     0.168316498770088    71.2800433481508     0.959317713565179    -9.5653595235765     0.959317713565179    -9.5653595235765     0.168316498770088    71.2800433481508     
8.69020440096291     0.169717403769133    71.2570040518631     0.959028438908907    -9.64733906904515    0.959028438908907    -9.64733906904515    0.169717403769133    71.2570040518631     
8.76661092581905     0.171129604037775    71.2328819822884     0.958735052447837    -9.72999203831688    0.958735052447837    -9.72999203831688    0.171129604037775    71.2328819822884     
8.84368923660464     0.172553170408296    71.2076751580553     0.958437491821206    -9.81332324540802    0.958437491821206    -9.81332324540802    0.172553170408296    71.2076751580553     
8.92144523983533     0.173988173694247    71.1813815658503     0.958135693797376    -9.8973375205833     0.958135693797376    -9.8973375205833     0.173988173694247    71.1813815658503     
8.99988489395839     0.175434684675924    71.1539991608467     0.957829594265251    -9.98203970990529    0.957829594265251    -9.98203970990529    0.175434684675924    71.1539991608467     
9.07901420980929     0.17689277408542     71.1255258671532     0.957519128225693    -10.0674346747653    0.957519128225693    -10.0674346747653    0.17689277408542     71.1255258671532     
9.15883925107232     0.178362512591244    71.0959595782837     0.957204229782908    -10.1535272913983    0.957204229782908    -10.1535272913983    0.178362512591244    71.0959595782837     
9.23936613474527     0.179843970782554    71.0652981576458     0.95688483213601     -10.2403224503808    0.95688483213601     -10.2403224503808    0.179843970782554    71.0652981576458     
9.32060103160813     0.181337219152941    71.0335394390499     0.956560867570619    -10.3278250561118    0.956560867570619    -10.3278250561118    0.181337219152941    71.0335394390499     
9.40255016669601     0.182842328083775    71.0006812272397     0.956232267450455    -10.4160400262752    0.956232267450455    -10.4160400262752    0.182842328083775    71.0006812272397     
9.48521981977611     0.184359367827123    70.9667212984436     0.955898962209086    -10.5049722912841    0.955898962209086    -10.5049722912841    0.184359367827123    70.9667212984436     
9.56861632582899     0.185888408488213    70.9316574009462     0.955560881341777    -10.5946267937078    0.955560881341777    -10.5946267937078    0.185888408488213    70.9316574009462     
9.652746075534       0.18742952000743     70.895487255683      0.95521795339735     -10.6850084876787    0.95521795339735     -10.6850084876787    0.18742952000743     70.895487255683      
9.73761551575897     0.188982772141866    70.8582085568551     0.954870105970233    -10.7761223382801    0.954870105970233    -10.7761223382801    0.188982772141866    70.8582085568551     
9.82323115005429     0.190548234446384    70.8198189725688     0.95451726569254     -10.8679733209154    0.95451726569254     -10.8679733209154    0.190548234446384    70.8198189725688     
9.90959953915123     0.192125976254212    70.7803161454936     0.954159358226358    -10.9605664206562    0.954159358226358    -10.9605664206562    0.192125976254212    70.7803161454936     
9.9967273014647      0.193716066657057    70.7396976935471     0.953796308256081    -11.053906631571     0.953796308256081    -11.053906631571     0.193716066657057    70.7396976935471     
10.0846211136004     0.195318574484704    70.6979612106006     0.953428039480884    -11.1479989560321    0.953428039480884    -11.1479989560321    0.195318574484704    70.6979612106006     
10.1732877108666     0.196933568284158    70.6551042672078     0.95305447460746     -11.2428484040029    0.95305447460746     -11.2428484040029    0.196933568284158    70.6551042672078     
10.26273388779       0.198561116298223    70.6111244113591     0.952675535342699    -11.3384599923021    0.952675535342699    -11.3384599923021    0.198561116298223    70.6111244113591     
10.3529664986366     0.20020128644363     70.5660191692584     0.952291142386754    -11.4348387438474    0.952291142386754    -11.4348387438474    0.20020128644363     70.5660191692584     
10.4439924579369     0.201854146288597    70.5197860461239     0.951901215426132    -11.531989686876     0.951901215426132    -11.531989686876     0.201854146288597    70.5197860461239     
10.5358187410156     0.20351976302989     70.4724225270155     0.951505673127034    -11.6299178541434    0.951505673127034    -11.6299178541434    0.20351976302989     70.4724225270155     
10.6284523845264     0.205198203469334    70.4239260776851     0.951104433128843    -11.7286282820976    0.951104433128843    -11.7286282820976    0.205198203469334    70.4239260776851     
10.7219004869912     0.206889533989811    70.374294145453      0.950697412037921    -11.8281260100324    0.950697412037921    -11.8281260100324    0.206889533989811    70.374294145453      
10.8161702093436     0.208593820530675    70.3235241601111     0.950284525421457    -11.9284160792138    0.950284525421457    -11.9284160792138    0.208593820530675    70.3235241601111     
10.9112687754782     0.210311128562653    70.2716135348495     0.949865687801749    -12.029503531985     0.949865687801749    -12.029503531985     0.210311128562653    70.2716135348495     
11.007203472804      0.21204152306216     70.2185596672124     0.949440812650509    -12.1313934108452    0.949440812650509    -12.1313934108452    0.21204152306216     70.2185596672124     
11.1039816528027     0.21378506848508     70.1643599400777     0.949009812383646    -12.2340907575041    0.949009812383646    -12.2340907575041    0.21378506848508     70.1643599400777     
11.201610731592      0.215541828739931    70.1090117226666     0.948572598356092    -12.3376006119103    0.948572598356092    -12.3376006119103    0.215541828739931    70.1090117226666     
11.3000981904943     0.217311867160518    70.0525123715774     0.948129080857116    -12.4419280112552    0.948129080857116    -12.4419280112552    0.217311867160518    70.0525123715774     
11.3994515766095     0.219095246477955    69.9948592318501     0.947679169105761    -12.5470779889498    0.947679169105761    -12.5470779889498    0.219095246477955    69.9948592318501     
11.4996785033936     0.220892028792122    69.9360496380557     0.94722277124671     -12.6530555735749    0.94722277124671     -12.6530555735749    0.220892028792122    69.9360496380557     
11.6007866512422     0.22270227554254     69.8760809154168     0.9467597943464      -12.7598657878057    0.9467597943464      -12.7598657878057    0.22270227554254     69.8760809154168     
11.7027837680788     0.224526047478628    69.814950380955      0.94629014438948     -12.8675136473071    0.94629014438948     -12.8675136473071    0.224526047478628    69.814950380955      
11.8056776699487     0.2263634046294      69.7526553446677     0.945813726275673    -12.9760041596036    0.945813726275673    -12.9760041596036    0.2263634046294      69.7526553446677     
11.9094762416178     0.228214406272508    69.6891931107344     0.945330443816909    -13.0853423229193    0.945330443816909    -13.0853423229193    0.228214406272508    69.6891931107344     
12.014187437177      0.230079110902737    69.6245609787523     0.944840199734955    -13.1955331249913    0.944840199734955    -13.1955331249913    0.230079110902737    69.6245609787523     
12.1198192806516     0.231957576199833    69.5587562450019     0.944342895659306    -13.3065815418523    0.944342895659306    -13.3065815418523    0.231957576199833    69.5587562450019     
12.2263798666163     0.233849858995767    69.4917762037433     0.943838432125629    -13.4184925365863    0.943838432125629    -13.4184925365863    0.233849858995767    69.4917762037433     
12.3338773608151     0.235756015241352    69.4236181485419     0.943326708574498    -13.5312710580536    0.943326708574498    -13.5312710580536    0.235756015241352    69.4236181485419     
12.4423200007877     0.237676099972259    69.3542793736258     0.942807623350689    -13.6449220395863    0.942807623350689    -13.6449220395863    0.237676099972259    69.3542793736258     
12.5517160965001     0.239610167274405    69.2837571752742     0.942281073702878    -13.7594503976541    0.942281073702878    -13.7594503976541    0.239610167274405    69.2837571752742     
12.6620740309819     0.241558270248726    69.2120488532373     0.941746955783805    -13.8748610304989    0.941746955783805    -13.8748610304989    0.241558270248726    69.2120488532373     
12.7734022609682     0.243520460975317    69.1391517121867     0.94120516465099     -13.9911588167396    0.94120516465099     -13.9911588167396    0.243520460975317    69.1391517121867     
12.8857093175481     0.245496790476974    69.0650630631996     0.940655594267915    -14.1083486139459    0.940655594267915    -14.1083486139459    0.245496790476974    69.0650630631996     
12.9990038068183     0.247487308682076    68.9897802252738     0.940098137505756    -14.2264352571794    0.940098137505756    -14.2264352571794    0.247487308682076    68.9897802252738     
13.1132944105423     0.249492064386886    68.9133005268751     0.939532686145685    -14.3454235575055    0.939532686145685    -14.3454235575055    0.249492064386886    68.9133005268751     
13.228589886816      0.251511105217193    68.8356213075188     0.938959130881702    -14.4653183004707    0.938959130881702    -14.4653183004707    0.251511105217193    68.8356213075188     
13.3448990707388     0.253544477589365    68.7567399193817     0.938377361324114    -14.5861242445507    0.938377361324114    -14.5861242445507    0.253544477589365    68.7567399193817     
13.4622308750906     0.255592226670762    68.6766537289493     0.937787266003574    -14.7078461195635    0.937787266003574    -14.7078461195635    0.255592226670762    68.6766537289493     
13.5805942910148     0.257654396339544    68.5953601186958     0.937188732375754    -14.8304886250516    0.937188732375754    -14.8304886250516    0.257654396339544    68.5953601186958     
13.699998388707      0.259731029143871    68.5128564887965     0.936581646826721    -14.9540564286315    0.936581646826721    -14.9540564286315    0.259731029143871    68.5128564887965     
13.8204523181105     0.26182216626048     68.4291402588747     0.935965894678923    -15.0785541643085    0.935965894678923    -15.0785541643085    0.26182216626048     68.4291402588747     
13.9419653096173     0.263927847452683    68.3442088697825     0.935341360197897    -15.203986430761     0.935341360197897    -15.203986430761     0.263927847452683    68.3442088697825     
14.0645466747754     0.266048111027733    68.2580597854152     0.934707926599668    -15.3303577895886    0.934707926599668    -15.3303577895886    0.266048111027733    68.2580597854152     
14.1882058070022     0.268182993793638    68.1706904945593     0.93406547605894     -15.4576727635293    0.93406547605894     -15.4576727635293    0.268182993793638    68.1706904945593     
14.3129521823046     0.270332531015357    68.0820985127755     0.933413889717949    -15.5859358346417    0.933413889717949    -15.5859358346417    0.270332531015357    68.0820985127755     
14.4387953600048     0.272496756370434    67.992281384315      0.932753047696175    -15.7151514424538    0.932753047696175    -15.7151514424538    0.272496756370434    67.992281384315      
14.5657449834734     0.274675701904057    67.901236684071      0.932082829100813    -15.8453239820778    0.932082829100813    -15.8453239820778    0.274675701904057    67.901236684071      
14.6938107808676     0.276869397983575    67.808962019563      0.93140311203809     -15.9764578022924    0.93140311203809     -15.9764578022924    0.276869397983575    67.808962019563      
14.8230025658773     0.279077873252429    67.7154550329572     0.930713773625389    -16.1085572035892    0.930713773625389    -16.1085572035892    0.279077873252429    67.7154550329572     
14.9533302384769     0.281301154583584    67.6207134031191     0.930014690004271    -16.2416264361872    0.930014690004271    -16.2416264361872    0.281301154583584    67.6207134031191     
15.0848037856839     0.28353926703241     67.5247348477023     0.929305736354384    -16.3756696980123    0.929305736354384    -16.3756696980123    0.28353926703241     67.5247348477023     
15.2174332823242     0.285792233789051    67.42751712527       0.928586786908258    -16.5106911326432    0.928586786908258    -16.5106911326432    0.285792233789051    67.42751712527       
15.3512288918042     0.288060076130309    67.329058037451      0.927857714967062    -16.6466948272244    0.927857714967062    -16.6466948272244    0.288060076130309    67.329058037451      
15.4862008668896     0.290342813371026    67.2293554311297     0.927118392917313    -16.7836848103447    0.927118392917313    -16.7836848103447    0.290342813371026    67.2293554311297     
15.6223595504911     0.292640462815005    67.12840720067       0.926368692248522    -16.9216650498823    0.926368692248522    -16.9216650498823    0.292640462815005    67.12840720067       
15.759715376457      0.294953039705484    67.0262112901714     0.925608483571943    -17.0606394508179    0.925608483571943    -17.0606394508179    0.294953039705484    67.0262112901714     
15.8982788703724     0.297280557175159    66.9227656957606     0.924837636640209    -17.2006118530128    0.924837636640209    -17.2006118530128    0.297280557175159    66.9227656957606     
16.0380606503665     0.299623026195806    66.8180684679146     0.924056020368126    -17.341586028955     0.924056020368126    -17.341586028955     0.299623026195806    66.8180684679146     
16.1790714279255     0.301980455527523    66.7121177138165     0.923263502854519    -17.4835656814749    0.923263502854519    -17.4835656814749    0.301980455527523    66.7121177138165     
16.321322008714      0.304352851667555    66.6049115997452     0.922459951405107    -17.626554441424     0.922459951405107    -17.626554441424     0.304352851667555    66.6049115997452     
16.4648232934025     0.306740218798814    66.4964483534948     0.921645232556555    -17.7705558653265    0.921645232556555    -17.7705558653265    0.306740218798814    66.4964483534948     
16.6095862785033     0.309142558738051    66.3867262668281     0.920819212101672    -17.9155734329969    0.920819212101672    -17.9155734329969    0.309142558738051    66.3867262668281     
16.7556220572127     0.311559870883728    66.2757436979596     0.9199817551157      -18.0616105451265    0.9199817551157      -18.0616105451265    0.311559870883728    66.2757436979596     
16.9029418202614     0.313992152163619    66.1634990740699     0.919132725983859    -18.2086705208409    0.919132725983859    -18.2086705208409    0.313992152163619    66.1634990740699     
17.0515568567718     0.316439396982164    66.0499908938506     0.918271988430027    -18.3567565952252    0.918271988430027    -18.3567565952252    0.316439396982164    66.0499908938506     
17.2014785551231     0.318901597167609    65.9352177300777     0.917399405546721    -18.5058719168223    0.917399405546721    -18.5058719168223    0.318901597167609    65.9352177300777     
17.3527184038244     0.321378741918944    65.8191782322144     0.91651483982624     -18.6560195450995    0.91651483982624     -18.6560195450995    0.321378741918944    65.8191782322144     
17.5052879923943     0.323870817752708    65.7018711290434     0.915618153193122    -18.8072024478892    0.915618153193122    -18.8072024478892    0.323870817752708    65.7018711290434     
17.6591990122498     0.32637780844965     65.5832952313255     0.914709207037878    -18.9594234988006    0.914709207037878    -18.9594234988006    0.32637780844965     65.5832952313255     
17.8144632576016     0.32889969500132     65.4634494344845     0.913787862252013    -19.1126854746057    0.913787862252013    -19.1126854746057    0.32889969500132     65.4634494344845     
17.9710926263585     0.331436455556595    65.3423327213199     0.912853979264384    -19.266991052598     0.912853979264384    -19.266991052598     0.331436455556595    65.3423327213199     
18.1290991210384     0.333988065368198    65.2199441647435     0.911907418078891    -19.4223428079275    0.911907418078891    -19.4223428079275    0.333988065368198    65.2199441647435     
18.2884948496886     0.336554496739234    65.0962829305402     0.910948038313505    -19.5787432109102    0.910948038313505    -19.5787432109102    0.336554496739234    65.0962829305402     
18.4492920268136     0.339135718969808    64.9713482801523     0.909975699240719    -19.7361946243154    0.909975699240719    -19.7361946243154    0.339135718969808    64.9713482801523     
18.6115029743109     0.341731698303721    64.8451395734867     0.908990259829317    -19.89469930063      0.908990259829317    -19.89469930063      0.341731698303721    64.8451395734867     
18.7751401224152     0.344342397875348    64.7176562717413     0.90799157878763     -20.0542593793023    0.90799157878763     -20.0542593793023    0.344342397875348    64.7176562717413     
18.9402160106511     0.346967777656681    64.5888979402538     0.906979514608106    -20.2148768839648    0.906979514608106    -20.2148768839648    0.346967777656681    64.5888979402538     
19.1067432887941     0.349607794404635    64.4588642513668     0.905953925613433    -20.3765537196396    0.905953925613433    -20.3765537196396    0.349607794404635    64.4588642513668     
19.2747347178396     0.352262401608621    64.3275549873132     0.904914670003959    -20.5392916699241    0.904914670003959    -20.5392916699241    0.352262401608621    64.3275549873132     
19.444203170981      0.35493154943848     64.1949700431146     0.903861605906712    -20.7030923941631    0.903861605906712    -20.7030923941631    0.35493154943848     64.1949700431146     
19.6151616345963     0.357615184692788    64.0611094294972     0.90279459142578     -20.867957424604     0.90279459142578     -20.867957424604     0.357615184692788    64.0611094294972     
19.787623209243      0.360313250747595    63.9259732758198     0.901713484694182    -21.0338881635386    0.901713484694182    -21.0338881635386    0.360313250747595    63.9259732758198     
19.9616011106619     0.363025687505678    63.7895618330138     0.900618143927252    -21.2008858804344    0.900618143927252    -21.2008858804344    0.363025687505678    63.7895618330138     
20.1371086707903     0.36575243134632     63.6518754765333     0.899508427477453    -21.3689517090534    0.899508427477453    -21.3689517090534    0.36575243134632     63.6518754765333     
20.3141593387832     0.368493415075713    63.5129147093145     0.898384193890728    -21.5380866445643    0.898384193890728    -21.5380866445643    0.368493415075713    63.5129147093145     
20.4927666820441     0.371248567878004    63.3726801647411     0.897245301964324    -21.708291540646     0.897245301964324    -21.708291540646     0.371248567878004    63.3726801647411     
20.6729443872647     0.374017815267063    63.2311726096166     0.896091610806046    -21.8795671065856    0.896091610806046    -21.8795671065856    0.374017815267063    63.2311726096166     
20.8547062614733     0.376801079039059    63.0883929471371     0.894922979895135    -22.0519139043748    0.894922979895135    -22.0519139043748    0.376801079039059    63.0883929471371     
21.0380662330936     0.37959827722584     62.9443422198686     0.8937392691445      -22.2253323458028    0.8937392691445      -22.2253323458028    0.37959827722584     62.9443422198686     
21.2230383530113     0.382409324049235    62.7990216127226     0.892540338964495    -22.3998226895489    0.892540338964495    -22.3998226895489    0.382409324049235    62.7990216127226     
21.4096367956512     0.385234129876341    62.6524324559281     0.891326050328185    -22.5753850382805    0.891326050328185    -22.5753850382805    0.385234129876341    62.6524324559281     
21.5978758600634     0.388072601175806    62.5045762280012     0.890096264838054    -22.7520193357518    0.890096264838054    -22.7520193357518    0.388072601175806    62.5045762280012     
21.7877699710188     0.390924640475268    62.3554545587055     0.888850844794201    -22.9297253639122    0.888850844794201    -22.9297253639122    0.390924640475268    62.3554545587055     
21.9793336801148     0.39379014631989     62.2050692320072     0.887589653263933    -23.1085027400199    0.887589653263933    -23.1085027400199    0.39379014631989     62.2050692320072     
22.17258166689       0.39666901323222     62.0534221890134     0.886312554152889    -23.2883509137714    0.886312554152889    -23.2883509137714    0.39666901323222     62.0534221890134     
22.3675287399494     0.399561131673264    61.9005155309033     0.885019412277462    -23.4692691644386    0.885019412277462    -23.4692691644386    0.399561131673264    61.9005155309033     
22.5641898380992     0.402466388005013    61.7463515218381     0.883710093438718    -23.6512565980263    0.883710093438718    -23.6512565980263    0.402466388005013    61.7463515218381     
22.7625800314913     0.405384664454372    61.5909325918557     0.882384464497678    -23.8343121444455    0.882384464497678    -23.8343121444455    0.405384664454372    61.5909325918557     
22.9627145227782     0.408315839078625    61.4342613397429     0.881042393451892    -24.0184345547081    0.881042393451892    -24.0184345547081    0.408315839078625    61.4342613397429     
23.1646086482782     0.411259785732493    61.2763405358846     0.879683749513438    -24.203622398145     0.879683749513438    -24.203622398145     0.411259785732493    61.2763405358846     
23.3682778791506     0.414216374036856    61.1171731250863     0.878308403188174    -24.3898740596498    0.878308403188174    -24.3898740596498    0.414216374036856    61.1171731250863     
23.5737378225807     0.417185469349206    60.956762229369      0.876916226356252    -24.5771877369511    0.876916226356252    -24.5771877369511    0.417185469349206    60.956762229369      
23.7810042229768     0.420166932735922    60.795111150731      0.875507092353906    -24.7655614379169    0.875507092353906    -24.7655614379169    0.420166932735922    60.795111150731      
23.9900929631755     0.423160620946432    60.6322233738751     0.87408087605644     -24.954992977892     0.87408087605644     -24.954992977892     0.423160620946432    60.6322233738751     
24.2010200656599     0.426166386389336    60.4681025689005     0.872637453962357    -25.1454799770741    0.872637453962357    -25.1454799770741    0.426166386389336    60.4681025689005     
24.4138016937866     0.429184077110567    60.3027525939515     0.871176704278658    -25.3370198579285    0.871176704278658    -25.3370198579285    0.429184077110567    60.3027525939515     
24.6284541530248     0.432213536773651    60.136177497826      0.869698507007164    -25.5296098426458    0.869698507007164    -25.5296098426458    0.432213536773651    60.136177497826      
24.8449938922055     0.435254604642165    59.9683815225356     0.868202744031921    -25.7232469506461    0.868202744031921    -25.7232469506461    0.435254604642165    59.9683815225356     
25.0634375047821     0.438307115564467    59.7993691058165     0.866689299207604    -25.9179279961329    0.866689299207604    -25.9179279961329    0.438307115564467    59.7993691058165     
25.283801730102      0.441370899960725    59.6291448835897     0.86515805844879     -26.1136495856969    0.86515805844879     -26.1136495856969    0.441370899960725    59.6291448835897     
25.5061034546891     0.444445783812381    59.4577136923645     0.863608909820143    -26.3104081159768    0.863608909820143    -26.3104081159768    0.444445783812381    59.4577136923645     
25.7303597135382     0.44753158865409     59.2850805715823     0.862041743627485    -26.5081997713786    0.862041743627485    -26.5081997713786    0.44753158865409     59.2850805715823     
25.9565876914201     0.450628131568201    59.1112507659016     0.860456452509485    -26.7070205218546    0.860456452509485    -26.7070205218546    0.450628131568201    59.1112507659016     
26.1848047241985     0.453735225181858    58.9362297274144     0.858852931530188    -26.9068661207491    0.858852931530188    -26.9068661207491    0.453735225181858    58.9362297274144     
26.4150283001584     0.456852677666823    58.7600231177969     0.857231078272076    -27.1077321027115    0.857231078272076    -27.1077321027115    0.456852677666823    58.7600231177969     
26.6472760613467     0.459980292742006    58.5826368103872     0.855590792929736    -27.3096137816797    0.855590792929736    -27.3096137816797    0.459980292742006    58.5826368103872     
26.8815658049233     0.463117869678879    58.4040768921888     0.853931978403987    -27.5125062489398    0.853931978403987    -27.5125062489398    0.463117869678879    58.4040768921888     
27.1179154845255     0.466265203309746    58.2243496657953     0.852254540396463    -27.7164043712624    0.852254540396463    -27.7164043712624    0.466265203309746    58.2243496657953     
27.3563432116438     0.469422084038967    58.0434616512352     0.850558387504451    -27.9213027891194    0.850558387504451    -27.9213027891194    0.469422084038967    58.0434616512352     
27.5968672570095     0.472588297857239    57.8614195877296     0.848843431316071    -28.1271959149875    0.848843431316071    -28.1271959149875    0.472588297857239    57.8614195877296     
27.8395060519946     0.475763626358915    57.6782304353638     0.847109586505558    -28.3340779317372    0.847109586505558    -28.3340779317372    0.475763626358915    57.6782304353638     
28.084278190025      0.478947846762482    57.4939013766666     0.84535677092864     -28.5419427911138    0.84535677092864     -28.5419427911138    0.478947846762482    57.4939013766666     
28.3312024280044     0.482140731934204    57.3084398180966     0.84358490571793     -28.7507842123115    0.84358490571793     -28.7507842123115    0.482140731934204    57.3084398180966     
28.5802976877522     0.485342050415073    57.1218533914265     0.84179391537821     -28.9605956806483    0.84179391537821     -28.9605956806483    0.485342050415073    57.1218533914265     
28.8315830574535     0.488551566450958    56.9341499550327     0.839983727881474    -29.1713704463364    0.839983727881474    -29.1713704463364    0.488551566450958    56.9341499550327     
29.0850777931212     0.49176904002619     56.7453375950742     0.838154274761769    -29.3831015233616    0.838154274761769    -29.3831015233616    0.49176904002619     56.7453375950742     
29.3408013200727     0.494994226900468    56.555424626569      0.836305491209541    -29.5957816884663    0.836305491209541    -29.5957816884663    0.494994226900468    56.555424626569      
29.5987732344172     0.498226878649224    56.3644195943566     0.834437316165577    -29.8094034802453    0.834437316165577    -29.8094034802453    0.498226878649224    56.3644195943566     
29.8590133045582     0.501466742707449    56.1723312739483     0.832549692414298    -30.0239591983527    0.832549692414298    -30.0239591983527    0.501466742707449    56.1723312739483     
30.1215414727083     0.504713562417002    55.9791686722615     0.830642566676368    -30.2394409028263    0.830642566676368    -30.2394409028263    0.504713562417002    55.9791686722615     
30.3863778564169     0.50796707707747     55.7849410282315     0.828715889700492    -30.4558404135322    0.828715889700492    -30.4558404135322    0.50796707707747     55.7849410282315     
30.6535427501123     0.511227022000554    55.5896578133054     0.826769616354265    -30.6731493097287    0.826769616354265    -30.6731493097287    0.511227022000554    55.5896578133054     
30.9230566266566     0.514493128568074    55.3933287318047     0.824803705714064    -30.8913589297595    0.824803705714064    -30.8913589297595    0.514493128568074    55.3933287318047     
31.1949401389145     0.51776512429353     55.1959637211651     0.822818121153687    -31.1104603708707    0.822818121153687    -31.1104603708707    0.51776512429353     55.1959637211651     
31.469214121336      0.521042732887291    54.9975729520422     0.820812830431851    -31.3304444891604    0.820812830431851    -31.3304444891604    0.521042732887291    54.9975729520422     
31.7458995915534     0.524325674325414    54.7981668282843     0.818787805778203    -31.5513018996623    0.818787805778203    -31.5513018996623    0.524325674325414    54.7981668282843     
32.0250177519909     0.527613664922055    54.5977559867706     0.816743023977924    -31.7730229765617    0.816743023977924    -31.7730229765617    0.527613664922055    54.5977559867706     
32.3065899914902     0.530906417405535    54.3963512971098     0.814678466454696    -31.9955978535524    0.814678466454696    -31.9955978535524    0.530906417405535    54.3963512971098     
32.5906378869492     0.53420364099803     54.1939638611967     0.81259411935193     -32.2190164243342    0.81259411935193     -32.2190164243342    0.53420364099803     54.1939638611967     
32.8771832049754     0.537505041498816    53.9906050126305     0.810489973612152    -32.4432683432489    0.810489973612152    -32.4432683432489    0.537505041498816    53.9906050126305     
33.166247903554      0.540810321371188    53.7862863159828     0.808366025054449    -32.6683430260655    0.808366025054449    -32.6683430260655    0.540810321371188    53.7862863159828     
33.4578541337305     0.544119179832891    53.5810195659227     0.806222274449808    -32.8942296509091    0.806222274449808    -32.8942296509091    0.544119179832891    53.5810195659227     
33.7520242413081     0.547431312950138    53.3748167861914     0.804058727594267    -33.1209171593393    0.804058727594267    -33.1209171593393    0.547431312950138    53.3748167861914     
34.0487807685599     0.550746413735122    53.1676902284271     0.801875395379717    -33.348394257577     0.801875395379717    -33.348394257577     0.550746413735122    53.1676902284271     
34.3481464559569     0.554064172247015    52.9596523708394     0.799672293862309    -33.5766494178833    0.799672293862309    -33.5766494178833    0.554064172247015    52.9596523708394     
34.6501442439098     0.557384275696431    52.750715916728      0.797449444328279    -33.8056708800922    0.797449444328279    -33.8056708800922    0.557384275696431    52.750715916728      
34.9547972745276     0.56070640855326     52.540893792849      0.79520687335709     -34.0354466532958    0.79520687335709     -34.0354466532958    0.56070640855326     52.540893792849      
35.2621288933905     0.564030252657846    52.3301991476256     0.792944612881821    -34.2659645176851    0.792944612881821    -34.2659645176851    0.564030252657846    52.3301991476256     
35.5721626513393     0.567355487335449    52.1186453492023     0.790662700246637    -34.4972120265459    0.790662700246637    -34.4972120265459    0.567355487335449    52.1186453492023     
35.8849223062796     0.570681789513936    51.9062459833423     0.788361178261217    -34.7291765084127    0.788361178261217    -34.7291765084127    0.570681789513936    51.9062459833423     
36.200431825003      0.574008833844598    51.6930148511678     0.78604009525213     -34.9618450693777    0.78604009525213     -34.9618450693777    0.574008833844598    51.6930148511678     
36.518715385023      0.577336292826056    51.4789659667422     0.783699505110908    -35.1952045955585    0.783699505110908    -35.1952045955585    0.577336292826056    51.4789659667422     
36.8397973764283     0.580663836931184    51.2641135544931     0.781339467338839    -35.4292417557248    0.781339467338839    -35.4292417557248    0.580663836931184    51.2641135544931     
37.1637024037514     0.583991134736867    51.0484720464806     0.778960047088296    -35.6639430040784    0.778960047088296    -35.6639430040784    0.583991134736867    51.0484720464806     
37.4904552878544     0.587317853056654    50.8320560795045     0.776561315200538    -35.899294583195     0.776561315200538    -35.899294583195     0.587317853056654    50.8320560795045     
37.8200810678305     0.590643657076058    50.6148804920569     0.774143348239862    -36.1352825271195    0.774143348239862    -36.1352825271195    0.590643657076058    50.6148804920569     
38.1526050029235     0.593968210490536    50.3969603211151     0.771706228524082    -36.3718926646211    0.771706228524082    -36.3718926646211    0.593968210490536    50.3969603211151     
38.4880525744627     0.597291175645893    50.1783107987835     0.769250044151118    -36.609110622599     0.769250044151118    -36.609110622599     0.597291175645893    50.1783107987835     
38.826449487816      0.600612213681168    49.9589473487741     0.76677488902176     -36.8469218296486    0.76677488902176     -36.8469218296486    0.600612213681168    49.9589473487741     
39.1678216743595     0.603930984673707    49.7388855827396     0.764280862858396    -37.0853115197751    0.764280862858396    -37.0853115197751    0.603930984673707    49.7388855827396     
39.5121952934646     0.607247147786448    49.5181412964506     0.761768071219732    -37.3242647362631    0.761768071219732    -37.3242647362631    0.607247147786448    49.5181412964506     
39.8595967345028     0.610560361417192    49.2967304658236     0.759236625511343    -37.5637663356943    0.759236625511343    -37.5637663356943    0.610560361417192    49.2967304658236     
40.2100526188677     0.613870283349773    49.0746692427995     0.756686642992055    -37.8038009921141    0.756686642992055    -37.8038009921141    0.613870283349773    49.0746692427995     
40.5635898020149     0.61717657090698     48.8519739510763     0.754118246776075    -38.0443532013448    0.754118246776075    -38.0443532013448    0.61717657090698     48.8519739510763     
40.9202353755205     0.620478881105083    48.6286610816974     0.751531565830772    -38.2854072854421    0.751531565830772    -38.2854072854421    0.620478881105083    48.6286610816974     
41.2800166691564     0.623776870809804    48.4047472884976     0.748926734970152    -38.5269473972925    0.748926734970152    -38.5269473972925    0.623776870809804    48.4047472884976     
41.6429612529851     0.627070196893659    48.1802493834086     0.746303894843867    -38.7689575253538    0.746303894843867    -38.7689575253538    0.627070196893659    48.1802493834086     
42.0090969394722     0.630358516394374    47.9551843316314     0.74366319192182     -39.011421498524     0.74366319192182     -39.011421498524     0.630358516394374    47.9551843316314     
42.3784517856176     0.633641486674386    47.7295692466716     0.741004778474262    -39.2543229911518    0.741004778474262    -39.2543229911518    0.633641486674386    47.7295692466716     
42.7510540951057     0.636918765581136    47.5034213852471     0.738328812547358    -39.4976455281699    0.738328812547358    -39.4976455281699    0.636918765581136    47.5034213852471     
43.1269324204742     0.640190011608055    47.2767581420685     0.735635457934302    -39.7413724903582    0.735635457934302    -39.7413724903582    0.640190011608055    47.2767581420685     
43.5061155653021     0.643454884056083    47.0495970444961     0.732924884141765    -39.9854871197286    0.732924884141765    -39.9854871197286    0.643454884056083    47.0495970444961     
43.8886325864169     0.646713043195499    46.8219557470793     0.730197266351923    -40.2299725250274    0.730197266351923    -40.2299725250274    0.646713043195499    46.8219557470793     
44.2745127961211     0.649964150427971    46.5938520259796     0.727452785379786    -40.4748116873544    0.727452785379786    -40.4748116873544    0.649964150427971    46.5938520259796     
44.6637857644388     0.653207868448596    46.3653037732823     0.724691627626106    -40.7199874658913    0.724691627626106    -40.7199874658913    0.653207868448596    46.3653037732823     
45.0564813213813     0.656443861407753    46.136328991204      0.72191398502565     -40.9654826037352    0.72191398502565     -40.9654826037352    0.656443861407753    46.136328991204      
45.452629559233      0.659671795072672    45.9069457861954     0.719120054990984    -41.2112797338365    0.719120054990984    -41.2112797338365    0.659671795072672    45.9069457861954     
45.8522608348575     0.662891336988416    45.6771723629502     0.716310040351771    -41.4573613850297    0.716310040351771    -41.4573613850297    0.662891336988416    45.6771723629502     
46.2554057720238     0.66610215663825     45.4470270183181     0.713484149289564    -41.7037099881596    0.713484149289564    -41.7037099881596    0.66610215663825     45.4470270183181     
46.6620952637531     0.669303925603078    45.2165281351346     0.710642595268235    -41.9503078822911    0.710642595268235    -41.9503078822911    0.669303925603078    45.2165281351346     
47.0723604746859     0.672496317719921    44.9856941759631     0.70778559695992     -42.1971373210059    0.70778559695992     -42.1971373210059    0.672496317719921    44.9856941759631     
47.4862328434702     0.675679009239086    44.7545436767674     0.704913378166755    -42.444180478768     0.704913378166755    -42.444180478768     0.675679009239086    44.7545436767674     
47.9037440851709     0.678851678980045    44.5230952405064     0.702026167738224    -42.6914194573672    0.702026167738224    -42.6914194573672    0.678851678980045    44.5230952405064     
48.3249261936999     0.682014008485694    44.291367530666      0.699124199484388    -42.9388362924253    0.699124199484388    -42.9388362924253    0.682014008485694    44.291367530666      
48.7498114442679     0.685165682174907    44.0593792647312     0.696207712084923    -43.1864129599604    0.696207712084923    -43.1864129599604    0.685165682174907    44.0593792647312     
49.1784323958575     0.688306387493198    43.8271492076022     0.693276948994135    -43.4341313830083    0.693276948994135    -43.4341313830083    0.688306387493198    43.8271492076022     
49.6108218937183     0.691435815061298    43.5946961649632     0.690332158341983    -43.6819734382903    0.690332158341983    -43.6819734382903    0.691435815061298    43.5946961649632     
50.0470130718839     0.694553658821551    43.362038976607      0.68737359283121     -43.9299209629237    0.68737359283121     -43.9299209629237    0.694553658821551    43.362038976607      
50.4870393557109     0.69765961618188     43.1291965097239     0.684401509630747    -44.1779557611702    0.684401509630747    -44.1779557611702    0.69765961618188     43.1291965097239     
50.9309344644402     0.700753388157213    42.8961876521611     0.681416170265367    -44.4260596112101    0.681416170265367    -44.4260596112101    0.700753388157213    42.8961876521611     
51.3787324137811     0.703834679508242    42.6630313056548     0.6784178405018      -44.6742142719465    0.6784178405018      -44.6742142719465    0.703834679508242    42.6630313056548     
51.8304675185176     0.706903198877298    42.4297463790466     0.675406790231388    -44.9224014898228    0.675406790231388    -44.9224014898228    0.706903198877298    42.4297463790466     
52.2861743951384     0.709958658921272    42.1963517814845     0.672383293349401    -45.1706030056561    0.672383293349401    -45.1706030056561    0.709958658921272    42.1963517814845     
52.7458879644892     0.713000776441338    41.9628664156218     0.669347627631144    -45.4188005614715    0.669347627631144    -45.4188005614715    0.713000776441338    41.9628664156218     
53.2096434544488     0.716029272509467    41.7293091708137     0.666300074604959    -45.6669759073402    0.666300074604959    -45.6669759073402    0.716029272509467    41.7293091708137     
53.6774764026288     0.719043872591496    41.4956989163192     0.663240919422306    -45.9151108082086    0.663240919422306    -45.9151108082086    0.719043872591496    41.4956989163192     
54.1494226590964     0.722044306666688    41.2620544945183     0.660170450725015    -46.1631870507156    0.660170450725015    -46.1631870507156    0.722044306666688    41.2620544945183     
54.625518389122      0.725030309343609    41.0283947141465     0.657088960509864    -46.4111864499892    0.657088960509864    -46.4111864499892    0.725030309343609    41.0283947141465     
55.1058000759503     0.72800161997226     40.7947383435541     0.653996743990668    -46.6590908564193    0.653996743990668    -46.6590908564193    0.72800161997226     40.7947383435541     
55.5903045235965     0.730957982752335    40.5611041039953     0.650894099457937    -46.9068821623998    0.650894099457937    -46.9068821623998    0.730957982752335    40.5611041039953     
56.0790688596658     0.73389914683746     40.3275106629575     0.647781328136378    -47.1545423090309    0.647781328136378    -47.1545423090309    0.73389914683746     40.3275106629575     
56.572130538199      0.736824866435379    40.09397662753       0.644658734040311    -47.4020532927797    0.644658734040311    -47.4020532927797    0.736824866435379    40.09397662753       
57.0695273425426     0.739734900903974    39.8605205378234     0.641526623827149    -47.6493971720926    0.641526623827149    -47.6493971720926    0.739734900903974    39.8605205378234     
57.5712973882441     0.74262901484299     39.6271608604439     0.638385306649199    -47.8965560739498    0.638385306649199    -47.8965560739498    0.74262901484299     39.6271608604439     
58.0774791259726     0.745506978181457    39.3939159820266     0.63523509400383     -48.1435122003608    0.63523509400383     -48.1435122003608    0.745506978181457    39.3939159820266     
58.5881113444655     0.748368566260696    39.1608042028361     0.632076299582266    -48.3902478347945    0.632076299582266    -48.3902478347945    0.748368566260696    39.1608042028361     
59.1032331735009     0.751213559912847    38.9278437304378     0.62890923911709     -48.6367453485351    0.62890923911709     -48.6367453485351    0.751213559912847    38.9278437304378     
59.6228840868959     0.754041745534865    38.6950526734471     0.625734230228722    -48.8829872069611    0.625734230228722    -48.8829872069611    0.754041745534865    38.6950526734471     
60.1471039055316     0.756852915157937    38.4624490353604     0.622551592270944    -49.1289559757425    0.622551592270944    -49.1289559757425    0.756852915157937    38.4624490353604     
60.6759328004048     0.759646866512298    38.2300507084715     0.619361646175691    -49.3746343269513    0.619361646175691    -49.3746343269513    0.759646866512298    38.2300507084715     
61.2094112957058     0.762423403087338    37.9978754678843     0.616164714297282    -49.6200050450759    0.616164714297282    -49.6200050450759    0.762423403087338    37.9978754678843     
61.7475802719242     0.765182334187062    37.7659409656195     0.612961120256232    -49.8650510329409    0.612961120256232    -49.8650510329409    0.765182334187062    37.7659409656195     
62.2904809689816     0.767923474980812    37.5342647248246     0.609751188782832    -50.1097553175226    0.609751188782832    -50.1097553175226    0.767923474980812    37.5342647248246     
62.8381549893913     0.770646646549268    37.30286413409       0.606535245560667    -50.3541010556592    0.606535245560667    -50.3541010556592    0.770646646549268    37.30286413409       
63.390644301447      0.773351675925727    37.0717564418752     0.603313617070193    -50.5980715396493    0.603313617070193    -50.5980715396493    0.773351675925727    37.0717564418752     
63.9479912424382     0.776038396132615    36.8409587510511     0.600086630432634    -50.8416502027342    0.600086630432634    -50.8416502027342    0.776038396132615    36.8409587510511     
64.5102385218951     0.778706646213277    36.6104880135615     0.596854613254246    -51.0848206244612    0.596854613254246    -51.0848206244612    0.778706646213277    36.6104880135615     
65.077429224861      0.781356271259068    36.3803610252053     0.593617893471187    -51.3275665359248    0.593617893471187    -51.3275665359248    0.781356271259068    36.3803610252053     
65.6496068151939     0.783987122431709    36.1505944205474     0.590376799195148    -51.569871824879     0.590376799195148    -51.569871824879     0.783987122431709    36.1505944205474     
66.2268151388974     0.786599056980983    35.9212046679587     0.587131658559828    -51.8117205407208    0.587131658559828    -51.8117205407208    0.786599056980983    35.9212046679587     
66.8090984274806     0.789191938257796    35.6922080647885     0.583882799568515    -52.0530968993401    0.583882799568515    -52.0530968993401    0.789191938257796    35.6922080647885     
67.3965013013475     0.791765635722619    35.4636207326731     0.58063054994283     -52.2939852878326    0.58063054994283     -52.2939852878326    0.791765635722619    35.4636207326731     
67.9890687732159     0.794320024949347    35.2354586129862     0.577375236972827    -52.5343702690716    0.577375236972827    -52.5343702690716    0.794320024949347    35.2354586129862     
68.5868462515675     0.796854987624705    35.0077374624256     0.574117187368591    -52.7742365861421    0.574117187368591    -52.7742365861421    0.796854987624705    35.0077374624256     
69.1898795441266     0.799370411543132    34.7804728487494     0.570856727113437    -53.013569166625     0.570856727113437    -53.013569166625     0.799370411543132    34.7804728487494     
69.7982148613713     0.801866190597325    34.5536801466538     0.567594181318906    -53.25235312674      0.567594181318906    -53.25235312674      0.801866190597325    34.5536801466538     
70.4118988200742     0.804342224764414    34.3273745338035     0.564329874081607    -53.4905737753345    0.564329874081607    -53.4905737753345    0.804342224764414    34.3273745338035     
71.0309784468743     0.806798420087901    34.1015709870089     0.561064128342135    -53.7282166177252    0.561064128342135    -53.7282166177252    0.806798420087901    34.1015709870089     
71.6555011818811     0.809234688655431    33.8762842785563     0.557797265746075    -53.9652673593871    0.557797265746075    -53.9652673593871    0.809234688655431    33.8762842785563     
72.2855148823098     0.811650948572438    33.6515289726912     0.554529606507291    -54.2017119094885    0.554529606507291    -54.2017119094885    0.811650948572438    33.6515289726912     
72.9210678261488     0.814047123931814    33.4273194222551     0.551261469273587    -54.4375363842711    0.551261469273587    -54.4375363842711    0.814047123931814    33.4273194222551     
73.5622087158588     0.816423144779625    33.2036697654792     0.547993170994815    -54.6727271102744    0.547993170994815    -54.6727271102744    0.816423144779625    33.2036697654792     
74.2089866821053     0.818778947077022    32.980593922933      0.544725026793614    -54.907270627403     0.544725026793614    -54.907270627403     0.818778947077022    32.980593922933      
74.8614512875232     0.821114472658431    32.758105594628      0.541457349838766    -55.1411536918394    0.541457349838766    -55.1411536918394    0.821114472658431    32.758105594628      
75.519652530515      0.823429669186092    32.5362182572819     0.538190451221346    -55.3743632787952    0.538190451221346    -55.3743632787952    0.823429669186092    32.5362182572819     
76.1836408490822     0.825724490101094    32.3149451617374     0.534924639833751    -55.6068865851076    0.534924639833751    -55.6068865851076    0.825724490101094    32.3149451617374     
76.8534671246899     0.827998894570998    32.0942993305388     0.531660222251602    -55.8387110316769    0.531660222251602    -55.8387110316769    0.827998894570998    32.0942993305388     
77.5291826861666     0.83025284743416     31.8742935556652     0.528397502618719    -56.0698242657477    0.528397502618719    -56.0698242657477    0.83025284743416     31.8742935556652     
78.2108393136367     0.832486319140852    31.6549403964214     0.525136782535123    -56.3002141630315    0.525136782535123    -56.3002141630315    0.832486319140852    31.6549403964214     
78.8984892424894     0.83469928569131     31.4362521774845     0.521878360948233    -56.5298688296719    0.521878360948233    -56.5298688296719    0.83469928569131     31.4362521774845     
79.5921851673805     0.83689172857085     31.2182409871041     0.518622534047221    -56.7587766040581    0.518622534047221    -56.7587766040581    0.83689172857085     31.2182409871041     
80.2919802462709     0.839063634682108    31.0009186754605     0.515369595160656    -56.9869260584776    0.515369595160656    -56.9869260584776    0.839063634682108    31.0009186754605     
80.9979281045004     0.841214996274603    30.7842968531716     0.512119834657427    -57.2143060006202    0.512119834657427    -57.2143060006202    0.841214996274603    30.7842968531716     
81.7100828388961     0.843345810871663    30.5683868899571     0.50887353985105     -57.4409054749247    0.50887353985105     -57.4409054749247    0.843345810871663    30.5683868899571     
82.4284990219189     0.84545608119492     30.3531999134482     0.505630994907326    -57.6667137637792    0.505630994907326    -57.6667137637792    0.84545608119492     30.3531999134482     
83.1532317058447     0.847545815086411    30.1387468081518     0.502392480755439    -57.8917203885654    0.502392480755439    -57.8917203885654    0.847545815086411    30.1387468081518     
83.884336426983      0.849615025428504    29.9250382145569     0.499158275002491    -58.1159151105618    0.499158275002491    -58.1159151105618    0.849615025428504    29.9250382145569     
84.6218692099333     0.851663730061661    29.7120845283922     0.495928651851501    -58.3392879316936    0.495928651851501    -58.3392879316936    0.851663730061661    29.7120845283922     
85.3658865718777     0.853691951700286    29.4998959000217     0.492703882022903    -58.5618290951441    0.492703882022903    -58.5618290951441    0.853691951700286    29.4998959000217     
86.116445526912      0.855699717846666    29.2884822339875     0.489484232679523    -58.7835290858191    0.489484232679523    -58.7835290858191    0.855699717846666    29.2884822339875     
86.8736035904146     0.857687060703217    29.0778531886885     0.486269967355062    -59.0043786306741    0.486269967355062    -59.0043786306741    0.857687060703217    29.0778531886885     
87.637418783454      0.859654017083095    28.8680181761977     0.4830613458861      -59.2243686989022    0.4830613458861      -59.2243686989022    0.859654017083095    28.8680181761977     
88.4079496372351     0.86160062831934     28.6589863622141     0.479858624347577    -59.4434905019866    0.479858624347577    -59.4434905019866    0.86160062831934     28.6589863622141     
89.1852551975841     0.863526940172651    28.4507666661471     0.476662054991781    -59.6617354936206    0.476662054991781    -59.6617354936206    0.863526940172651    28.4507666661471     
89.9693950294735     0.865433002737907    28.2433677613301     0.473471886190828    -59.8790953694968    0.473471886190828    -59.8790953694968    0.865433002737907    28.2433677613301     
90.7604292215864     0.867318870349567    28.0367980753614     0.47028836238261     -60.0955620669687    0.47028836238261     -60.0955620669687    0.867318870349567    28.0367980753614     
91.5584183909211     0.869184601486056    27.8310657905701     0.467111724020159    -60.3111277645862    0.467111724020159    -60.3111277645862    0.869184601486056    27.8310657905701     
92.3634236874364     0.871030258673266    27.6261788446018     0.463942207524488    -60.5257848815116    0.463942207524488    -60.5257848815116    0.871030258673266    27.6261788446018     
93.175506798737      0.872855908387264    27.4221449311235     0.46078004524078     -60.739526076814     0.46078004524078     -60.739526076814     0.872855908387264    27.4221449311235     
93.9947299548014     0.874661620956327    27.2189715006455     0.45762546539798     -60.9523442486469    0.45762546539798     -60.9523442486469    0.874661620956327    27.2189715006455     
94.8211559327499     0.876447470462437    27.0166657614529     0.454478692071691    -61.1642325333156    0.454478692071691    -61.1642325333156    0.876447470462437    27.0166657614529     
95.6548480616555     0.8782135346423      26.8152346806482     0.451339945150375    -61.3751843042318    0.451339945150375    -61.3751843042318    0.8782135346423      26.8152346806482     
96.495870227397      0.879959894788024    26.6146849853003     0.448209440304809    -61.5851931707615    0.448209440304809    -61.5851931707615    0.879959894788024    26.6146849853003     
97.3442868775541     0.881686635647556    26.4150231636957     0.445087388960738    -61.7942529769698    0.445087388960738    -61.7942529769698    0.881686635647556    26.4150231636957     
98.2001630263462     0.88339384532496     26.2162554666905     0.441973998274696    -62.0023578002643    0.441973998274696    -62.0023578002643    0.88339384532496     26.2162554666905     
99.063564259615      0.885081615180663    26.0183879091572     0.438869471112926    -62.2095019499416    0.438869471112926    -62.2095019499416    0.885081615180663    26.0183879091572     
99.9345567398497     0.886750039731732    25.8214262715268     0.435774006033367    -62.4156799656393    0.435774006033367    -62.4156799656393    0.886750039731732    25.8214262715268     
100.813207211257     0.888399216552286    25.625376101421      0.432687797270643    -62.6208866156952    0.432687797270643    -62.6208866156952    0.888399216552286    25.625376101421      
101.699583004876     0.89002924617415     25.4302427153688     0.429611034723999    -62.8251168954228    0.429611034723999    -62.8251168954228    0.89002924617415     25.4302427153688     
102.593752043738     0.891640231987806    25.2360312006095     0.426543903948096    -63.0283660252981    0.426543903948096    -63.0283660252981    0.891640231987806    25.2360312006095     
103.49578284807      0.893232280143746    25.0427464169739     0.423486586146681    -63.2306294490678    0.423486586146681    -63.2306294490678    0.893232280143746    25.0427464169739     
104.405744540549     0.894805499454295    24.8503929988437     0.420439258168973    -63.4319028317777    0.420439258168973    -63.4319028317777    0.894805499454295    24.8503929988437     
105.323706851594     0.896360001296       24.6589753571828     0.417402092508771    -63.6321820577292    0.417402092508771    -63.6321820577292    0.896360001296       24.6589753571828     
106.249740124713     0.897895899512622    24.4684976816418     0.414375257306184    -63.8314632283608    0.414375257306184    -63.8314632283608    0.897895899512622    24.4684976816418     
107.183915321892     0.899413310318851    24.2789639427263     0.411358916351934    -64.0297426600642    0.411358916351934    -64.0297426600642    0.899413310318851    24.2789639427263     
108.126304029034     0.900912352204774    24.0903778940316     0.408353229094149    -64.2270168819335    0.408353229094149    -64.2270168819335    0.900912352204774    24.0903778940316     
109.076978461442     0.902393145841171    23.9027430745364     0.405358350647582    -64.4232826334546    0.405358350647582    -64.4232826334546    0.902393145841171    23.9027430745364     
110.036011469357     0.903855813985711    23.7160628109555     0.40237443180519     -64.6185368621334    0.40237443180519     -64.6185368621334    0.903855813985711    23.7160628109555     
111.003476543535     0.905300481390102    23.5303402201453     0.399401619052006    -64.8127767210702    0.399401619052006    -64.8127767210702    0.905300481390102    23.5303402201453     
111.979447820886     0.906727274708244    23.3455782115612     0.396440054581209    -65.0059995664828    0.396440054581209    -65.0059995664828    0.906727274708244    23.3455782115612     
112.964000090146     0.908136322405438    23.1617794897633     0.39348987631236     -65.1982029551753    0.39348987631236     -65.1982029551753    0.908136322405438    23.1617794897633     
113.957208797617     0.909527754668718    22.9789465569674     0.390551217911689    -65.3893846419665    0.390551217911689    -65.3893846419665    0.909527754668718    22.9789465569674     
114.959150052942     0.910901703318337    22.7970817156365     0.387624208814387    -65.5795425770717    0.387624208814387    -65.5795425770717    0.910901703318337    22.7970817156365     
115.96990063494      0.912258301720451    22.6161870711128     0.38470897424883     -65.7686749034438    0.38470897424883     -65.7686749034438    0.912258301720451    22.6161870711128     
116.989537997491     0.913597684701042    22.4362645342874     0.381805635262654    -65.9567799540764    0.381805635262654    -65.9567799540764    0.913597684701042    22.4362645342874     
118.018140275468     0.914919988461148    22.2573158242986     0.378914308750607    -66.1438562492759    0.378914308750607    -66.1438562492759    0.914919988461148    22.2573158242986     
119.055786290726     0.916225350493373    22.0793424712667     0.376035107484118    -66.3299024938951    0.376035107484118    -66.3299024938951    0.916225350493373    22.0793424712667     
120.102555558142     0.91751390949978     21.9023458190519     0.373168140142497    -66.514917574543     0.373168140142497    -66.514917574543     0.91751390949978     21.9023458190519     
121.158528291709     0.918785805311145    21.7263270280403     0.370313511345711    -66.6989005567652    0.370313511345711    -66.6989005567652    0.918785805311145    21.7263270280403     
122.223785410681     0.920041178807633    21.5512870779501     0.367471321688645    -66.8818506822002    0.367471321688645    -66.8818506822002    0.920041178807633    21.5512870779501     
123.298408545778     0.921280171840896    21.3772267706599     0.364641667776796    -67.0637673657152    0.364641667776796    -67.0637673657152    0.921280171840896    21.3772267706599     
124.382480045435     0.922502927157634    21.2041467330529     0.361824642263326    -67.2446501925213    0.361824642263326    -67.2446501925213    0.922502927157634    21.2041467330529     
125.476082982117     0.923709588324632    21.0320474198772     0.3590203338874      -67.4244989152729    0.3590203338874      -67.4244989152729    0.923709588324632    21.0320474198772     
126.579301158684     0.924900299655284    20.8609291166172     0.35622882751374     -67.6033134511526    0.35622882751374     -67.6033134511526    0.924900299655284    20.8609291166172     
127.692219114812     0.92607520613764     20.6907919423771     0.353450204173334    -67.7810938789428    0.353450204173334    -67.7810938789428    0.92607520613764     20.6907919423771     
128.814922133472     0.927234453363964    20.5216358527698     0.350684541105246    -67.9578404360897    0.350684541105246    -67.9578404360897    0.927234453363964    20.5216358527698     
129.947496247464     0.928378187461822    20.353460642816      0.347931911799426    -68.1335535157562    0.347931911799426    -68.1335535157562    0.928378187461822    20.353460642816      
131.090028246012     0.929506555026734    20.1862659498409     0.345192386040497    -68.3082336638725    0.345192386040497    -68.3082336638725    0.929506555026734    20.1862659498409     
132.242605681413     0.930619703056352    20.0200512563782     0.342466029952423    -68.4818815761801    0.342466029952423    -68.4818815761801    0.930619703056352    20.0200512563782     
133.405316875746     0.931717778886204    19.8548158930702     0.33975290604403     -68.6544980952756    0.33975290604403     -68.6544980952756    0.931717778886204    19.8548158930702     
134.57825092764      0.93280093012699     19.6905590415672     0.337053073255282    -68.8260842076536    0.337053073255282    -68.8260842076536    0.93280093012699     19.6905590415672     
135.761497719103     0.933869304603448    19.5272797374214     0.334366587004282    -68.9966410407525    0.334366587004282    -68.9966410407525    0.933869304603448    19.5272797374214     
136.955147922409     0.934923050294765    19.364976872976      0.331693499234934    -69.1661698600034    0.331693499234934    -69.1661698600034    0.934923050294765    19.364976872976      
138.159293007046     0.93596231527655     19.2036492002462     0.32903385846519     -69.3346720658831    0.32903385846519     -69.3346720658831    0.93596231527655     19.2036492002462     
139.374025246725     0.936987247664356    19.0432953337902     0.326387709835858    -69.502149190976     0.326387709835858    -69.502149190976     0.936987247664356    19.0432953337902     
140.599437726452     0.937997995558762    18.8839137535696     0.3237550951599      -69.6686028970429    0.3237550951599      -69.6686028970429    0.937997995558762    18.8839137535696     
141.835624349659     0.93899470699197     18.7255028077977     0.321136052972158    -69.8340349720995    0.321136052972158    -69.8340349720995    0.93899470699197     18.7255028077977     
143.082679845403     0.93997752987596     18.5680607157723     0.318530618579479    -69.9984473275081    0.318530618579479    -69.9984473275081    0.93997752987596     18.5680607157723     
144.340699775622     0.940946611952155    18.4115855706947     0.315938824111171    -70.1618419950789    0.315938824111171    -70.1618419950789    0.940946611952155    18.4115855706947     
145.609780542461     0.94190210074259     18.2560753424708     0.313360698569761    -70.324221124187     0.313360698569761    -70.324221124187     0.94190210074259     18.2560753424708     
146.890019395655     0.942844143502604    18.101527880494      0.310796267881977    -70.485586978905     0.310796267881977    -70.485586978905     0.942844143502604    18.101527880494      
148.181514439987     0.943772887174993    17.9479409164088     0.308245554949945    -70.6459419351499    0.308245554949945    -70.6459419351499    0.943772887174993    17.9479409164088     
149.4843646428       0.944688478345653    17.7953120668547     0.305708579702539    -70.8052884778479    0.305708579702539    -70.8052884778479    0.944688478345653    17.7953120668547     
150.798669841584     0.945591063200674    17.6436388361871     0.303185359146828    -70.9636291981185    0.303185359146828    -70.9636291981185    0.945591063200674    17.6436388361871     
152.124530751628     0.946480787484877    17.4929186191757     0.300675907419608    -71.1209667904765    0.300675907419608    -71.1209667904765    0.946480787484877    17.4929186191757     
153.462048973733     0.947357796461771    17.3431487036805     0.298180235838964    -71.2773040500544    0.298180235838964    -71.2773040500544    0.947357796461771    17.3431487036805     
154.811327002002     0.948222234874926    17.1943262733006     0.29569835295581     -71.4326438698463    0.29569835295581     -71.4326438698463    0.948222234874926    17.1943262733006     
156.172468231692     0.949074246910731    17.0464484099992     0.293230264605398    -71.5869892379724    0.293230264605398    -71.5869892379724    0.949074246910731    17.0464484099992     
157.54557696714      0.949913976162511    16.8995120967022     0.290775973958753    -71.740343234967     0.290775973958753    -71.740343234967     0.949913976162511    16.8995120967022     
158.930758429752     0.950741565596008    16.7535142198683     0.288335481573974    -71.8927090310886    0.288335481573974    -71.8927090310886    0.950741565596008    16.7535142198683     
160.328118766066     0.951557157516191    16.6084515720316     0.285908785447396    -72.0440898836544    0.285908785447396    -72.0440898836544    0.951557157516191    16.6084515720316     
161.737765055891     0.952360893535355    16.4643208543162     0.283495881064585    -72.1944891343985    0.283495881064585    -72.1944891343985    0.952360893535355    16.4643208543162     
163.159805320508     0.953152914542532    16.3211186789202     0.281096761451115    -72.3439102068547    0.281096761451115    -72.3439102068547    0.953152914542532    16.3211186789202     
164.594348530948     0.953933360674151    16.1788415715707     0.278711417223101    -72.4923566037647    0.278711417223101    -72.4923566037647    0.953933360674151    16.1788415715707     
166.041504616347     0.954702371285942    16.0374859739478     0.276339836637479    -72.6398319045115    0.276339836637479    -72.6398319045115    0.954702371285942    16.0374859739478     
167.501384472362     0.955460084926069    15.8970482460777     0.273982005641995    -72.786339762579     0.273982005641995    -72.786339762579     0.955460084926069    15.8970482460777     
168.974099969676     0.956206639309449    15.7575246686939     0.271637907924867    -72.9318839030373    0.271637907924867    -72.9318839030373    0.956206639309449    15.7575246686939     
170.459763962568     0.956942171293252    15.6189114455679     0.26930752496412     -73.0764681200539    0.26930752496412     -73.0764681200539    0.956942171293252    15.6189114455679     
171.958490297559     0.957666816853553    15.4812047058053     0.266990836076553    -73.2200962744329    0.266990836076553    -73.2200962744329    0.957666816853553    15.4812047058053     
173.47039382214      0.958380711063103    15.344400506111      0.264687818466318    -73.3627722911788    0.264687818466318    -73.3627722911788    0.958380711063103    15.344400506111      
174.99559039357      0.959083988070211    15.2084948330212     0.262398447273106    -73.5045001570885    0.262398447273106    -73.5045001570885    0.959083988070211    15.2084948330212     
176.534196887756     0.959776781078704    15.0734836051015     0.260122695619902    -73.6452839183695    0.260122695619902    -73.6452839183695    0.959776781078704    15.0734836051015     
178.086331208206     0.960459222328942    14.9393626751117     0.257860534660302    -73.7851276782846    0.257860534660302    -73.7851276782846    0.960459222328942    14.9393626751117     
179.652112295069     0.961131443079864    14.8061278321377     0.255611933625371    -73.924035594824     0.255611933625371    -73.924035594824     0.961131443079864    14.8061278321377     
181.231660134244     0.961793573592041    14.6737748036889     0.253376859870031    -74.0620118784027    0.253376859870031    -74.0620118784027    0.961793573592041    14.6737748036889     
182.825095766579     0.962445743111718    14.5422992577611     0.251155278918955    -74.1990607895858    0.251155278918955    -74.1990607895858    0.962445743111718    14.5422992577611     
184.432541297143     0.963088079855814    14.4116968048667     0.248947154511964    -74.335186636839     0.248947154511964    -74.335186636839     0.963088079855814    14.4116968048667     
186.054119904585     0.963720710997854    14.2819630000296     0.246752448648905    -74.4703937743057    0.246752448648905    -74.4703937743057    0.963720710997854    14.2819630000296     
187.689955850573     0.964343762654815    14.1530933447467     0.244571121634005    -74.6046865996091    0.244571121634005    -74.6046865996091    0.964343762654815    14.1530933447467     
189.340174489315     0.964957359874872    14.0250832889142     0.242403132119686    -74.7380695516809    0.242403132119686    -74.7380695516809    0.964957359874872    14.0250832889142     
191.004902277165     0.965561626625992    13.8979282327208     0.240248437149824    -74.8705471086136    0.240248437149824    -74.8705471086136    0.965561626625992    13.8979282327208     
192.684266782317     0.966156685785382    13.7716235285064     0.238106992202472    -75.0021237855391    0.238106992202472    -75.0021237855391    0.966156685785382    13.7716235285064     
194.378396694573     0.966742659129754    13.6461644825856     0.235978751231989    -75.13280413253      0.235978751231989    -75.13280413253      0.966742659129754    13.6461644825856     
196.087421835212     0.967319667326383    13.5215463570392     0.233863666710611    -75.2625927325258    0.233863666710611    -75.2625927325258    0.967319667326383    13.5215463570392     
197.811473166935     0.967887829924947    13.3977643714699     0.23176168966945     -75.391494199282     0.23176168966945     -75.391494199282     0.967887829924947    13.3977643714699     
199.550682803902     0.968447265350103    13.2748137047253     0.229672769738876    -75.5195131753417    0.229672769738876    -75.5195131753417    0.968447265350103    13.2748137047253     
201.305184021851     0.968998090894811    13.1526894965869     0.227596855188347    -75.6466543300292    0.227596855188347    -75.6466543300292    0.968998090894811    13.1526894965869     
203.075111268318     0.969540422714349    13.0313868494255     0.225533892965608    -75.7729223574658    0.225533892965608    -75.7729223574658    0.969540422714349    13.0313868494255     
204.860600172937     0.970074375821023    12.9109008298232     0.22348382873531     -75.8983219746059    0.22348382873531     -75.8983219746059    0.970074375821023    12.9109008298232     
206.66178755783      0.970600064079535    12.7912264701628     0.221446606917004    -76.0228579192928    0.221446606917004    -76.0228579192928    0.970600064079535    12.7912264701628     
208.478811448097     0.971117600202999    12.6723587701835     0.219422170722561    -76.1465349483347    0.219422170722561    -76.1465349483347    0.971117600202999    12.6723587701835     
210.311811082389     0.971627095749578    12.554292698505      0.217410462192947    -76.2693578355985    0.217410462192947    -76.2693578355985    0.971627095749578    12.554292698505      
212.16092692358      0.972128661119715    12.4370231941174     0.215411422234407    -76.3913313701221    0.215411422234407    -76.3913313701221    0.972128661119715    12.4370231941174     
214.026300669529     0.972622405553958    12.3205451678416     0.213424990654037    -76.5124603542419    0.213424990654037    -76.5124603542419    0.972622405553958    12.3205451678416     
215.908075263941     0.973108437131341    12.2048535037543     0.211451106194732    -76.6327496017385    0.211451106194732    -76.6327496017385    0.973108437131341    12.2048535037543     
217.806394907316     0.9735868627683      12.0899430605852     0.209489706569536    -76.7522039359952    0.209489706569536    -76.7522039359952    0.9735868627683      12.0899430605852     
219.721405068006     0.974057788218125    11.9758086730795     0.207540728495365    -76.8708281881717    0.207540728495365    -76.8708281881717    0.974057788218125    11.9758086730795     
221.653252493355     0.974521318070907    11.8624451533313     0.205604107726135    -76.9886271953901    0.205604107726135    -76.9886271953901    0.974521318070907    11.8624451533313     
223.602085220949     0.974977555753975    11.7498472920856     0.203679779085262    -77.105605798933     0.203679779085262    -77.105605798933     0.974977555753975    11.7498472920856     
225.568052589959     0.975426603532798    11.6380098600104     0.201767676497569    -77.2217688424517    0.201767676497569    -77.2217688424517    0.975426603532798    11.6380098600104     
227.551305252584     0.97586856251234     11.5269276089381     0.199867733020582    -77.3371211701833    0.199867733020582    -77.3371211701833    0.97586856251234     11.5269276089381     
229.551995185596     0.976303532638844    11.4165952730771     0.197979880875219    -77.4516676251783    0.197979880875219    -77.4516676251783    0.976303532638844    11.4165952730771     
231.570275701988     0.976731612702034    11.3070075701948     0.196104051475876    -77.5654130475319    0.196104051475876    -77.5654130475319    0.976731612702034    11.3070075701948     
233.606301462718     0.977152900337713    11.198159202771      0.194240175459934    -77.6783622726221    0.194240175459934    -77.6783622726221    0.977152900337713    11.198159202771      
235.660228488564     0.977567492030752    11.0900448591224     0.192388182716649    -77.7905201293527    0.192388182716649    -77.7905201293527    0.977567492030752    11.0900448591224     
237.732214172079     0.977975483118435    10.982659214499      0.190548002415458    -77.9018914383974    0.190548002415458    -77.9018914383974    0.977975483118435    10.982659214499      
239.822417289653     0.978376967794153    10.8759969321532     0.188719563033717    -78.012481010445     0.188719563033717    -78.012481010445     0.978376967794153    10.8759969321532     
241.930998013677     0.978772039111454    10.7700526643798     0.186902792383829    -78.1222936444447    0.186902792383829    -78.1222936444447    0.978772039111454    10.7700526643798     
244.058117924822     0.979160788988387    10.6648210535305     0.185097617639821    -78.2313341258483    0.185097617639821    -78.2313341258483    0.979160788988387    10.6648210535305     
246.203940024414     0.979543308212175    10.5602967329996     0.183303965363323    -78.339607224849     0.183303965363323    -78.339607224849     0.979543308212175    10.5602967329996     
248.368628746934     0.979919686444162    10.4564743281853     0.181521761529009    -78.4471176946132    0.181521761529009    -78.4471176946132    0.979919686444162    10.4564743281853     
250.55234997261      0.980290012225051    10.353348457424      0.179750931549459    -78.5538702695046    0.179750931549459    -78.5538702695046    0.980290012225051    10.353348457424      
252.755271040131     0.980654372980405    10.250913732898      0.177991400299459    -78.6598696633       0.177991400299459    -78.6598696633       0.980654372980405    10.250913732898      
254.977560759474     0.981012855026392    10.1491647615195     0.176243092139771    -78.7651205673902    0.176243092139771    -78.7651205673902    0.981012855026392    10.1491647615195     
257.219389424835     0.981365543575781    10.0480961457885     0.174505930940333    -78.8696276489692    0.174505930940333    -78.8696276489692    0.981365543575781    10.0480961457885     
259.480928827682     0.981712522744151    9.9477024846267      0.172779840102951    -78.9733955492054    0.172779840102951    -78.9733955492054    0.981712522744151    9.9477024846267      
261.762352269917     0.982053875556326    9.84797837418735     0.17106474258343     -79.0764288813944    0.17106474258343     -79.0764288813944    0.982053875556326    9.84797837418735     
264.063834577157     0.982389683953007    9.74891840864034     0.169360560913186    -79.1787322290904    0.169360560913186    -79.1787322290904    0.982389683953007    9.74891840864034     
266.385552112131     0.982720028797598    9.6505171809359      0.167667217220361    -79.2803101442123    0.167667217220361    -79.2803101442123    0.982720028797598    9.6505171809359      
268.727682788196     0.983044989883206    9.55276928354289     0.165984633250387    -79.3811671451252    0.165984633250387    -79.3811671451252    0.983044989883206    9.55276928354289     
271.090406082969     0.98336464593982     9.45566930916599     0.164312730386072    -79.4813077146901    0.164312730386072    -79.4813077146901    0.98336464593982     9.45566930916599     
273.473903052079     0.98367907464164     9.35921185144127     0.162651429667175    -79.5807362982805    0.162651429667175    -79.5807362982805    0.98367907464164     9.35921185144127     
275.878356343044     0.983988352614561    9.26339150560749     0.161000651809488    -79.6794573017652    0.161000651809488    -79.6794573017652    0.983988352614561    9.26339150560749     
278.303950209266     0.984292555443787    9.16820286915871     0.159360317223428    -79.7774750894483    0.159360317223428    -79.7774750894483    0.984292555443787    9.16820286915871     
280.750870524152     0.984591757681586    9.07364054247385     0.157730346032165    -79.8747939819697    0.157730346032165    -79.8747939819697    0.984591757681586    9.07364054247385     
283.219304795354     0.984886032855155    8.97969912942664     0.156110658089249    -79.9714182541552    0.156110658089249    -79.9714182541552    0.984886032855155    8.97969912942664     
285.709442179141     0.985175453474601    8.88637323797473     0.154501172995804    -80.0673521328191    0.154501172995804    -80.0673521328191    0.985175453474601    8.88637323797473     
288.221473494892     0.985460091041021    8.79365748072918     0.152901810117236    -80.1625997945092    0.152901810117236    -80.1625997945092    0.985460091041021    8.79365748072918     
290.75559123972      0.985740016054676    8.70154647550391     0.151312488599501    -80.257165363194     0.151312488599501    -80.257165363194     0.985740016054676    8.70154647550391     
293.311989603222     0.986015298023253    8.61003484584644     0.149733127384934    -80.3510529078856    0.149733127384934    -80.3510529078856    0.986015298023253    8.61003484584644     
295.890864482361     0.986286005470204    8.51911722154956     0.148163645227624    -80.4442664401934    0.148163645227624    -80.4442664401934    0.986286005470204    8.51911722154956     
298.492413496475     0.986552205943148    8.42878823914445     0.146603960708374    -80.5368099118037    0.146603960708374    -80.5368099118037    0.986552205943148    8.42878823914445     
301.116836002424     0.986813966022345    8.33904254237562     0.145053992249225    -80.6286872118799    0.145053992249225    -80.6286872118799    0.986813966022345    8.33904254237562     
303.764333109866     0.987071351329219    8.24987478265861     0.143513658127576    -80.7199021643773    0.143513658127576    -80.7199021643773    0.987071351329219    8.24987478265861     
306.435107696663     0.987324426534935    8.16127961951929     0.14198287648988     -80.8104585252662    0.14198287648988     -80.8104585252662    0.987324426534935    8.16127961951929     
309.129364424437     0.987573255369006    8.07325172101726     0.140461565364952    -80.9003599796563    0.140461565364952    -80.9003599796563    0.987573255369006    8.07325172101726     
311.847309754243     0.987817900627952    7.98578576415151     0.138949642676869    -80.9896101388171    0.138949642676869    -80.9896101388171    0.987817900627952    7.98578576415151     
314.589151962398     0.988058424183972    7.89887643524983     0.137447026257484    -81.0782125370851    0.137447026257484    -81.0782125370851    0.988058424183972    7.89887643524983     
317.355101156439     0.98829488699365     7.81251843034296     0.135953633858571    -81.1661706286506    0.135953633858571    -81.1661706286506    0.98829488699365     7.81251843034296     
320.145369291219     0.988527349106672    7.72670645552251     0.134469383163575    -81.2534877842157    0.134469383163575    -81.2534877842157    0.988527349106672    7.72670645552251     
322.960170185156     0.988755869674558    7.64143522728274     0.132994191799009    -81.3401672875155    0.132994191799009    -81.3401672875155    0.988755869674558    7.64143522728274     
325.799719536615     0.988980506959398    7.5566994728486      0.131527977345485    -81.4262123316915    0.131527977345485    -81.4262123316915    0.988980506959398    7.5566994728486      
328.664234940435     0.98920131834259     7.47249393048818     0.130070657348393    -81.5116260155078    0.130070657348393    -81.5116260155078    0.98920131834259     7.47249393048818     
331.553935904605     0.989418360333575    7.38881334981068     0.128622149328224    -81.5964113394005    0.128622149328224    -81.5964113394005    0.989418360333575    7.38881334981068     
334.469043867088     0.989631688578562    7.30565249205099     0.127182370790563    -81.6805712013457    0.127182370790563    -81.6805712013457    0.989631688578562    7.30565249205099     
337.409782212783     0.989841357869242    7.22300613033953     0.125751239235749    -81.7641083925377    0.125751239235749    -81.7641083925377    0.989841357869242    7.22300613033953     
340.376376290649     0.99004742215148     7.14086904995912     0.124328672168196    -81.8470255928613    0.124328672168196    -81.8470255928613    0.99004742215148     7.14086904995912     
343.369053430972     0.99024993453399     7.05923604858812     0.122914587105399    -81.9293253661463    0.122914587105399    -81.9293253661463    0.99024993453399     7.05923604858812     
346.388042962783     0.99044894729698     6.97810193653194     0.121508901586637    -82.0110101551859    0.121508901586637    -82.0110101551859    0.99044894729698     6.97810193653194     
349.433576231434     0.990644511900773    6.89746153693972     0.120111533181338    -82.0920822765075    0.120111533181338    -82.0920822765075    0.990644511900773    6.89746153693972     
352.505886616324     0.990836678994387    6.81730968601092     0.118722399497186    -82.1725439148748    0.118722399497186    -82.1725439148748    0.990836678994387    6.81730968601092     
355.605209548786     0.991025498424082    6.73764123318834     0.11734141818789     -82.2523971175038    0.11734141818789     -82.2523971175038    0.991025498424082    6.73764123318834     
358.731782530125     0.991211019241871    6.65845104133968     0.115968506960696    -82.3316437879743    0.115968506960696    -82.3316437879743    0.991211019241871    6.65845104133968     
361.885845149819     0.991393289713974    6.57973398692807     0.114603583583596    -82.4102856798126    0.114603583583596    -82.4102856798126    0.991393289713974    6.57973398692807     
365.067639103878     0.991572357329238    6.50148496017062     0.113246565892276    -82.4883243897242    0.113246565892276    -82.4883243897242    0.991572357329238    6.50148496017062     
368.277408213368     0.991748268807505    6.42369886518671     0.111897371796779    -82.5657613504524    0.111897371796779    -82.5657613504524    0.991748268807505    6.42369886518671     
371.515398443091     0.99192107010792     6.34637062013435     0.110555919287917    -82.642597823234     0.110555919287917    -82.642597823234     0.99192107010792     6.34637062013435     
374.781857920435     0.992090806437192    6.26949515733774     0.109222126443421    -82.7188348898246    0.109222126443421    -82.7188348898246    0.992090806437192    6.26949515733774     
378.077036954389     0.992257522257789    6.19306742340319     0.10789591143383     -82.7944734440623    0.10789591143383     -82.7944734440623    0.992257522257789    6.19306742340319     
381.401188054724     0.992421261296081    6.11708237932547     0.106577192528155    -82.8695141829358    0.106577192528155    -82.8695141829358    0.992421261296081    6.11708237932547     
384.75456595134      0.99258206655041     6.04153500058447     0.105265888099273    -82.9439575971216    0.105265888099273    -82.9439575971216    0.99258206655041     6.04153500058447     
388.137427613791     0.992739980299108    5.96642027723285     0.103961916629119    -83.0178039609487    0.103961916629119    -83.0178039609487    0.992739980299108    5.96642027723285     
391.55003227097      0.992895044108433    5.89173321397283     0.102665196713621    -83.0910533217525    0.102665196713621    -83.0910533217525    0.992895044108433    5.89173321397283     
394.992641430983     0.993047298840446    5.81746883022604     0.101375647067435    -83.1637054885667    0.101375647067435    -83.1637054885667    0.993047298840446    5.81746883022604     
398.465518901177     0.993196784660814    5.74362216019279     0.100093186528447    -83.2357600201072    0.100093186528447    -83.2357600201072    0.993196784660814    5.74362216019279     
401.968930808366     0.993343541046537    5.67018825290353     0.098817734062074    -83.3072162119929    0.098817734062074    -83.3072162119929    0.993343541046537    5.67018825290353     
405.503145619218     0.993487606793604    5.59716217226175     0.097549208765349    -83.3780730831427    0.097549208765349    -83.3780730831427    0.993487606793604    5.59716217226175     
409.068434160827     0.993629020024574    5.52453899707903     0.096287529870824    -83.4483293612869    0.096287529870824    -83.4483293612869    0.993629020024574    5.52453899707903     
412.665069641474     0.993767818196067    5.45231382110123     0.095032616750254    -83.5179834675232    0.095032616750254    -83.5179834675232    0.993767818196067    5.45231382110123     
416.293327671553     0.993904038106194    5.38048175302774     0.093784388918117    -83.5870334998389    0.093784388918117    -83.5870334998389    0.993904038106194    5.38048175302774     
419.953486284698     0.994037715901895    5.30903791652282     0.092542766034931    -83.65547721552      0.092542766034931    -83.65547721552      0.994037715901895    5.30903791652282     
423.645825959089     0.994168887086188    5.23797745021978     0.09130766791041     -83.7233120123539    0.09130766791041     -83.7233120123539    0.994168887086188    5.23797745021978     
427.370629638938     0.994297586525358    5.16729550771722     0.090079014506435    -83.7905349085297    0.090079014506435    -83.7905349085297    0.994297586525358    5.16729550771722     
431.128182756178     0.994423848456031    5.09698725756942     0.088856725939871    -83.8571425211247    0.088856725939871    -83.8571425211247    0.994423848456031    5.09698725756942     
434.918773252334     0.99454770649219     5.02704788326904     0.087640722485214    -83.9231310430625    0.087640722485214    -83.9231310430625    0.99454770649219     5.02704788326904     
438.742691600587     0.994669193632083    4.95747258322334     0.086430924577089    -83.9884962184109    0.086430924577089    -83.9884962184109    0.994669193632083    4.95747258322334     
442.600230828032     0.994788342265062    4.88825657072425     0.085227252812603    -84.0532333158777    0.085227252812603    -84.0532333158777    0.994788342265062    4.88825657072425     
446.491686538136     0.994905184178316    4.81939507391186     0.084029627953544    -84.1173371003494    0.084029627953544    -84.1173371003494    0.994905184178316    4.81939507391186     
450.417356933386     0.995019750563529    4.75088333573173     0.082837970928455    -84.1808018022991    0.082837970928455    -84.1808018022991    0.995019750563529    4.75088333573173     
454.377542838146     0.995132072023438    4.68271661388671     0.081652202834578    -84.2436210848768    0.081652202834578    -84.2436210848768    0.995132072023438    4.68271661388671     
458.3725477217       0.995242178578307    4.61489018078232     0.080472244939665    -84.3057880084719    0.080472244939665    -84.3057880084719    0.995242178578307    4.61489018078232     
462.402677721518     0.995350099672306    4.54739932346694     0.079298018683679    -84.3672949925197    0.079298018683679    -84.3672949925197    0.995350099672306    4.54739932346694     
466.468241666707     0.995455864179796    4.48023934356661     0.078129445680389    -84.4281337742948    0.078129445680389    -84.4281337742948    0.995455864179796    4.48023934356661     
470.56955110168      0.995559500411533    4.41340555721384     0.076966447718844    -84.4882953644148    0.076966447718844    -84.4882953644148    0.995559500411533    4.41340555721384     
474.706920310028     0.995661036120758    4.34689329497226     0.075808946764779    -84.5477699987384    0.075808946764779    -84.5477699987384    0.995661036120758    4.34689329497226     
478.880666338606     0.995760498509216    4.28069790175522     0.074656864961904    -84.6065470863154    0.074656864961904    -84.6065470863154    0.995760498509216    4.28069790175522     
483.091109021827     0.995857914233066    4.2148147367405      0.073510124633135    -84.6646151530034    0.073510124633135    -84.6646151530034    0.995857914233066    4.2148147367405      
487.33857100617      0.995953309408703    4.14923917327933     0.072368648281741    -84.7219617803253    0.072368648281741    -84.7219617803253    0.995953309408703    4.14923917327933     
491.623377774905     0.996046709618484    4.08396659880132     0.071232358592428    -84.7785735390917    0.071232358592428    -84.7785735390917    0.996046709618484    4.08396659880132     
495.945857673037     0.996138139916356    4.01899241471517     0.070101178432382    -84.8344359172571    0.070101178432382    -84.8344359172571    0.996138139916356    4.01899241471517     
500.306341932463     0.996227624833394    3.95431203630444     0.068975030852258    -84.8895332414185    0.068975030852258    -84.8895332414185    0.996227624833394    3.95431203630444     
504.705164697358     0.996315188383245    3.88992089261944     0.067853839087134    -84.9438485912927    0.067853839087134    -84.9438485912927    0.996315188383245    3.88992089261944     
509.142663049779     0.996400854067463    3.82581442636519     0.066737526557463    -84.9973637064279    0.066737526557463    -84.9973637064279    0.996400854067463    3.82581442636519     
513.619177035495     0.996484644880766    3.76198809378496     0.065626016869995    -85.0500588843169    0.065626016869995    -85.0500588843169    0.996484644880766    3.76198809378496     
518.135049690044     0.996566583316186    3.69843736454063     0.06451923381873     -85.1019128689715    0.06451923381873     -85.1019128689715    0.996566583316186    3.69843736454063     
522.690627065024     0.996646691370121    3.63515772158854     0.06341710138587     -85.1529027289015    0.06341710138587     -85.1529027289015    0.996646691370121    3.63515772158854     
527.286258254608     0.996724990547302    3.57214466105259     0.062319543742832    -85.2030037233047    0.062319543742832    -85.2030037233047    0.996724990547302    3.57214466105259     
531.922295422292     0.996801501865652    3.50939369209315     0.061226485251305    -85.252189155118     0.061226485251305    -85.252189155118     0.996801501865652    3.50939369209315     
536.599093827886     0.996876245861056    3.4469003367731      0.060137850464392    -85.3004302094019    0.060137850464392    -85.3004302094019    0.996876245861056    3.4469003367731      
541.31701185474      0.996949242592026    3.38466012992011     0.059053564127858    -85.3476957753207    0.059053564127858    -85.3476957753207    0.996949242592026    3.38466012992011     
546.076411037197     0.997020511644287    3.3226686189864      0.0579735511815      -85.3939522497462    0.0579735511815      -85.3939522497462    0.997020511644287    3.3226686189864      
550.877656088309     0.997090072135242    3.26092136390483     0.05689773676068     -85.439163320234     0.05689773676068     -85.439163320234     0.997090072135242    3.26092136390483     
555.721114927774     0.997157942718362    3.19941393694247     0.055826046198047    -85.4832897248016    0.055826046198047    -85.4832897248016    0.997157942718362    3.19941393694247     
560.60715871014      0.997224141587468    3.13814192255103     0.054758405025492    -85.5262889855645    0.054758405025492    -85.5262889855645    0.997224141587468    3.13814192255103     
565.536161853239     0.997288686480918    3.0771009172148      0.053694738976365    -85.5681151128549    0.053694738976365    -85.5681151128549    0.997288686480918    3.0771009172148      
570.508502066882     0.997351594685704    3.01628652929575     0.052634973988022    -85.6087182759336    0.052634973988022    -85.6087182759336    0.997351594685704    3.01628652929575     
575.524560381803     0.997412883041445    2.95569437887603     0.05157903620474     -85.6480444358183    0.05157903620474     -85.6480444358183    0.997412883041445    2.95569437887603     
580.584721178856     0.997472567944288    2.89532009759836     0.050526851981076    -85.6860349350436    0.050526851981076    -85.6860349350436    0.997472567944288    2.89532009759836     
585.689372218472     0.997530665350708    2.83515932850343     0.049478347885732    -85.7226260383476    0.049478347885732    -85.7226260383476    0.997530665350708    2.83515932850343     
590.838904670371     0.997587190781225    2.77520772586575     0.048433450706026    -85.7577484173012    0.048433450706026    -85.7577484173012    0.997587190781225    2.77520772586575     
596.033713143538     0.997642159324007    2.71546095502656     0.04739208745305     -85.7913265707373    0.04739208745305     -85.7913265707373    0.997642159324007    2.71546095502656     
601.274195716462     0.997695585638389    2.65591469222526     0.04635418536765     -85.8232781714585    0.04635418536765     -85.8232781714585    0.997695585638389    2.65591469222526     
606.560753967644     0.997747483958299    2.59656462442834     0.045319671927345    -85.8535133280514    0.045319671927345    -85.8535133280514    0.997747483958299    2.59656462442834     
611.893793006364     0.997797868095574    2.5374064491567      0.044288474854346    -85.8819337486622    0.044288474854346    -85.8819337486622    0.997797868095574    2.5374064491567      
617.273721503729     0.997846751443196    2.47843587431076     0.04326052212488     -85.9084317912056    0.04326052212488     -85.9084317912056    0.997846751443196    2.47843587431076     
622.700951723985     0.997894146978429    2.41964861799415     0.042235741980012    -85.9328893816093    0.042235741980012    -85.9328893816093    0.997894146978429    2.41964861799415     
628.175899556118     0.997940067265849    2.3610404083354      0.041214062938241    -85.9551767782072    0.041214062938241    -85.9551767782072    0.997940067265849    2.3610404083354      
633.698984545713     0.9979845244603      2.30260698330818     0.040195413810191    -85.9751511561485    0.040195413810191    -85.9751511561485    0.9979845244603      2.30260698330818     
639.270629927108     0.998027530309734    2.24434409054981     0.039179723715752    -85.9926549804936    0.039179723715752    -85.9926549804936    0.998027530309734    2.24434409054981     
644.891262655828     0.998069096157973    2.18624748717841     0.038166922104127    -86.0075141302766    0.038166922104127    -86.0075141302766    0.998069096157973    2.18624748717841     
650.561313441304     0.998109232947364    2.12831293960862     0.03715693877734     -86.0195357279262    0.03715693877734     -86.0195357279262    0.998109232947364    2.12831293960862     
656.281216779872     0.998147951221352    2.07053622336586     0.036149703917852    -86.0285056186339    0.036149703917852    -86.0285056186339    0.998147951221352    2.07053622336586     
662.051410988071     0.998185261126945    2.01291312289953     0.035145148121094    -86.0341854320308    0.035145148121094    -86.0341854320308    0.998185261126945    2.01291312289953     
667.872338236239     0.998221172417098    1.95543943139476     0.034143202433908    -86.0363091431803    0.034143202433908    -86.0363091431803    0.998221172417098    1.95543943139476     
673.744444582381     0.998255694452988    1.89811095058322     0.033143798400114    -86.0345790305095    0.033143798400114    -86.0345790305095    0.998255694452988    1.89811095058322     
679.668180006369     0.998288836206216    1.84092349055267     0.032146868114707    -86.0286609036737    0.032146868114707    -86.0286609036737    0.998288836206216    1.84092349055267     
685.643998444406     0.998320606260892    1.78387286955579     0.031152344288586    -86.0181784428507    0.031152344288586    -86.0181784428507    0.998320606260892    1.78387286955579     
691.672357823824     0.998351012815648    1.72695491381769     0.030160160326172    -86.0027064504076    0.030160160326172    -86.0027064504076    0.998351012815648    1.72695491381769     
697.753720098171     0.998380063685538    1.67016545734282     0.029170250418916    -85.9817627632676    0.029170250418916    -85.9817627632676    0.998380063685538    1.67016545734282     
703.888551282606     0.99840776630386     1.61350034172106     0.028182549658514    -85.9547985055344    0.028182549658514    -85.9547985055344    0.99840776630386     1.61350034172106     
710.077321489619     0.998434127723876    1.55695541593278     0.027196994174727    -85.9211862702852    0.027196994174727    -85.9211862702852    0.998434127723876    1.55695541593278     
716.320504965047     0.998459154620446    1.50052653615371     0.026213521304142    -85.8802056989216    0.026213521304142    -85.8802056989216    0.998459154620446    1.50052653615371     
722.61858012442      0.998482853291557    1.44420956555858     0.02523206979813     -85.8310257647226    0.02523206979813     -85.8310257647226    0.998482853291557    1.44420956555858     
728.97202958962      0.998505229659775    1.38800037412471     0.024252580080909    -85.7726828480177    0.024252580080909    -85.7726828480177    0.998505229659775    1.38800037412471     
735.38134022587      0.998526289273589    1.33189483843472     0.023274994572156    -85.7040533900646    0.023274994572156    -85.7040533900646    0.998526289273589    1.33189483843472     
741.847003179032     0.998546037308677    1.27588884147905     0.022299258093652    -85.6238194965833    0.022299258093652    -85.6238194965833    0.998546037308677    1.27588884147905     
748.369513913252     0.998564478569064    1.2199782724579      0.021325318386375    -85.5304252781779    0.021325318386375    -85.5304252781779    0.998564478569064    1.2199782724579      
754.949372248927     0.998581617488199    1.16415902658301     0.020353126774442    -85.4220208852091    0.020353126774442    -85.4220208852091    0.998581617488199    1.16415902658301     
761.587082401001     0.99859745812994     1.10842700487891     0.019382639026623    -85.296389998471     0.019382639026623    -85.296389998471     0.99859745812994     1.10842700487891     
768.283153017608     0.998612004189431    1.05277811398429     0.018413816487218    -85.1508547854148    0.018413816487218    -85.1508547854148    0.998612004189431    1.05277811398429     
775.038097219046     0.998625258993911    0.997208265952899    0.017446627579421    -84.9821497232051    0.017446627579421    -84.9821497232051    0.998625258993911    0.997208265952899    
781.852432637101     0.998637225503406    0.941713378054457    0.016481049832019    -84.7862517332813    0.016481049832019    -84.7862517332813    0.998637225503406    0.941713378054457    
788.726681454713     0.998647906311353    0.886289372575628    0.015517072654164    -84.5581479482431    0.015517072654164    -84.5581479482431    0.998647906311353    0.886289372575628    
795.661370445986     0.998657303645104    0.830932176620729    0.0145547012002      -84.2915127406882    0.0145547012002      -84.2915127406882    0.998657303645104    0.830932176620729    
802.657031016561     0.998665419366367    0.77563772191286     0.013593961857235    -83.9782499253693    0.013593961857235    -83.9782499253693    0.998665419366367    0.77563772191286     
809.714199244334     0.998672254971532    0.720401944594797    0.012634910206939    -83.6078298457516    0.012634910206939    -83.6078298457516    0.998672254971532    0.720401944594797    
816.833415920535     0.998677811591919    0.665220785030306    0.011677642863166    -83.1663060277211    0.011677642863166    -83.1663060277211    0.998677811591919    0.665220785030306    
824.015226591173     0.99868208999392     0.610090187605465    0.010722315570081    -82.6348159877557    0.010722315570081    -82.6348159877557    0.99868208999392     0.610090187605465    
831.260181598837     0.998685090579071    0.555006100530636    0.009769171774576    -81.987222648993     0.009769171774576    -81.987222648993     0.998685090579071    0.555006100530636    
838.568836124871     0.998686813384002    0.499964475642365    0.00881858945037     -81.1862663961928    0.00881858945037     -81.1862663961928    0.998686813384002    0.499964475642365    
845.941750231915     0.998687258080325    0.444961268205869    0.007871161275243    -80.1770149726297    0.007871161275243    -80.1770149726297    0.998687258080325    0.444961268205869    
853.379488906828     0.998686423974404    0.389992436717994    0.00692783928816     -78.8751402891809    0.00692783928816     -78.8751402891809    0.998686423974404    0.389992436717994    
860.882622103978     0.998684310007053    0.335053942710696    0.005990212914935    -77.1446424629356    0.005990212914935    -77.1446424629356    0.998684310007053    0.335053942710696    
868.451724788918     0.998680914753128    0.280141750555003    0.005061086491809    -74.7523605719186    0.005061086491809    -74.7523605719186    0.998680914753128    0.280141750555003    
876.08737698245      0.998676236421029    0.225251827265586    0.004145801061861    -71.2666786152063    0.004145801061861    -71.2666786152063    0.998676236421029    0.225251827265586    
883.790163805064     0.998670272852119    0.170380142306101    0.003255651693837    -65.8081791375611    0.003255651693837    -65.8081791375611    0.998670272852119    0.170380142306101    
891.560675521786     0.998663021520039    0.115522667395281    0.002418127917206    -56.3761909299608    0.002418127917206    -56.3761909299608    0.998663021520039    0.115522667395281    
899.399507587401     0.998654479529934    0.060675376313674    0.001711831101977    -38.1552626039484    0.001711831101977    -38.1552626039484    0.998654479529934    0.060675376313674    
907.307260692088     0.998644643617588    0.005834244711402    0.001359170910188    -4.29069401639137    0.001359170910188    -4.29069401639137    0.998644643617588    0.005834244711402    
915.284540807449     0.998633510148466    -0.049004750083376   0.001611776373318    32.0005882405013     0.001611776373318    32.0005882405013     0.998633510148466    -0.049004750083376   
923.331959232946     0.99862107511666     -0.103845629254743   0.002276372440346    52.664876065903      0.002276372440346    52.664876065903      0.99862107511666     -0.103845629254743   
931.450132642744     0.998607334143746    -0.158692412688562   0.003098402187683    63.2104372106615     0.003098402187683    63.2104372106615     0.998607334143746    -0.158692412688562   
939.639683132965     0.998592282477548    -0.213549119160696   0.00398166225739     69.1886468799994     0.00398166225739     69.1886468799994     0.998592282477548    -0.213549119160696   
947.901238269363     0.998575914990802    -0.268419766524301   0.004893276571626    72.9462717687694     0.004893276571626    72.9462717687694     0.998575914990802    -0.268419766524301   
956.235431135409     0.998558226179731    -0.323308371895663   0.005820125575531    75.4956445653411     0.005820125575531    75.4956445653411     0.998558226179731    -0.323308371895663   
964.642900380814     0.998539210162535    -0.378218951839042   0.006756144392697    77.324053661015      0.006756144392697    77.324053661015      0.998539210162535    -0.378218951839042   
973.124290270456     0.99851886067777     -0.433155522549821   0.007698201029782    78.6905825057906     0.007698201029782    78.6905825057906     0.99851886067777     -0.433155522549821   
981.680250733759     0.998497171082644    -0.48812210003659    0.008644541569637    79.7444543494862     0.008644541569637    79.7444543494862     0.998497171082644    -0.48812210003659    
990.311437414496     0.998474134351226    -0.54312270030167    0.00959412435188     80.5772660686907     0.00959412435188     80.5772660686907     0.998474134351226    -0.54312270030167    
999.018511721028     0.998449743072538    -0.598161339519905   0.010546304524417    81.2481970995754     0.010546304524417    81.2481970995754     0.998449743072538    -0.598161339519905   
1007.80214087699     0.998423989448578    -0.653242034216152   0.011500672016912    81.7971169093838     0.011500672016912    81.7971169093838     0.998423989448578    -0.653242034216152   
1016.66299797242     0.998396865292233    -0.708368801440805   0.012456962679824    82.2518352113571     0.012456962679824    82.2518352113571     0.998396865292233    -0.708368801440805   
1025.60176201533     0.998368362025101    -0.76354565894404    0.0134150068431      82.6323252835268     0.0134150068431      82.6323252835268     0.998368362025101    -0.76354565894404    
1034.61911798377     0.998338470675224    -0.818776625347565   0.014374698158281    82.9532940555765     0.014374698158281    82.9532940555765     0.998338470675224    -0.818776625347565   
1043.71575687825     0.998307181874715    -0.874065720315152   0.015335973987371    83.2258056544104     0.015335973987371    83.2258056544104     0.998307181874715    -0.874065720315152   
1052.89237577479     0.998274485857299    -0.929416964720837   0.016298802645555    83.4583406089799     0.016298802645555    83.4583406089799     0.998274485857299    -0.929416964720837   
1062.14967787825     0.998240372455755    -0.984834380815266   0.017263174861611    83.6575065517752     0.017263174861611    83.6575065517752     0.998240372455755    -0.984834380815266   
1071.48837257624     0.998204831099265    -1.04032199238979    0.018229097916642    83.8285269854581     0.018229097916642    83.8285269854581     0.998204831099265    -1.04032199238979    
1080.90917549352     0.998167850810663    -1.09588382493854    0.019196591531226    83.9755848328086     0.019196591531226    83.9755848328086     0.998167850810663    -1.09588382493854    
1090.41280854678     0.998129420203591    -1.15152390581822    0.020165684922195    84.1020686537538     0.020165684922195    84.1020686537538     0.998129420203591    -1.15152390581822    
1100                 0.998089527479559    -1.20724626440542    0.021136414659107    84.2107522059139     0.021136414659107    84.2107522059139     0.998089527479559    -1.20724626440542    
