# MHz S MA R 50      
!Freq                MagS11               AngS11               MagS21               AngS21               MagS12               AngS12               MagS22               AngS22               
1                    0.369674426391851    52.2566408338086     0.827094189383403    -20.6975528898662    0.827094189383403    -20.6975528898662    0.369674426391851    52.2566408338086     
1.00628294955873     0.371497445398565    52.2178844105447     0.826321255513421    -20.8132919975518    0.826321255513421    -20.8132919975518    0.371497445398565    52.2178844105447     
1.01260537457262     0.373327656620215    52.1782634690839     0.825541908930255    -20.9295504734869    0.825541908930255    -20.9295504734869    0.373327656620215    52.1782634690839     
1.01896752306396     0.375165037336191    52.1377787939554     0.824756107896303    -21.046328660131     0.824756107896303    -21.046328660131     0.375165037336191    52.1377787939554     
1.02536964461336     0.377009563973679    52.096431207196      0.823963810751119    -21.1636268664678    0.823963810751119    -21.1636268664678    0.377009563973679    52.096431207196      
1.03181199036952     0.378861212099704    52.0542215686842     0.823164975920318    -21.2814453675222    0.823164975920318    -21.2814453675222    0.378861212099704    52.0542215686842     
1.0382948130591      0.380719956413306    52.011150776473      0.822359561924725    -21.399784403881     0.822359561924725    -21.399784403881     0.380719956413306    52.011150776473      
1.04481836699664     0.382585770737761    51.9672197671281     0.821547527389634    -21.5186441812096    0.821547527389634    -21.5186441812096    0.382585770737761    51.9672197671281     
1.05138290809452     0.384458628012927    51.9224295160655     0.820728831054183    -21.638024869771     0.820728831054183    -21.638024869771     0.384458628012927    51.9224295160655     
1.05798869387299     0.386338500287678    51.8767810378926     0.819903431780964    -21.757926603944     0.819903431780964    -21.757926603944     0.386338500287678    51.8767810378926     
1.0646359834703      0.388225358712426    51.8302753867516     0.819071288565703    -21.8783494817407    0.819071288565703    -21.8783494817407    0.388225358712426    51.8302753867516     
1.07132503765286     0.390119173531781    51.7829136566629     0.818232360547142    -21.9992935643249    0.818232360547142    -21.9992935643249    0.390119173531781    51.7829136566629     
1.07805611882543     0.3920199140773      51.7346969818718     0.817386607017042    -22.1207588755315    0.817386607017042    -22.1207588755315    0.3920199140773      51.7346969818718     
1.0848294910415      0.393927548760374    51.6856265371943     0.816533987430366    -22.2427454013853    0.816533987430366    -22.2427454013853    0.393927548760374    51.6856265371943     
1.09164542001353     0.395842045065226    51.6357035383666     0.815674461415562    -22.3652530896221    0.815674461415562    -22.3652530896221    0.395842045065226    51.6357035383666     
1.0985041731235      0.397763369542034    51.5849292423933     0.814807988785047    -22.4882818492082    0.814807988785047    -22.4882818492082    0.397763369542034    51.5849292423933     
1.10540601943329     0.39969148780022     51.5333049478974     0.813934529545796    -22.6118315498642    0.813934529545796    -22.6118315498642    0.39969148780022     51.5333049478974     
1.11235122969531     0.401626364501833    51.4808319954708     0.813054043910081    -22.7359020215879    0.813054043910081    -22.7359020215879    0.401626364501833    51.4808319954708     
1.11934007636307     0.403567963355135    51.4275117680236     0.812166492306403    -22.8604930541796    0.812166492306403    -22.8604930541796    0.403567963355135    51.4275117680236     
1.12637283360193     0.405516247108281    51.3733456911376     0.811271835390475    -22.9856043967686    0.811271835390475    -22.9856043967686    0.405516247108281    51.3733456911376     
1.13344977729978     0.407471177543195    51.3183352334135     0.810370034056438    -23.1112357573418    0.810370034056438    -23.1112357573418    0.407471177543195    51.3183352334135     
1.14057118507791     0.409432715469599    51.2624819068244     0.809461049448144    -23.2373868022749    0.809461049448144    -23.2373868022749    0.409432715469599    51.2624819068244     
1.14773733630189     0.41140082071921     51.2057872670624     0.808544842970634    -23.364057155865     0.808544842970634    -23.364057155865     0.41140082071921     51.2057872670624     
1.15494851209255     0.413375452140116    51.1482529138903     0.807621376301699    -23.4912463998664    0.807621376301699    -23.4912463998664    0.413375452140116    51.1482529138903     
1.16220499533696     0.41535656759132     51.0898804914885     0.806690611403605    -23.6189540730284    0.806690611403605    -23.6189540730284    0.41535656759132     51.0898804914885     
1.16950707069957     0.417344123937488    51.0306716888018     0.805752510534945    -23.7471796706372    0.805752510534945    -23.7471796706372    0.417344123937488    51.0306716888018     
1.17685502463335     0.419338077043883    50.9706282398847     0.804807036262631    -23.8759226440595    0.804807036262631    -23.8759226440595    0.419338077043883    50.9706282398847     
1.18424914539106     0.421338381771488    50.9097519242458     0.803854151473956    -24.0051824002903    0.803854151473956    -24.0051824002903    0.421338381771488    50.9097519242458     
1.19168972303652     0.423344991972349    50.8480445671891     0.802893819388865    -24.1349583015042    0.802893819388865    -24.1349583015042    0.423344991972349    50.8480445671891     
1.19917704945602     0.425357860485114    50.7855080401542     0.801926003572275    -24.2652496646106    0.801926003572275    -24.2652496646106    0.425357860485114    50.7855080401542     
1.20671141836974     0.427376939130808    50.722144261053      0.800950667946565    -24.3960557608126    0.800950667946565    -24.3960557608126    0.427376939130808    50.722144261053      
1.2142931253433      0.429402178708801    50.6579551946053     0.799967776804126    -24.5273758151702    0.799967776804126    -24.5273758151702    0.429402178708801    50.6579551946053     
1.22192246779935     0.43143352899303     50.5929428526699     0.798977294820064    -24.6592090061676    0.798977294820064    -24.6592090061676    0.43143352899303     50.5929428526699     
1.22959974502921     0.433470938728441    50.5271092945741     0.797979187065028    -24.7915544652872    0.797979187065028    -24.7915544652872    0.433470938728441    50.5271092945741     
1.23732525820466     0.435514355627692    50.4604566274379     0.796973419018084    -24.9244112765858    0.796973419018084    -24.9244112765858    0.435514355627692    50.4604566274379     
1.2450993103897      0.437563726368056    50.3929870064976     0.795959956579725    -25.0577784762772    0.795959956579725    -25.0577784762772    0.437563726368056    50.3929870064976     
1.25292220655249     0.43961899658864     50.3247026354217     0.794938766085005    -25.1916550523219    0.794938766085005    -25.1916550523219    0.43961899658864     50.3247026354217     
1.26079425357728     0.441680110887801    50.2556057666257     0.793909814316707    -25.3260399440188    0.793909814316707    -25.3260399440188    0.441680110887801    50.2556057666257     
1.26871576027644     0.443747012820871    50.1856987015817     0.792873068518645    -25.4609320416067    0.792873068518645    -25.4609320416067    0.443747012820871    50.1856987015817     
1.27668703740263     0.445819644898128    50.1149837911219     0.791828496409057    -25.5963301858698    0.791828496409057    -25.5963301858698    0.445819644898128    50.1149837911219     
1.28470839766091     0.447897948583052    50.0434634357389     0.79077606619405     -25.73223316775      0.79077606619405     -25.73223316775      0.447897948583052    50.0434634357389     
1.29278015572109     0.449981864290858    49.9711400858804     0.789715746581123    -25.8686397279662    0.789715746581123    -25.8686397279662    0.449981864290858    49.9711400858804     
1.30090262823002     0.452071331387319    49.8980162422375     0.78864750679281     -26.0055485566406    0.78864750679281     -26.0055485566406    0.452071331387319    49.8980162422375     
1.30907613382401     0.454166288187875    49.824094456029      0.787571316580327    -26.1429582929315    0.787571316580327    -26.1429582929315    0.454166288187875    49.824094456029      
1.31730099314136     0.456266671957068    49.7493773292764     0.786487146237327    -26.2808675246752    0.786487146237327    -26.2808675246752    0.456266671957068    49.7493773292764     
1.32557752883494     0.45837241890823     49.6738675150778     0.785394966613706    -26.4192747880333    0.785394966613706    -26.4192747880333    0.45837241890823     49.6738675150778     
1.33390606558479     0.460483464203544    49.597567717869      0.784294749129439    -26.558178567151     0.784294749129439    -26.558178567151     0.460483464203544    49.597567717869      
1.34228693011095     0.462599741954361    49.5204806936835     0.783186465788507    -26.6975772938201    0.783186465788507    -26.6975772938201    0.462599741954361    49.5204806936835     
1.35072045118618     0.464721185221878    49.4426092504009     0.782070089192801    -26.8374693471533    0.782070089192801    -26.8374693471533    0.464721185221878    49.4426092504009     
1.35920695964893     0.466847726018141    49.3639562479904     0.78094559255616     -26.9778530532676    0.78094559255616     -26.9778530532676    0.466847726018141    49.3639562479904     
1.36774678841628     0.468979295307329    49.2845245987469     0.77981294971832     -27.1187266849725    0.77981294971832     -27.1187266849725    0.468979295307329    49.2845245987469     
1.37634027249702     0.471115823007467    49.2043172675157     0.778672135159007    -27.2600884614744    0.778672135159007    -27.2600884614744    0.471115823007467    49.2043172675157     
1.38498774900477     0.473257237992377    49.1233372719137     0.777523124011962    -27.4019365480835    0.777523124011962    -27.4019365480835    0.473257237992377    49.1233372719137     
1.39368955717122     0.475403468094066    49.0415876825382     0.776365892079029    -27.5442690559367    0.776365892079029    -27.5442690559367    0.475403468094066    49.0415876825382     
1.40244603835946     0.477554440105381    48.9590716231699     0.775200415844221    -27.6870840417245    0.775200415844221    -27.6870840417245    0.477554440105381    48.9590716231699     
1.41125753607732     0.479710079783111    48.875792270963      0.774026672487811    -27.8303795074352    0.774026672487811    -27.8303795074352    0.479710079783111    48.875792270963      
1.42012439599087     0.48187031185137     48.7917528566303     0.772844639900397    -27.9741534001038    0.772844639900397    -27.9741534001038    0.48187031185137     48.7917528566303     
1.429046965938       0.484035060005386    48.7069566646151     0.77165429669698     -28.1184036115746    0.77165429669698     -28.1184036115746    0.484035060005386    48.7069566646151     
1.43802559594205     0.486204246915646    48.6214070332562     0.770455622230965    -28.2631279782744    0.770455622230965    -28.2631279782744    0.486204246915646    48.6214070332562     
1.44706063822552     0.488377794232438    48.5351073549385     0.769248596608246    -28.4083242809989    0.769248596608246    -28.4083242809989    0.488377794232438    48.5351073549385     
1.45615244722391     0.490555622590722    48.4480610762383     0.768033200701115    -28.5539902447065    0.768033200701115    -28.5539902447065    0.490555622590722    48.4480610762383     
1.46530137959964     0.492737651615425    48.3602716980538     0.766809416162256    -28.7001235383283    0.766809416162256    -28.7001235383283    0.492737651615425    48.3602716980538     
1.47450779425601     0.494923799927122    48.2717427757254     0.765577225438625    -28.8467217745897    0.765577225438625    -28.8467217745897    0.494923799927122    48.2717427757254     
1.48377205235127     0.49711398514806     48.1824779191472     0.764336611785282    -28.9937825098412    0.764336611785282    -28.9937825098412    0.49711398514806     48.1824779191472     
1.49309451731285     0.499308123908626    48.0924807928631     0.76308755927918     -29.1413032439061    0.76308755927918     -29.1413032439061    0.499308123908626    48.0924807928631     
1.50247555485155     0.501506131854178    48.0017551161539     0.761830052832874    -29.2892814199384    0.761830052832874    -29.2892814199384    0.501506131854178    48.0017551161539     
1.51191553297591     0.503707923652294    47.9103046631107     0.760564078208145    -29.4377144242958    0.760564078208145    -29.4377144242958    0.503707923652294    47.9103046631107     
1.52141482200666     0.50591341300039     47.818133262698      0.759289622029548    -29.5865995864239    0.759289622029548    -29.5865995864239    0.50591341300039     47.818133262698      
1.53097379459123     0.508122512633783    47.7252447988007     0.758006671797864    -29.7359341787565    0.758006671797864    -29.7359341787565    0.508122512633783    47.7252447988007     
1.54059282571839     0.510335134334119    47.631643210262      0.756715215903434    -29.8857154166283    0.756715215903434    -29.8857154166283    0.510335134334119    47.631643210262      
1.55027229273292     0.512551188938238    47.5373324909065     0.755415243639441    -30.0359404582019    0.755415243639441    -30.0359404582019    0.512551188938238    47.5373324909065     
1.56001257535046     0.514770586347435    47.4423166895484     0.754106745214995    -30.1866064044108    0.754106745214995    -30.1866064044108    0.514770586347435    47.4423166895484     
1.56981405567237     0.516993235537128    47.3465999099897     0.752789711768144    -30.3377102989142    0.752789711768144    -30.3377102989142    0.516993235537128    47.3465999099897     
1.57967711820075     0.519219044566938    47.2501863110018     0.751464135378731    -30.4892491280686    0.751464135378731    -30.4892491280686    0.519219044566938    47.2501863110018     
1.58960214985348     0.521447920591211    47.1530801062927     0.750130009081134    -30.6412198209153    0.750130009081134    -30.6412198209153    0.521447920591211    47.1530801062927     
1.59958953997946     0.523679769869896    47.0552855644635     0.748787326876815    -30.7936192491802    0.748787326876815    -30.7936192491802    0.523679769869896    47.0552855644635     
1.60963968037383     0.52591449777989     46.9568070089461     0.747436083746727    -30.9464442272915    0.747436083746727    -30.9464442272915    0.52591449777989     46.9568070089461     
1.61975296529335     0.528152008826792    46.857648817928      0.746076275663598    -31.0996915124134    0.746076275663598    -31.0996915124134    0.528152008826792    46.857648817928      
1.62992979147189     0.530392206657029    46.7578154242641     0.74470789960395     -31.2533578044926    0.74470789960395     -31.2533578044926    0.530392206657029    46.7578154242641     
1.64017055813598     0.532634994070452    46.6573113153697     0.74333095356        -31.4074397463247    0.74333095356        -31.4074397463247    0.532634994070452    46.6573113153697     
1.65047566702047     0.534880273033308    46.556141033101      0.741945436551362    -31.5619339236338    0.741945436551362    -31.5619339236338    0.534880273033308    46.556141033101      
1.66084552238427     0.537127944691651    46.4543091736191     0.740551348636503    -31.716836865171     0.740551348636503    -31.716836865171     0.537127944691651    46.4543091736191     
1.67128053102626     0.539377909385148    46.3518203872379     0.739148690924064    -31.8721450428273    0.739148690924064    -31.8721450428273    0.539377909385148    46.3518203872379     
1.68178110230118     0.541630066661294    46.2486793782583     0.737737465583872    -32.0278548717636    0.737737465583872    -32.0278548717636    0.541630066661294    46.2486793782583     
1.69234764813577     0.543884315290073    46.144890904782      0.736317675857797    -32.1839627105607    0.736317675857797    -32.1839627105607    0.543884315290073    46.144890904782      
1.70298058304484     0.546140553278971    46.0404597785143     0.734889326070339    -32.340464861381     0.734889326070339    -32.340464861381     0.546140553278971    46.0404597785143     
1.71368032414761     0.548398677888437    45.9353908645475     0.733452421638967    -32.4973575701515    0.733452421638967    -32.4973575701515    0.548398677888437    45.9353908645475     
1.72444729118402     0.55065858564774     45.8296890811278     0.732006969084233    -32.6546370267633    0.732006969084233    -32.6546370267633    0.55065858564774     45.8296890811278     
1.73528190653122     0.552920172371198    45.7233593994078     0.730552976039584    -32.8122993652861    0.730552976039584    -32.8122993652861    0.552920172371198    45.7233593994078     
1.74618459522014     0.555183333174872    45.6164068431783     0.729090451260948    -32.970340664206     0.729090451260948    -32.970340664206     0.555183333174872    45.6164068431783     
1.75715578495214     0.557447962493552    45.5088364885891     0.727619404635984    -33.1287569466721    0.727619404635984    -33.1287569466721    0.557447962493552    45.5088364885891     
1.76819590611583     0.559713954098238    45.4006534638466     0.726139847193124    -33.2875441807703    0.726139847193124    -33.2875441807703    0.559713954098238    45.4006534638466     
1.77930539180391     0.561981201113944    45.2918629488981     0.724651791110229    -33.4466982798086    0.724651791110229    -33.4466982798086    0.561981201113944    45.2918629488981     
1.79048467783019     0.564249596037895    45.1824701750993     0.723155249723014    -33.6062151026221    0.723155249723014    -33.6062151026221    0.564249596037895    45.1824701750993     
1.80173420274668     0.566519030758117    45.0724804248614     0.721650237533142    -33.7660904538972    0.721650237533142    -33.7660904538972    0.566519030758117    45.0724804248614     
1.81305440786078     0.568789396572392    44.9618990312842     0.72013677021596     -33.9263200845123    0.72013677021596     -33.9263200845123    0.568789396572392    44.9618990312842     
1.8244457372526      0.571060584207563    44.8507313777706     0.718614864627959    -34.0868996918966    0.718614864627959    -34.0868996918966    0.571060584207563    44.8507313777706     
1.8359086377924      0.573332483839239    44.738982897622      0.717084538813877    -34.2478249204092    0.717084538813877    -34.2478249204092    0.573332483839239    44.738982897622      
1.84744355915809     0.57560498511181     44.6266590736202     0.715545812013456    -34.4090913617326    0.715545812013456    -34.4090913617326    0.57560498511181     44.6266590736202     
1.85905095385288     0.577877977158848    44.5137654375881     0.713998704667857    -34.570694555288     0.713998704667857    -34.570694555288     0.577877977158848    44.5137654375881     
1.87073127722305     0.580151348623853    44.4003075699332     0.712443238425704    -34.7326299886681    0.712443238425704    -34.7326299886681    0.580151348623853    44.4003075699332     
1.88248498747578     0.582424987681281    44.2862910991774     0.710879436148777    -34.8948930980848    0.710879436148777    -34.8948930980848    0.582424987681281    44.2862910991774     
1.89431254569716     0.584698782057971    44.1717217014646     0.70930732191734     -35.05747926884      0.70930732191734     -35.05747926884      0.584698782057971    44.1717217014646     
1.90621441587025     0.586972619054862    44.0566051000526     0.707726921035048    -35.2203838358116    0.707726921035048    -35.2203838358116    0.586972619054862    44.0566051000526     
1.91819106489329     0.589246385569006    43.9409470647893     0.706138260033527    -35.3836020839569    0.706138260033527    -35.3836020839569    0.589246385569006    43.9409470647893     
1.93024296259802     0.591519968115928    43.8247534115681     0.704541366676508    -35.5471292488377    0.704541366676508    -35.5471292488377    0.591519968115928    43.8247534115681     
1.94237058176812     0.593793252852246    43.7080300017687     0.702936269963611    -35.7109605171596    0.702936269963611    -35.7109605171596    0.593793252852246    43.7080300017687     
1.95457439815773     0.596066125598609    43.5907827416788     0.701323000133681    -35.8750910273313    0.701323000133681    -35.8750910273313    0.596066125598609    43.5907827416788     
1.96685489051015     0.598338471862871    43.4730175819013     0.699701588667736    -36.0395158700405    0.699701588667736    -36.0395158700405    0.598338471862871    43.4730175819013     
1.97921254057656     0.600610176863626    43.3547405167379     0.698072068291498    -36.204230088851     0.698072068291498    -36.204230088851     0.600610176863626    43.3547405167379     
1.99164783313501     0.602881125553857    43.235957583566      0.696434472977498    -36.3692286808102    0.696434472977498    -36.3692286808102    0.602881125553857    43.235957583566      
2.00416125600936     0.605151202645022    43.1166748621865     0.694788837946746    -36.5345065970846    0.694788837946746    -36.5345065970846    0.605151202645022    43.1166748621865     
2.01675330008843     0.607420292631197    42.9968984741657     0.693135199669989    -36.7000587436022    0.693135199669989    -36.7000587436022    0.607420292631197    42.9968984741657     
2.02942445934529     0.60968827981359     42.8766345821528     0.691473595868502    -36.8658799817194    0.691473595868502    -36.8658799817194    0.60968827981359     42.8766345821528     
2.04217523085661     0.6119550483252      42.7558893891841     0.689804065514481    -37.0319651289028    0.689804065514481    -37.0319651289028    0.6119550483252      42.7558893891841     
2.05500611482217     0.614220482155707    42.6346691379713     0.68812664883093     -37.1983089594264    0.68812664883093     -37.1983089594264    0.614220482155707    42.6346691379713     
2.06791761458449     0.616484465176566    42.512980110171      0.686441387291158    -37.3649062050887    0.686441387291158    -37.3649062050887    0.616484465176566    42.512980110171      
2.08091023664853     0.618746881166276    42.3908286256411     0.684748323617782    -37.5317515559436    0.684748323617782    -37.5317515559436    0.618746881166276    42.3908286256411     
2.09398449070164     0.621007613835847    42.2682210416775     0.683047501781286    -37.6988396610507    0.683047501781286    -37.6988396610507    0.621007613835847    42.2682210416775     
2.10714088963348     0.623266546854388    42.1451637522397     0.68133896699814     -37.8661651292382    0.68133896699814     -37.8661651292382    0.623266546854388    42.1451637522397     
2.12037994955619     0.625523563874895    42.0216631871572     0.679622765728402    -38.0337225298847    0.679622765728402    -38.0337225298847    0.625523563874895    42.0216631871572     
2.1337021898246      0.627778548560159    41.8977258113213     0.67789894567291     -38.2015063937169    0.67789894567291     -38.2015063937169    0.627778548560159    41.8977258113213     
2.14710813305662     0.630031384608782    41.7733581238639     0.676167555769986    -38.3695112136199    0.676167555769986    -38.3695112136199    0.630031384608782    41.7733581238639     
2.16059830515376     0.632281955781342    41.648566657319      0.674428646191659    -38.5377314454661    0.674428646191659    -38.5377314454661    0.632281955781342    41.648566657319      
2.17417323532172     0.634530145926639    41.5233579767708     0.672682268339428    -38.7061615089576    0.672682268339428    -38.7061615089576    0.634530145926639    41.5233579767708     
2.18783345609119     0.636775839008033    41.3977386789869     0.670928474839543    -38.8747957884832    0.670928474839543    -38.8747957884832    0.636775839008033    41.3977386789869     
2.20157950333871     0.639018919129864    41.2717153915387     0.669167319537838    -39.0436286339909    0.669167319537838    -39.0436286339909    0.639018919129864    41.2717153915387     
2.21541191630773     0.641259270563929    41.145294771907      0.66739885749404     -39.2126543618729    0.66739885749404     -39.2126543618729    0.641259270563929    41.145294771907      
2.2293312376297      0.643496777776012    41.0184835065738     0.665623144975666    -39.3818672558667    0.665623144975666    -39.3818672558667    0.643496777776012    41.0184835065738     
2.24333801334543     0.645731325452446    40.8912883101028     0.663840239451388    -39.5512615679673    0.663840239451388    -39.5512615679673    0.645731325452446    40.8912883101028     
2.25743279292647     0.647962798526705    40.7637159242045     0.662050199583958    -39.720831519355     0.662050199583958    -39.720831519355     0.647962798526705    40.7637159242045     
2.27161612929665     0.650191082206008    40.6357731167908     0.660253085222634    -39.8905713013349    0.660253085222634    -39.8905713013349    0.650191082206008    40.6357731167908     
2.28588857885382     0.652416061997886    40.5074666810179     0.658448957395183    -40.0604750762878    0.658448957395183    -40.0604750762878    0.652416061997886    40.5074666810179     
2.30025070149164     0.654637623736791    40.3788034343146     0.656637878299325    -40.2305369786361    0.656637878299325    -40.2305369786361    0.654637623736791    40.3788034343146     
2.31470306062154     0.6568556536106      40.2497902174029     0.654819911293818    -40.4007511158185    0.654819911293818    -40.4007511158185    0.6568556536106      40.2497902174029     
2.32924622319487     0.659070038187149    40.1204338933035     0.652995120888973    -40.5711115692791    0.652995120888973    -40.5711115692791    0.659070038187149    40.1204338933035     
2.34388075972507     0.66128066444063     39.9907413463351     0.651163572736757    -40.7416123954645    0.651163572736757    -40.7416123954645    0.66128066444063     39.9907413463351     
2.3586072443101      0.663487419777993    39.8607194810985     0.64932533362043     -40.9122476268346    0.64932533362043     -40.9122476268346    0.663487419777993    39.8607194810985     
2.37342625465496     0.665690192065168    39.7303752214562     0.647480471443736    -41.0830112728802    0.647480471443736    -41.0830112728802    0.665690192065168    39.7303752214562     
2.38833837209433     0.667888869653295    39.5997155094972     0.645629055219572    -41.2538973211554    0.645629055219572    -41.2538973211554    0.667888869653295    39.5997155094972     
2.40334418161538     0.670083341404717    39.4687473044972     0.643771155058292    -41.4248997383121    0.643771155058292    -41.4248997383121    0.670083341404717    39.4687473044972     
2.41844427188074     0.672273496718957    39.3374775818666     0.641906842155513    -41.5960124711524    0.641906842155513    -41.5960124711524    0.672273496718957    39.3374775818666     
2.43363923525156     0.674459225558472    39.2059133320926     0.640036188779464    -41.7672294476825    0.640036188779464    -41.7672294476825    0.674459225558472    39.2059133320926     
2.4489296678108      0.676640418474283    39.0740615596723     0.638159268257959    -41.9385445781776    0.638159268257959    -41.9385445781776    0.676640418474283    39.0740615596723     
2.46431616938654     0.678816966631421    38.9419292820399     0.636276154964855    -42.109951756254     0.636276154964855    -42.109951756254     0.678816966631421    38.9419292820399     
2.47979934357556     0.680988761834207    38.8095235284844     0.634386924306159    -42.2814448599496    0.634386924306159    -42.2814448599496    0.680988761834207    38.8095235284844     
2.49537979776702     0.683155696551311    38.6768513390634     0.632491652705652    -42.453017752809     0.632491652705652    -42.453017752809     0.683155696551311    38.6768513390634     
2.51105814316626     0.685317663940603    38.5439197635099     0.630590417590135    -42.6246642849766    0.630590417590135    -42.6246642849766    0.685317663940603    38.5439197635099     
2.52683499481882     0.6874745578738      38.4107358601328     0.62868329737424     -42.7963782942952    0.62868329737424     -42.7963782942952    0.6874745578738      38.4107358601328     
2.5427109716345      0.689626272960846    38.2773066947139     0.626770371444868    -42.9681536074093    0.626770371444868    -42.9681536074093    0.689626272960846    38.2773066947139     
2.55868669641171     0.691772704574058    38.1436393393985     0.624851720145195    -43.1399840408746    0.624851720145195    -43.1399840408746    0.691772704574058    38.1436393393985     
2.57476279586186     0.693913748871995    38.0097408715841     0.622927424758323    -43.31186340227      0.622927424758323    -43.31186340227      0.693913748871995    38.0097408715841     
2.59093990063396     0.696049302823064    37.8756183728032     0.620997567490515    -43.4837854913156    0.620997567490515    -43.4837854913156    0.696049302823064    37.8756183728032     
2.60721864533935     0.698179264228839    37.7412789276032     0.619062231454097    -43.6557441009933    0.619062231454097    -43.6557441009933    0.698179264228839    37.7412789276032     
2.6235996685766      0.700303531747031    37.6067296224273     0.617121500649955    -43.8277330186688    0.617121500649955    -43.8277330186688    0.700303531747031    37.6067296224273     
2.64008361295657     0.702422004914227    37.4719775444862     0.615175459949727    -43.9997460272192    0.615175459949727    -43.9997460272192    0.702422004914227    37.4719775444862     
2.65667112512761     0.704534584168224    37.3370297806351     0.613224195077577    -44.17177690616      0.613224195077577    -44.17177690616      0.704534584168224    37.3370297806351     
2.67336285580092     0.706641170870072    37.2018934162453     0.61126779259169     -44.3438194327747    0.61126779259169     -44.3438194327747    0.706641170870072    37.2018934162453     
2.69015945977611     0.708741667325732    37.0665755340776     0.60930633986543     -44.5158673832438    0.60930633986543     -44.5158673832438    0.708741667325732    37.0665755340776     
2.70706159596682     0.710835976807433    36.9310832131513     0.607339925068145    -44.6879145337785    0.607339925068145    -44.6879145337785    0.710835976807433    36.9310832131513     
2.72406992742666     0.712924003574577    36.7954235276198     0.605368637145696    -44.8599546617478    0.605368637145696    -44.8599546617478    0.712924003574577    36.7954235276198     
2.74118512137514     0.715005652894327    36.6596035456416     0.603392565800664    -45.0319815468114    0.603392565800664    -45.0319815468114    0.715005652894327    36.6596035456416     
2.75840784922388     0.71708083106178     36.5236303282541     0.601411801472294    -45.2039889720478    0.601411801472294    -45.2039889720478    0.71708083106178     36.5236303282541     
2.77573878660297     0.719149445419703    36.3875109282522     0.599426435316135    -45.3759707250804    0.599426435316135    -45.3759707250804    0.719149445419703    36.3875109282522     
2.79317861338741     0.721211404377945    36.2512523890624     0.59743655918342     -45.5479205992068    0.59743655918342     -45.5479205992068    0.721211404377945    36.2512523890624     
2.81072801372385     0.723266617432321    36.1148617436274     0.595442265600184    -45.7198323945181    0.595442265600184    -45.7198323945181    0.723266617432321    36.1148617436274     
2.82838767605739     0.725314995183141    35.9783460132889     0.593443647746158    -45.8916999190204    0.593443647746158    -45.8916999190204    0.725314995183141    35.9783460132889     
2.84615829315859     0.727356449353258    35.841712206675      0.591440799433393    -46.0635169897513    0.591440799433393    -46.0635169897513    0.727356449353258    35.841712206675      
2.86404056215067     0.729390892805713    35.7049673185921     0.589433815084692    -46.2352774338936    0.589433815084692    -46.2352774338936    0.729390892805713    35.7049673185921     
2.88203518453682     0.731418239560843    35.568118328924      0.5874227897118      -46.4069750898797    0.5874227897118      -46.4069750898797    0.731418239560843    35.568118328924      
2.90014286622776     0.733438404813022    35.4311722015307     0.58540781889342     -46.5786038084991    0.58540781889342     -46.5786038084991    0.733438404813022    35.4311722015307     
2.91836431756938     0.735451304946854    35.2941358831578     0.583388998753032    -46.7501574539925    0.583388998753032    -46.7501574539925    0.735451304946854    35.2941358831578     
2.93670025337067     0.737456857552926    35.1570163023502     0.581366425936519    -46.9216299051454    0.581366425936519    -46.9216299051454    0.737456857552926    35.1570163023502     
2.95515139293171     0.739454981443065    35.0198203683709     0.579340197589643    -47.0930150563729    0.579340197589643    -47.0930150563729    0.739454981443065    35.0198203683709     
2.97371846007191     0.741445596665093    34.8825549701301     0.57731041133538     -47.2643068187975    0.57731041133538     -47.2643068187975    0.741445596665093    34.8825549701301     
2.99240218315841     0.743428624517103    34.7452269751188     0.575277165251071    -47.435499121321     0.575277165251071    -47.435499121321     0.743428624517103    34.7452269751188     
3.01120329513464     0.745403987561223    34.6078432283511     0.573240557845508    -47.6065859116878    0.573240557845508    -47.6065859116878    0.745403987561223    34.6078432283511     
3.03012253354905     0.747371609636857    34.4704105513162     0.571200688035832    -47.7775611575397    0.571200688035832    -47.7775611575397    0.747371609636857    34.4704105513162     
3.04916064058411     0.749331415873438    34.3329357409374     0.569157655124378    -47.948418847463     0.569157655124378    -47.948418847463     0.749331415873438    34.3329357409374     
3.06831836308537     0.751283332702644    34.1954255685413     0.567111558775423    -48.119152992025     0.567111558775423    -48.119152992025     0.751283332702644    34.1954255685413     
3.08759645259077     0.753227287870089    34.0578867788371     0.56506249899183     -48.2897576248028    0.56506249899183     -48.2897576248028    0.753227287870089    34.0578867788371     
3.10699566536011     0.75516321044651     33.9203260889039     0.563010576091636    -48.4602268034015    0.563010576091636    -48.4602268034015    0.75516321044651     33.9203260889039     
3.12651676240477     0.757091030838397    33.7827501871914     0.560955890684607    -48.6305546104607    0.560955890684607    -48.6305546104607    0.757091030838397    33.7827501871914     
3.14616050951748     0.75901068079812     33.6451657325287     0.558898543648703    -48.8007351546531    0.558898543648703    -48.8007351546531    0.75901068079812     33.6451657325287     
3.16592767730245     0.760922093433484    33.5075793531466     0.556838636106565    -48.9707625716689    0.556838636106565    -48.9707625716689    0.760922093433484    33.5075793531466     
3.18581904120554     0.762825203216789    33.3699976457094     0.554776269401954    -49.1406310251913    0.554776269401954    -49.1406310251913    0.762825203216789    33.3699976457094     
3.20583538154468     0.764719945993317    33.232427174361      0.552711545076184    -49.3103347078585    0.552711545076184    -49.3103347078585    0.764719945993317    33.232427174361      
3.22597748354052     0.766606258989302    33.094874469781      0.550644564844571    -49.4798678422141    0.550644564844571    -49.4798678422141    0.766606258989302    33.094874469781      
3.2462461373472      0.768484080819337    32.9573460282561     0.548575430572909    -49.6492246816439    0.548575430572909    -49.6492246816439    0.768484080819337    32.9573460282561     
3.26664213808338     0.770353351493279    32.8198483107611     0.546504244253948    -49.8183995113029    0.546504244253948    -49.8183995113029    0.770353351493279    32.8198483107611     
3.28716628586339     0.772214012422553    32.6823877420574     0.54443110798395     -49.987386649024     0.54443110798395     -49.987386649024     0.772214012422553    32.6823877420574     
3.30781938582863     0.77406600642597     32.5449707098021     0.542356123939268    -50.1561804462175    0.542356123939268    -50.1561804462175    0.77406600642597     32.5449707098021     
3.32860224817918     0.775909277734982    32.4076035636721     0.540279394353008    -50.3247752887548    0.540279394353008    -50.3247752887548    0.775909277734982    32.4076035636721     
3.34951568820557     0.777743771998385    32.2702926145029     0.538201021491776    -50.4931655978378    0.538201021491776    -50.4931655978378    0.777743771998385    32.2702926145029     
3.37056052632075     0.779569436286508    32.1330441334419     0.536121107632497    -50.6613458308538    0.536121107632497    -50.6613458308538    0.779569436286508    32.1330441334419     
3.39173758809227     0.781386219094848    31.9958643511155     0.534039755039339    -50.8293104822169    0.534039755039339    -50.8293104822169    0.781386219094848    31.9958643511155     
3.4130477042747      0.78319407034718     31.8587594568136     0.531957065940755    -50.9970540841919    0.531957065940755    -50.9970540841919    0.78319407034718     31.8587594568136     
3.43449171084221     0.784992941398119    31.7217355976879     0.529873142506658    -51.1645712077047    0.529873142506658    -51.1645712077047    0.784992941398119    31.7217355976879     
3.45607044902131     0.786782785035193    31.5847988779644     0.527788086825695    -51.3318564631383    0.527788086825695    -51.3318564631383    0.786782785035193    31.5847988779644     
3.47778476532393     0.788563555480327    31.4479553581767     0.525702000882705    -51.4989045011084    0.525702000882705    -51.4989045011084    0.788563555480327    31.4479553581767     
3.49963551158058     0.790335208390862    31.3112110544099     0.523614986536304    -51.6657100132275    0.523614986536304    -51.6657100132275    0.790335208390862    31.3112110544099     
3.52162354497379     0.792097700860026    31.1745719375642     0.52152714549666     -51.8322677328517    0.52152714549666     -51.8322677328517    0.792097700860026    31.1745719375642     
3.5437497280717      0.793850991416894    31.0380439326348     0.519438579303413    -51.9985724358082    0.519438579303413    -51.9985724358082    0.793850991416894    31.0380439326348     
3.56601492886194     0.795595040025843    30.9016329180066     0.517349389303808    -52.1646189411105    0.517349389303808    -52.1646189411105    0.795595040025843    30.9016329180066     
3.58842002078566     0.797329808085506    30.7653447247675     0.515259676631007    -52.3304021116542    0.515259676631007    -52.3304021116542    0.797329808085506    30.7653447247675     
3.6109658827718      0.799055258427195    30.6291851360404     0.513169542182623    -52.4959168548938    0.513169542182623    -52.4959168548938    0.799055258427195    30.6291851360404     
3.63365339927156     0.800771355312884    30.4931598863272     0.511079086599433    -52.6611581235079    0.511079086599433    -52.6611581235079    0.800771355312884    30.4931598863272     
3.65648346029309     0.802478064432645    30.3572746608759     0.508988410244367    -52.8261209160415    0.508988410244367    -52.8261209160415    0.802478064432645    30.3572746608759     
3.67945696143645     0.804175352901642    30.2215350950623     0.50689761318167     -52.990800277534     0.50689761318167     -52.990800277534     0.804175352901642    30.2215350950623     
3.70257480392867     0.805863189256629    30.0859467737892     0.504806795156353    -53.1551913001289    0.504806795156353    -53.1551913001289    0.805863189256629    30.0859467737892     
3.72583789465919     0.807541543451977    29.9505152309049     0.502716055573857    -53.319289123665     0.502716055573857    -53.319289123665     0.807541543451977    29.9505152309049     
3.74924714621534     0.80921038685524     29.8152459486385     0.500625493480017    -53.4830889362498    0.500625493480017    -53.4830889362498    0.80921038685524     29.8152459486385     
3.77280347691823     0.810869692242273    29.6801443570529     0.498535207541216    -53.6465859748178    0.498535207541216    -53.6465859748178    0.810869692242273    29.6801443570529     
3.79650781085871     0.812519433791889    29.5452158335165     0.496445296024908    -53.8097755256664    0.496445296024908    -53.8097755256664    0.812519433791889    29.5452158335165     
3.82036107793366     0.814159587080066    29.4104657021935     0.494355856780337    -53.972652924977     0.494355856780337    -53.972652924977     0.814159587080066    29.4104657021935     
3.84436421388246     0.815790129073748    29.27589923355       0.492266987219586    -54.1352135593169    0.492266987219586    -54.1352135593169    0.815790129073748    29.27589923355       
3.86851816032368     0.817411038124182    29.1415216438813     0.490178784298904    -54.2974528661227    0.490178784298904    -54.2974528661227    0.817411038124182    29.1415216438813     
3.89282386479203     0.819022293959873    29.0073380948553     0.488091344500352    -54.4593663341669    0.488091344500352    -54.4593663341669    0.819022293959873    29.0073380948553     
3.91728228077554     0.820623877679092    28.8733536930755     0.486004763813708    -54.6209495040037    0.486004763813708    -54.6209495040037    0.820623877679092    28.8733536930755     
3.94189436775296     0.822215771742013    28.7395734896603     0.483919137718755    -54.7821979684001    0.483919137718755    -54.7821979684001    0.822215771742013    28.7395734896603     
3.9666610912314      0.823797959962442    28.6060024798428     0.481834561167805    -54.9431073727462    0.481834561167805    -54.9431073727462    0.823797959962442    28.6060024798428     
3.99158342278419     0.825370427499159    28.4726456025873     0.479751128568618    -55.1036734154476    0.479751128568618    -55.1036734154476    0.825370427499159    28.4726456025873     
4.01666234008901     0.826933160846881    28.3395077402255     0.477668933767597    -55.2638918483004    0.477668933767597    -55.2638918483004    0.826933160846881    28.3395077402255     
4.04189882696624     0.82848614782688     28.206593718108      0.475588070033348    -55.4237584768483    0.475588070033348    -55.4237584768483    0.82848614782688     28.206593718108      
4.06729387341757     0.830029377577217    28.073908304277      0.473508630040555    -55.5832691607207    0.473508630040555    -55.5832691607207    0.830029377577217    28.073908304277      
4.09284847566479     0.831562840542632    27.9414562091566     0.471430705854205    -55.7424198139519    0.471430705854205    -55.7424198139519    0.831562840542632    27.9414562091566     
4.11856363618892     0.833086528464107    27.8092420852589     0.46935438891417     -55.9012064052853    0.46935438891417     -55.9012064052853    0.833086528464107    27.8092420852589     
4.14444036376952     0.834600434368101    27.6772705269094     0.467279770020107    -56.0596249584578    0.467279770020107    -56.0596249584578    0.834600434368101    27.6772705269094     
4.17047967352425     0.836104552555436    27.5455460699922     0.465206939316746    -56.2176715524645    0.465206939316746    -56.2176715524645    0.836104552555436    27.5455460699922     
4.19668258694872     0.837598878589906    27.4140731917086     0.463135986279501    -56.3753423218097    0.463135986279501    -56.3753423218097    0.837598878589906    27.4140731917086     
4.22305013195652     0.839083409286563    27.2828563103582     0.461066999700468    -56.532633456737     0.461066999700468    -56.532633456737     0.839083409286563    27.2828563103582     
4.2495833429196      0.840558142699727    27.1518997851333     0.459000067674758    -56.6895412034439    0.459000067674758    -56.6895412034439    0.840558142699727    27.1518997851333     
4.27628326070879     0.842023078110696    27.0212079159345     0.456935277587208    -56.8460618642764    0.456935277587208    -56.8460618642764    0.842023078110696    27.0212079159345     
4.30315093273467     0.843478216015202    26.8907849431998     0.454872716099455    -57.0021917979101    0.454872716099455    -57.0021917979101    0.843478216015202    26.8907849431998     
4.33018741298865     0.844923558110601    26.760635047754      0.452812469137372    -57.1579274195106    0.452812469137372    -57.1579274195106    0.844923558110601    26.760635047754      
4.35739376208431     0.846359107282799    26.6307623506736     0.450754621878873    -57.3132652008789    0.450754621878873    -57.3132652008789    0.846359107282799    26.6307623506736     
4.38477104729901     0.847784867592944    26.5011709131693     0.448699258742094    -57.4682016705785    0.448699258742094    -57.4682016705785    0.847784867592944    26.5011709131693     
4.41232034261578     0.8492008442639      26.3718647364841     0.446646463373933    -57.6227334140477    0.446646463373933    -57.6227334140477    0.8492008442639      26.3718647364841     
4.44004272876539     0.850607043666461    26.2428477618098     0.444596318638971    -57.7768570736929    0.444596318638971    -57.7768570736929    0.850607043666461    26.2428477618098     
4.46793929326884     0.852003473305401    26.1141238702175     0.442548906608753    -57.9305693489683    0.442548906608753    -57.9305693489683    0.852003473305401    26.1141238702175     
4.49601113047992     0.853390141805278    25.9856968826065     0.440504308551462    -58.0838669964364    0.440504308551462    -58.0838669964364    0.853390141805278    25.9856968826065     
4.52425934162822     0.854767058896069    25.8575705596682     0.438462604921943    -58.2367468298146    0.438462604921943    -58.2367468298146    0.854767058896069    25.8575705596682     
4.55268503486229     0.85613423539861     25.7297486018664     0.436423875352093    -58.3892057200053    0.436423875352093    -58.3892057200053    0.85613423539861     25.7297486018664     
4.58128932529312     0.85749168320989     25.602234649431      0.434388198641657    -58.5412405951109    0.434388198641657    -58.5412405951109    0.85749168320989     25.602234649431      
4.61007333503789     0.858839415288123    25.4750322823715     0.432355652749354    -58.6928484404307    0.432355652749354    -58.6928484404307    0.858839415288123    25.4750322823715     
4.63903819326398     0.860177445637736    25.3481450205013     0.430326314784401    -58.8440262984475    0.430326314784401    -58.8440262984475    0.860177445637736    25.3481450205013     
4.66818503623329     0.861505789294158    25.2215763234801     0.428300260998386    -58.9947712687938    0.428300260998386    -58.9947712687938    0.861505789294158    25.2215763234801     
4.69751500734676     0.862824462308499    25.0953295908689     0.426277566777516    -59.1450805082069    0.426277566777516    -59.1450805082069    0.862824462308499    25.0953295908689     
4.72702925718931     0.864133481732099    24.9694081622017     0.424258306635238    -59.2949512304675    0.424258306635238    -59.2949512304675    0.864133481732099    24.9694081622017     
4.75672894357487     0.865432865600969    24.843815317069      0.422242554205196    -59.444380706326     0.422242554205196    -59.444380706326     0.865432865600969    24.843815317069      
4.78661523159191     0.866722632920091    24.7185542752189     0.42023038223459     -59.5933662634105    0.42023038223459     -59.5933662634105    0.866722632920091    24.7185542752189     
4.81668929364906     0.868002803647671    24.5936281966679     0.418221862577848    -59.7419052861265    0.418221862577848    -59.7419052861265    0.868002803647671    24.5936281966679     
4.84695230952113     0.869273398679255    24.4690401818292     0.416217066190694    -59.8899952155379    0.416217066190694    -59.8899952155379    0.869273398679255    24.4690401818292     
4.87740546639543     0.8705344398318      24.3447932716518     0.414216063124553    -60.0376335492378    0.414216063124553    -60.0376335492378    0.8705344398318      24.3447932716518     
4.90804995891827     0.871785949827647    24.2208904477743     0.412218922521296    -60.1848178412041    0.412218922521296    -60.1848178412041    0.871785949827647    24.2208904477743     
4.93888698924189     0.873027952278454    24.0973346326901     0.410225712608352    -60.3315457016442    0.410225712608352    -60.3315457016442    0.873027952278454    24.0973346326901     
4.96991776707157     0.874260471669051    23.9741286899279     0.408236500694164    -60.4778147968242    0.408236500694164    -60.4778147968242    0.874260471669051    23.9741286899279     
5.00114350971312     0.875483533341272    23.8512754242408     0.406251353163977    -60.623622848889     0.406251353163977    -60.623622848889     0.875483533341272    23.8512754242408     
5.03256544212063     0.876697163477733    23.728777581811      0.404270335475962    -60.7689676356666    0.404270335475962    -60.7689676356666    0.876697163477733    23.728777581811      
5.06418479694448     0.877901389085587    23.6066378504652     0.402293512157692    -60.913846990464     0.402293512157692    -60.913846990464     0.877901389085587    23.6066378504652     
5.09600281457978     0.879096237980259    23.4848588599005     0.400320946802936    -61.0582588018489    0.400320946802936    -61.0582588018489    0.879096237980259    23.4848588599005     
5.12802074321494     0.88028173876916     23.3634431819232     0.398352702068785    -61.2022010134205    0.398352702068785    -61.2022010134205    0.88028173876916     23.3634431819232     
5.16023983888068     0.881457920835402    23.2423933306989     0.396388839673103    -61.3456716235699    0.396388839673103    -61.3456716235699    0.881457920835402    23.2423933306989     
5.19266136549933     0.882624814321515    23.1217117630115     0.394429420392284    -61.4886686852296    0.394429420392284    -61.4886686852296    0.882624814321515    23.1217117630115     
5.22528659493433     0.883782450113164    23.0014008785351     0.392474504059349    -61.6311903056104    0.392474504059349    -61.6311903056104    0.883782450113164    23.0014008785351     
5.25811680704022     0.884930859822894    22.8814630201147     0.390524149562338    -61.7732346459308    0.390524149562338    -61.7732346459308    0.884930859822894    22.8814630201147     
5.29115328971277     0.886070075773891    22.761900474057      0.388578414843008    -61.9147999211348    0.388578414843008    -61.9147999211348    0.886070075773891    22.761900474057      
5.32439733893955     0.887200130983769    22.6427154704329     0.386637356895839    -62.0558843995986    0.386637356895839    -62.0558843995986    0.887200130983769    22.6427154704329     
5.35785025885075     0.888321059148414    22.5239101833862     0.384701031767335    -62.196486402831     0.384701031767335    -62.196486402831     0.888321059148414    22.5239101833862     
5.39151336177034     0.889432894625839    22.4054867314548     0.38276949455562     -62.3366043051613    0.38276949455562     -62.3366043051613    0.889432894625839    22.4054867314548     
5.42538796826757     0.890535672420124    22.2874471778989     0.380842799410317    -62.4762365334195    0.380842799410317    -62.4762365334195    0.890535672420124    22.2874471778989     
5.45947540720874     0.891629428165382    22.1697935310387     0.378920999532723    -62.6153815666079    0.378920999532723    -62.6153815666079    0.891629428165382    22.1697935310387     
5.49377701580937     0.892714198109811    22.0525277446007     0.377004147176237    -62.754037935564     0.377004147176237    -62.754037935564     0.892714198109811    22.0525277446007     
5.52829413968661     0.893790019099799    21.9356517180714     0.375092293647096    -62.8922042226147    0.375092293647096    -62.8922042226147    0.893790019099799    21.9356517180714     
5.56302813291209     0.894856928564113    21.8191672970597     0.373185489305352    -63.0298790612229    0.373185489305352    -63.0298790612229    0.894856928564113    21.8191672970597     
5.59798035806498     0.895914964498159    21.7030762736665     0.371283783566122    -63.1670611356266    0.371283783566122    -63.1670611356266    0.895914964498159    21.7030762736665     
5.63315218628547     0.896964165448333    21.5873803868627     0.369387224901096    -63.3037491804698    0.369387224901096    -63.3037491804698    0.896964165448333    21.5873803868627     
5.66854499732856     0.898004570496463    21.4720813228724     0.367495860840301    -63.4399419804268    0.367495860840301    -63.4399419804268    0.898004570496463    21.4720813228724     
5.70416017961817     0.899036219244344    21.3571807155653     0.365609737974104    -63.5756383698194    0.365609737974104    -63.5756383698194    0.899036219244344    21.3571807155653     
5.73999913030164     0.900059151798369    21.242680146854      0.36372890195547     -63.7108372322269    0.36372890195547     -63.7108372322269    0.900059151798369    21.242680146854      
5.77606325530448     0.901073408754279    21.1285811470982     0.361853397502447    -63.8455375000909    0.361853397502447    -63.8455375000909    0.901073408754279    21.1285811470982     
5.8123539693856      0.902079031182008    21.0148851955158     0.35998326840088     -63.9797381543121    0.35998326840088     -63.9797381543121    0.902079031182008    21.0148851955158     
5.84887269619274     0.90307606061065     20.9015937205984     0.358118557507372    -64.1134382238433    0.358118557507372    -64.1134382238433    0.90307606061065     20.9015937205984     
5.88562086831836     0.904064539013542    20.7887081005341     0.356259306752431    -64.2466367852737    0.356259306752431    -64.2466367852737    0.904064539013542    20.7887081005341     
5.92259992735582     0.905044508793478    20.6762296636335     0.354405557143876    -64.3793329624119    0.354405557143876    -64.3793329624119    0.905044508793478    20.6762296636335     
5.95981132395594     0.90601601276803     20.5641596887638     0.352557348770417    -64.5115259258589    0.352557348770417    -64.5115259258589    0.90601601276803     20.5641596887638     
5.99725651788391     0.906979094155019    20.4524994057853     0.350714720805455    -64.6432148925805    0.350714720805455    -64.6432148925805    0.906979094155019    20.4524994057853     
6.03493697807655     0.907933796558115    20.3412499959932     0.348877711511088    -64.7743991254721    0.348877711511088    -64.7743991254721    0.907933796558115    20.3412499959932     
6.07285418269993     0.908880163952566    20.2304125925638     0.347046358242292    -64.9050779329204    0.347046358242292    -64.9050779329204    0.908880163952566    20.2304125925638     
6.11100961920736     0.909818240671077    20.1199882810067     0.345220697451311    -65.0352506683593    0.345220697451311    -65.0352506683593    0.909818240671077    20.1199882810067     
6.14940478439776     0.910748071389828    20.0099780996171     0.343400764692223    -65.1649167298246    0.343400764692223    -65.1649167298246    0.910748071389828    20.0099780996171     
6.18804118447435     0.911669701114643    19.9003830399364     0.341586594625675    -65.2940755595007    0.341586594625675    -65.2940755595007    0.911669701114643    19.9003830399364     
6.22692033510376     0.912583175167302    19.791204047212      0.33977822102381     -65.4227266432688    0.33977822102381     -65.4227266432688    0.912583175167302    19.791204047212      
6.26604376147545     0.913488539172013    19.6824420208635     0.337975676775343    -65.5508695102469    0.337975676775343    -65.5508695102469    0.913488539172013    19.6824420208635     
6.3054129983616      0.91438583904203     19.5740978149505     0.336178993890806    -65.67850373233      0.336178993890806    -65.67850373233      0.91438583904203     19.5740978149505     
6.34502959017728     0.915275120966441    19.4661722386442     0.334388203507953    -65.8056289237252    0.334388203507953    -65.8056289237252    0.915275120966441    19.4661722386442     
6.38489509104102     0.916156431397099    19.3586660566995     0.332603335897319    -65.9322447404859    0.332603335897319    -65.9322447404859    0.916156431397099    19.3586660566995     
6.42501106483582     0.917029817035732    19.2515799899326     0.330824420467915    -66.0583508800421    0.330824420467915    -66.0583508800421    0.917029817035732    19.2515799899326     
6.46537908527047     0.917895324821195    19.144914715699      0.329051485773072    -66.183947080729     0.329051485773072    -66.183947080729     0.917895324821195    19.144914715699      
6.5060007359413      0.918753001916915    19.0386708683724     0.327284559516419    -66.3090331213132    0.327284559516419    -66.3090331213132    0.918753001916915    19.0386708683724     
6.54687761039429     0.919602895698477    18.9328490398288     0.325523668557995    -66.4336088205178    0.325523668557995    -66.4336088205178    0.919602895698477    18.9328490398288     
6.58801131218758     0.92044505374139     18.8274497799286     0.323768838920488    -66.5576740365439    0.323768838920488    -66.5576740365439    0.92044505374139     18.8274497799286     
6.62940345495441     0.921279523809026    18.7224735970029     0.322020095795587    -66.6812286665924    0.322020095795587    -66.6812286665924    0.921279523809026    18.7224735970029     
6.67105566246636     0.922106353840729    18.6179209583386     0.320277463550456    -66.8042726463846    0.320277463550456    -66.8042726463846    0.922106353840729    18.6179209583386     
6.71296956869713     0.922925591940077    18.5137922906676     0.318540965734328    -66.9268059496797    0.318540965734328    -66.9268059496797    0.922925591940077    18.5137922906676     
6.75514681788655     0.923737286363356    18.4100879806533     0.316810625085184    -67.0488285877927    0.316810625085184    -67.0488285877927    0.923737286363356    18.4100879806533     
6.79758906460515     0.924541485508172    18.3068083753806     0.315086463536562    -67.1703406091118    0.315086463536562    -67.1703406091118    0.924541485508172    18.3068083753806     
6.84029797381905     0.925338237902251    18.2039537828457     0.313368502224437    -67.2913420986138    0.313368502224437    -67.2913420986138    0.925338237902251    18.2039537828457     
6.88327522095524     0.926127592192423    18.1015244724449     0.311656761494206    -67.411833177381     0.311656761494206    -67.411833177381     0.926127592192423    18.1015244724449     
6.92652249196737     0.926909597133775    17.9995206754655     0.309951260907767    -67.5318140021156    0.309951260907767    -67.5318140021156    0.926909597133775    17.9995206754655     
6.97004148340182     0.927684301578966    17.8979425855763     0.30825201925067     -67.6512847646554    0.30825201925067     -67.6512847646554    0.927684301578966    17.8979425855763     
7.0138339024643      0.928451754467753    17.7967903593164     0.306559054539348    -67.7702456914887    0.306559054539348    -67.7702456914887    0.928451754467753    17.7967903593164     
7.0579014670868      0.929212004816665    17.6960641165859     0.304872384028434    -67.8886970432704    0.304872384028434    -67.8886970432704    0.929212004816665    17.6960641165859     
7.102245905995       0.929965101708862    17.5957639411344     0.303192024218134    -68.0066391143378    0.303192024218134    -68.0066391143378    0.929965101708862    17.5957639411344     
7.14686895877607     0.930711094284177    17.4958898810505     0.301517990861675    -68.1240722322257    0.301517990861675    -68.1240722322257    0.930711094284177    17.4958898810505     
7.19177237594693     0.931450031729334    17.3964419492491     0.299850298972814    -68.2409967571844    0.299850298972814    -68.2409967571844    0.931450031729334    17.3964419492491     
7.23695791902288     0.932181963268339    17.2974201239584     0.298188962833401    -68.3574130816974    0.298188962833401    -68.3574130816974    0.932181963268339    17.2974201239584     
7.28242736058676     0.932906938153048    17.1988243492066     0.296533996000999    -68.4733216299987    0.296533996000999    -68.4733216299987    0.932906938153048    17.1988243492066     
7.32818248435845     0.933625005653919    17.100654535306      0.294885411316554    -68.5887228575932    0.294885411316554    -68.5887228575932    0.933625005653919    17.100654535306      
7.37422508526485     0.934336215050929    17.0029105593374     0.293243220912105    -68.7036172507764    0.293243220912105    -68.7036172507764    0.934336215050929    17.0029105593374     
7.4205569695103      0.935040615624681    16.9055922656316     0.291607436218552    -68.8180053261581    0.291607436218552    -68.8180053261581    0.935040615624681    16.9055922656316     
7.46717995464742     0.935738256647672    16.8086994662509     0.289978067973433    -68.9318876301829    0.289978067973433    -68.9318876301829    0.935738256647672    16.8086994662509     
7.51409586964844     0.936429187375743    16.7122319414675     0.288355126228774    -69.0452647386574    0.288355126228774    -69.0452647386574    0.936429187375743    16.7122319414675     
7.56130655497691     0.937113457039705    16.6161894402413     0.286738620358933    -69.1581372562749    0.286738620358933    -69.1581372562749    0.937113457039705    16.6161894402413     
7.60881386265994     0.937791114837133    16.5205716806951     0.285128559068504    -69.2705058161439    0.285128559068504    -69.2705058161439    0.937791114837133    16.5205716806951     
7.6566196563608      0.938462209924331    16.4253783505878     0.28352495040021     -69.3823710793188    0.28352495040021     -69.3823710793188    0.938462209924331    16.4253783505878     
7.70472581145211     0.939126791408477    16.3306091077867     0.281927801742856    -69.4937337343301    0.281927801742856    -69.4937337343301    0.939126791408477    16.3306091077867     
7.75313421508931     0.939784908339928    16.2362635807361     0.280337119839265    -69.6045944967193    0.280337119839265    -69.6045944967193    0.939784908339928    16.2362635807361     
7.80184676628479     0.9404366097047      16.142341368924      0.278752910794249    -69.7149541085743    0.278752910794249    -69.7149541085743    0.9404366097047      16.142341368924      
7.85086537598231     0.941081944417122    16.0488420433471     0.277175180082584    -69.8248133380687    0.277175180082584    -69.8248133380687    0.941081944417122    16.0488420433471     
7.900191967132       0.941720961312634    15.955765146973      0.27560393255699     -69.934172979        0.27560393255699     -69.934172979        0.941720961312634    15.955765146973      
7.94982847476578     0.942353709140787    15.8631101951992     0.274039172456122    -70.0430338503347    0.274039172456122    -70.0430338503347    0.942353709140787    15.8631101951992     
7.9997768460733      0.942980236558369    15.7708766763105     0.272480903412559    -70.1513967957521    0.272480903412559    -70.1513967957521    0.942980236558369    15.7708766763105     
8.05003904047828     0.943600592122728    15.6790640519329     0.270929128460794    -70.259262683193     0.270929128460794    -70.259262683193     0.943600592122728    15.6790640519329     
8.10061702971542     0.944214824285226    15.5876717574855     0.269383850045217    -70.3666324044092    0.269383850045217    -70.3666324044092    0.944214824285226    15.5876717574855     
8.15151279790772     0.944822981384884    15.4966992026279     0.267845070028098    -70.473506874518     0.267845070028098    -70.473506874518     0.944822981384884    15.4966992026279     
8.20272834164433     0.945425111642161    15.4061457717068     0.266312789697551    -70.5798870315569    0.266312789697551    -70.5798870315569    0.945425111642161    15.4061457717068     
8.25426567005885     0.946021263152903    15.3160108241982     0.2647870097755      -70.6857738360431    0.2647870097755      -70.6857738360431    0.946021263152903    15.3160108241982     
8.3061268049082      0.946611483882444    15.2262936951467     0.263267730425611    -70.7911682705345    0.263267730425611    -70.7911682705345    0.946611483882444    15.2262936951467     
8.35831378065187     0.947195821659866    15.1369936956018     0.261754951261231    -70.8960713391954    0.261754951261231    -70.8960713391954    0.947195821659866    15.1369936956018     
8.41082864453175     0.947774324172404    15.0481101130514     0.260248671353293    -71.0004840673626    0.260248671353293    -71.0004840673626    0.947774324172404    15.0481101130514     
8.46367345665247     0.94834703896001     14.9596422118507     0.258748889238196    -71.1044075011176    0.258748889238196    -71.1044075011176    0.94834703896001     14.9596422118507     
8.51685029006219     0.948914013410058    14.87158923365       0.257255602925682    -71.2078427068593    0.257255602925682    -71.2078427068593    0.948914013410058    14.87158923365       
8.57036123083392     0.949475294752214    14.7839503978161     0.255768809906659    -71.3107907708819    0.255768809906659    -71.3107907708819    0.949475294752214    14.7839503978161     
8.62420837814735     0.950030930053426    14.6967249018538     0.254288507161021    -71.4132527989542    0.254288507161021    -71.4132527989542    0.950030930053426    14.6967249018538     
8.67839384437124     0.950580966213074    14.6099119218207     0.25281469116543     -71.5152299159037    0.25281469116543     -71.5152299159037    0.950580966213074    14.6099119218207     
8.73291975514623     0.951125449958275    14.5235106127406     0.251347357901055    -71.6167232652035    0.251347357901055    -71.6167232652035    0.951125449958275    14.5235106127406     
8.78778824946826     0.951664427839298    14.4375201090123     0.249886502861294    -71.7177340085618    0.249886502861294    -71.7177340085618    0.951664427839298    14.4375201090123     
8.84300147977248     0.952197946225144    14.3519395248154     0.248432121059458    -71.8182633255155    0.248432121059458    -71.8182633255155    0.952197946225144    14.3519395248154     
8.89856161201767     0.952726051299253    14.2667679545116     0.246984207036402    -71.9183124130281    0.246984207036402    -71.9183124130281    0.952726051299253    14.2667679545116     
8.95447082577124     0.953248789055348    14.1820044730436     0.24554275486814     -72.0178824850885    0.24554275486814     -72.0178824850885    0.953248789055348    14.1820044730436     
9.01073131429469     0.953766205293411    14.0976481363288     0.2441077581734      -72.1169747723164    0.2441077581734      -72.1169747723164    0.953766205293411    14.0976481363288     
9.06734528462968     0.954278345615792    14.0136979816512     0.242679210121155    -72.2155905215681    0.242679210121155    -72.2155905215681    0.954278345615792    14.0136979816512     
9.12431495768461     0.954785255423449    13.9301530280468     0.241257103438087    -72.3137309955487    0.241257103438087    -72.3137309955487    0.954785255423449    13.9301530280468     
9.18164256832172     0.955286979912317    13.8470122766884     0.239841430416035    -72.4113974724254    0.239841430416035    -72.4113974724254    0.955286979912317    13.8470122766884     
9.23933036544478     0.955783564069798    13.764274711263      0.238432182919367    -72.5085912454465    0.238432182919367    -72.5085912454465    0.955783564069798    13.764274711263      
9.29738061208733     0.956275052671375    13.68193929835       0.237029352392335    -72.6053136225618    0.237029352392335    -72.6053136225618    0.956275052671375    13.68193929835       
9.3557955855014      0.956761490277365    13.6000049877901     0.235632929866346    -72.7015659260489    0.235632929866346    -72.7015659260489    0.956761490277365    13.6000049877901     
9.4145775772469      0.957242921229765    13.5184707130547     0.234242905967218    -72.7973494921408    0.234242905967218    -72.7973494921408    0.957242921229765    13.5184707130547     
9.47372889328151     0.957719389649236    13.4373353916097     0.232859270922355    -72.8926656706591    0.232859270922355    -72.8926656706591    0.957719389649236    13.4373353916097     
9.53325185405109     0.958190939432202    13.3565979252746     0.231482014567892    -72.9875158246498    0.231482014567892    -72.9875158246498    0.958190939432202    13.3565979252746     
9.59314879458077     0.95865761424806     13.2762572005795     0.23011112635577     -73.0819013300225    0.23011112635577     -73.0819013300225    0.95865761424806     13.2762572005795     
9.65342206456653     0.959119457536495    13.1963120891166     0.22874659536077     -73.1758235751943    0.22874659536077     -73.1758235751943    0.959119457536495    13.1963120891166     
9.71407402846734     0.959576512504927    13.1167614478885     0.227388410287475    -73.2692839607363    0.227388410287475    -73.2692839607363    0.959576512504927    13.1167614478885     
9.77510706559798     0.960028822126044    13.0376041196528     0.226036559477199    -73.3622838990243    0.226036559477199    -73.3622838990243    0.960028822126044    13.0376041196528     
9.83652357022233     0.96047642913546     12.9588389332619     0.22469103091483     -73.4548248138928    0.22469103091483     -73.4548248138928    0.96047642913546     12.9588389332619     
9.89832595164731     0.960919376029467    12.8804647039996     0.223351812235637    -73.546908140293     0.223351812235637    -73.546908140293     0.960919376029467    12.8804647039996     
9.96051663431739     0.961357705062894    12.8024802339133     0.222018890732017    -73.6385353239546    0.222018890732017    -73.6385353239546    0.961357705062894    12.8024802339133     
10.0230980579097     0.961791458247075    12.7248843121423     0.220692253360161    -73.7297078210503    0.220692253360161    -73.7297078210503    0.961791458247075    12.7248843121423     
10.0860726774298     0.9622206773479      12.647675715243      0.219371886746689    -73.820427097865     0.219371886746689    -73.820427097865     0.9622206773479      12.647675715243      
10.1494429633078     0.962645403883984    12.5708532075081     0.218057777195204    -73.9106946304678    0.218057777195204    -73.9106946304678    0.962645403883984    12.5708532075081     
10.2132114014954     0.963065679124916    12.4944155412841     0.216749910692786    -74.0005119043885    0.216749910692786    -74.0005119043885    0.963065679124916    12.4944155412841     
10.2773804935637     0.963481544089608    12.4183614572837     0.215448272916437    -74.0898804142968    0.215448272916437    -74.0898804142968    0.963481544089608    12.4183614572837     
10.3419527568006     0.963893039544741    12.3426896848942     0.214152849239449    -74.1788016636852    0.214152849239449    -74.1788016636852    0.963893039544741    12.3426896848942     
10.4069307243104     0.964300206003295    12.2673989424825     0.212863624737718    -74.2672771645564    0.212863624737718    -74.2672771645564    0.964300206003295    12.2673989424825     
10.4723169451124     0.96470308372317     12.1924879376955     0.211580584195982    -74.3553084371129    0.211580584195982    -74.3553084371129    0.96470308372317     12.1924879376955     
10.5381139842416     0.965101712705894    12.1179553677572     0.210303712114019    -74.4428970094515    0.210303712114019    -74.4428970094515    0.965101712705894    12.1179553677572     
10.6043244228488     0.965496132695418    12.043799919762      0.209032992712751    -74.5300444172599    0.209032992712751    -74.5300444172599    0.965496132695418    12.043799919762      
10.670950858302      0.965886383176994    11.9700202709627     0.207768409940308    -74.6167522035179    0.207768409940308    -74.6167522035179    0.965886383176994    11.9700202709627     
10.7379959042884     0.966272503376127    11.8966150890573     0.206509947478016    -74.7030219182017    0.206509947478016    -74.7030219182017    0.966272503376127    11.8966150890573     
10.8054621909169     0.966654532257627    11.8235830324684     0.205257588746313    -74.7888551179918    0.205257588746313    -74.7888551179918    0.966654532257627    11.8235830324684     
10.8733523648212     0.967032508524714    11.7509227506226     0.204011316910621    -74.8742533659836    0.204011316910621    -74.8742533659836    0.967032508524714    11.7509227506226     
10.9416690892637     0.967406470618216    11.6786328842223     0.202771114887127    -74.9592182314029    0.202771114887127    -74.9592182314029    0.967406470618216    11.6786328842223     
11.0104150442398     0.967776456715841    11.6067120655169     0.201536965348516    -75.0437512893229    0.201536965348516    -75.0437512893229    0.967776456715841    11.6067120655169     
11.0795929265835     0.968142504731514    11.5351589185683     0.200308850729638    -75.1278541203862    0.200308850729638    -75.1278541203862    0.968142504731514    11.5351589185683     
11.1492054500725     0.968504652314798    11.4639720595129     0.199086753233091    -75.211528310529     0.199086753233091    -75.211528310529     0.968504652314798    11.4639720595129     
11.2192553455352     0.96886293685037     11.3931500968205     0.197870654834765    -75.2947754507096    0.197870654834765    -75.2947754507096    0.96886293685037     11.3931500968205     
11.2897453609578     0.969217395457574    11.3226916315486     0.196660537289293    -75.3775971366388    0.196660537289293    -75.3775971366388    0.969217395457574    11.3226916315486     
11.3606782615916     0.969568064990051    11.2525952575938     0.195456382135459    -75.4599949685152    0.195456382135459    -75.4599949685152    0.969568064990051    11.2525952575938     
11.4320568300621     0.96991498203541     11.1828595619388     0.194258170701523    -75.5419705507619    0.194258170701523    -75.5419705507619    0.96991498203541     11.1828595619388     
11.503883866478      0.970258182914984    11.113483124896      0.193065884110487    -75.6235254917683    0.193065884110487    -75.6235254917683    0.970258182914984    11.113483124896      
11.5761621885405     0.970597703683634    11.0444645203481     0.191879503285304    -75.7046614036334    0.191879503285304    -75.7046614036334    0.970597703683634    11.0444645203481     
11.6488946316548     0.970933580129628    10.9758023159833     0.190699008953994    -75.7853799019126    0.190699008953994    -75.7853799019126    0.970933580129628    10.9758023159833     
11.7220840490405     0.971265847774567    10.9074950735293     0.189524381654732    -75.8656826053687    0.189524381654732    -75.8656826053687    0.971265847774567    10.9074950735293     
11.7957333118438     0.97159454187337     10.8395413489814     0.188355601740836    -75.9455711357241    0.188355601740836    -75.9455711357241    0.97159454187337     10.8395413489814     
11.8698453092504     0.971919697414322    10.7719396928287     0.18719264938571     -76.0250471174177    0.18719264938571     -76.0250471174177    0.971919697414322    10.7719396928287     
11.9444229485983     0.972241349119174    10.7046886502761     0.186035504587717    -76.104112177363     0.186035504587717    -76.104112177363     0.972241349119174    10.7046886502761     
12.0194691554925     0.972559531443287    10.6377867614626     0.18488414717498     -76.1827679447112    0.18488414717498     -76.1827679447112    0.972559531443287    10.6377867614626     
12.0949868739192     0.972874278575845    10.5712325616768     0.18373855681013     -76.2610160506147    0.18373855681013     -76.2610160506147    0.972874278575845    10.5712325616768     
12.1709790663616     0.973185624440106    10.5050245815682     0.182598712994977    -76.3388581279965    0.182598712994977    -76.3388581279965    0.973185624440106    10.5050245815682     
12.2474487139159     0.973493602693705    10.4391613473556     0.18146459507513     -76.4162958113188    0.18146459507513     -76.4162958113188    0.973493602693705    10.4391613473556     
12.3243988164086     0.973798246729008    10.3736413810315     0.180336182244538    -76.493330736358     0.180336182244538    -76.493330736358     0.973798246729008    10.3736413810315     
12.4018323925138     0.974099589673504    10.3084632005645     0.179213453549978    -76.5699645399787    0.179213453549978    -76.5699645399787    0.974099589673504    10.3084632005645     
12.4797524798718     0.974397664390258    10.2436253200966     0.178096387895478    -76.646198859914     0.178096387895478    -76.646198859914     0.974397664390258    10.2436253200966     
12.5581621352082     0.97469250347839     10.1791262501382     0.176984964046671    -76.7220353345456    0.176984964046671    -76.7220353345456    0.97469250347839     10.1791262501382     
12.6370644344541     0.974984139273609    10.1149644977595     0.175879160635088    -76.7974756026883    0.175879160635088    -76.7974756026883    0.974984139273609    10.1149644977595     
12.7164624728662     0.975272603848785    10.0511385667797     0.174778956162399    -76.8725213033751    0.174778956162399    -76.8725213033751    0.975272603848785    10.0511385667797     
12.7963593651488     0.975557929014556    9.98764695795084     0.173684329004575    -76.9471740756474    0.173684329004575    -76.9471740756474    0.975557929014556    9.98764695795084     
12.8767582455754     0.975840146319983    9.92448816914018     0.172595257415995    -77.0214355583452    0.172595257415995    -77.0214355583452    0.975840146319983    9.92448816914018     
12.9576622681123     0.976119287053239    9.86166069550926     0.171511719533503    -77.0953073899012    0.171511719533503    -77.0953073899012    0.976119287053239    9.86166069550926     
13.0390746065419     0.976395382242328    9.79916302968905     0.170433693380377    -77.1687912081358    0.170433693380377    -77.1687912081358    0.976395382242328    9.79916302968905     
13.1209984545874     0.976668462655857    9.7369936619526      0.169361156870269    -77.2418886500568    0.169361156870269    -77.2418886500568    0.976668462655857    9.7369936619526      
13.2034370260377     0.976938558803817    9.67515108038474     0.16829408781106     -77.314601351658     0.16829408781106     -77.314601351658     0.976938558803817    9.67515108038474     
13.2863935548742     0.977205700938422    9.61363377104779     0.16723246390867     -77.3869309477235    0.16723246390867     -77.3869309477235    0.977205700938422    9.61363377104779     
13.3698712953969     0.977469919054965    9.55244021814578     0.166176262770794    -77.458879071631     0.166176262770794    -77.458879071631     0.977469919054965    9.55244021814578     
13.4538735223526     0.977731242892711    9.49156890418428     0.165125461910603    -77.5304473551595    0.165125461910603    -77.5304473551595    0.977731242892711    9.49156890418428     
13.5384035310631     0.977989701935817    9.43101831012833     0.164080038750355    -77.6016374282978    0.164080038750355    -77.6016374282978    0.977989701935817    9.43101831012833     
13.6234646375546     0.978245325414287    9.37078691555642     0.163039970624971    -77.6724509190551    0.163039970624971    -77.6724509190551    0.978245325414287    9.37078691555642     
13.7090601786875     0.978498142304944    9.31087319881278     0.162005234785553    -77.7428894532743    0.162005234785553    -77.7428894532743    0.978498142304944    9.31087319881278     
13.7951935122878     0.978748181332443    9.25127563715594     0.160975808402826    -77.8129546544458    0.160975808402826    -77.8129546544458    0.978748181332443    9.25127563715594     
13.8818680172784     0.9789954709703      9.19199270690493     0.159951668570547    -77.8826481435245    0.159951668570547    -77.8826481435245    0.9789954709703      9.19199270690493     
13.9690870938119     0.979240039441948    9.13302288358202     0.158932792308834    -77.9519715387476    0.158932792308834    -77.9519715387476    0.979240039441948    9.13302288358202     
14.0568541634039     0.979481914721822    9.07436464205398     0.157919156567465    -78.0209264554548    0.157919156567465    -78.0209264554548    0.979481914721822    9.07436464205398     
14.145172669067      0.979721124536456    9.01601645666905     0.156910738229097    -78.0895145059089    0.156910738229097    -78.0895145059089    0.979721124536456    9.01601645666905     
14.2340460754463     0.979957696365622    8.95797680139288     0.15590751411245     -78.1577372991199    0.15590751411245     -78.1577372991199    0.979957696365622    8.95797680139288     
14.323477868955      0.980191657443468    8.9002441499401      0.154909460975419    -78.2255964406688    0.154909460975419    -78.2255964406688    0.980191657443468    8.9002441499401      
14.4134715579112     0.980423034759692    8.84281697590458     0.153916555518153    -78.2930935325343    0.153916555518153    -78.2930935325343    0.980423034759692    8.84281697590458     
14.5040306726758     0.980651855060731    8.78569375288656     0.152928774386057    -78.3602301729192    0.152928774386057    -78.3602301729192    0.980651855060731    8.78569375288656     
14.5951587657905     0.980878144850968    8.72887295461717     0.151946094172763    -78.4270079560801    0.151946094172763    -78.4270079560801    0.980878144850968    8.72887295461717     
14.6868594121176     0.981101930393956    8.6723530550807      0.150968491423037    -78.493428472157     0.150968491423037    -78.493428472157     0.981101930393956    8.6723530550807      
14.7791362089801     0.981323237713669    8.61613252863401     0.149995942635628    -78.5594933070045    0.149995942635628    -78.5594933070045    0.981323237713669    8.61613252863401     
14.8719927763028     0.981542092595752    8.56020985012355     0.149028424266091    -78.6252040420245    0.149028424266091    -78.6252040420245    0.981542092595752    8.56020985012355     
14.9654327567541     0.981758520588807    8.50458349500035     0.148065912729525    -78.690562253999     0.148065912729525    -78.690562253999     0.981758520588807    8.50458349500035     
15.0594598158894     0.981972547005673    8.44925193943212     0.147108384403289    -78.7555695149253    0.147108384403289    -78.7555695149253    0.981972547005673    8.44925193943212     
15.1540776422943     0.982184196924743    8.39421366041323     0.146155815629659    -78.8202273918509    0.146155815629659    -78.8202273918509    0.982184196924743    8.39421366041323     
15.24928994773       0.982393495191276    8.33946713587177     0.145208182718431    -78.8845374467103    0.145208182718431    -78.8845374467103    0.982393495191276    8.33946713587177     
15.345100467278      0.982600466418728    8.28501084477536     0.144265461949474    -78.9485012361615    0.144265461949474    -78.9485012361615    0.982600466418728    8.28501084477536     
15.4415129594876     0.9828051349901      8.23084326723388     0.143327629575252    -79.0121203114243    0.143327629575252    -79.0121203114243    0.9828051349901      8.23084326723388     
15.5385312065225     0.983007525059295    8.17696288459983     0.142394661823281    -79.0753962181186    0.142394661823281    -79.0753962181186    0.983007525059295    8.17696288459983     
15.6361590143099     0.98320766055248     8.12336817956725     0.141466534898541    -79.1383304961037    0.141466534898541    -79.1383304961037    0.98320766055248     8.12336817956725     
15.7344002126891     0.983405565169466    8.07005763626756     0.140543224985856    -79.2009246793178    0.140543224985856    -79.2009246793178    0.983405565169466    8.07005763626756     
15.8332586555623     0.983601262385094    8.01702974036388     0.139624708252204    -79.2631802956179    0.139624708252204    -79.2631802956179    0.983601262385094    8.01702974036388     
15.9327382210455     0.983794775450631    7.9642829791425      0.138710960849009    -79.325098866621     0.138710960849009    -79.325098866621     0.983794775450631    7.9642829791425      
16.0328428116208     0.983986127395174    7.91181584160346     0.137801958914366    -79.3866819075438    0.137801958914366    -79.3866819075438    0.983986127395174    7.91181584160346     
16.1335763542893     0.984175341027066    7.8596268185474      0.13689767857523     -79.4479309270448    0.13689767857523     -79.4479309270448    0.984175341027066    7.8596268185474      
16.2349428007253     0.984362438935309    7.80771440266179     0.135998095949566    -79.5088474270645    0.135998095949566    -79.5088474270645    0.984362438935309    7.80771440266179     
16.3369461274311     0.984547443490994    7.75607708860445     0.13510318714845     -79.5694329026671    0.13510318714845     -79.5694329026671    0.984547443490994    7.75607708860445     
16.4395903358935     0.984730376848734    7.70471337308498     0.134212928278126    -79.6296888418817    0.134212928278126    -79.6296888418817    0.984730376848734    7.70471337308498     
16.5428794527401     0.984911260948104    7.65362175494467     0.133327295442025    -79.689616725543     0.133327295442025    -79.689616725543     0.984911260948104    7.65362175494467     
16.6468175298978     0.985090117515081    7.60280073523422     0.132446264742741    -79.7492180271323    0.132446264742741    -79.7492180271323    0.985090117515081    7.60280073523422     
16.7514086447516     0.985266968063493    7.55224881728939     0.131569812283969    -79.8084942126184    0.131569812283969    -79.8084942126184    0.985266968063493    7.55224881728939     
16.8566569003042     0.985441833896476    7.5019645068048      0.130697914172388    -79.8674467402977    0.130697914172388    -79.8674467402977    0.985441833896476    7.5019645068048      
16.9625664253377     0.985614736107921    7.45194631190665     0.129830546519532    -79.9260770606332    0.129830546519532    -79.9260770606332    0.985614736107921    7.45194631190665     
17.0691413745747     0.985785695583946    7.40219274322207     0.128967685443584    -79.984386616095     0.128967685443584    -79.984386616095     0.985785695583946    7.40219274322207     
17.176385928842      0.985954733004347    7.35270231394816     0.12810930707117     -80.042376840998     0.12810930707117     -80.042376840998     0.985954733004347    7.35270231394816     
17.2843042952342     0.986121868844074    7.30347353991833     0.127255387539089    -80.10004916134      0.127255387539089    -80.10004916134      0.986121868844074    7.30347353991833     
17.3929007072789     0.986287123374689    7.25450493966735     0.126405902996002    -80.1574049946383    0.126405902996002    -80.1574049946383    0.986287123374689    7.25450493966735     
17.5021794251028     0.986450516665836    7.2057950344945      0.12556082960411     -80.2144457497669    0.12556082960411     -80.2144457497669    0.986450516665836    7.2057950344945      
17.6121447355986     0.986612068586716    7.15734234852499     0.124720143540767    -80.2711728267896    0.124720143540767    -80.2711728267896    0.986612068586716    7.15734234852499     
17.7228009525934     0.986771798807551    7.1091454087696      0.123883821000074    -80.327587616796     0.123883821000074    -80.327587616796     0.986771798807551    7.1091454087696      
17.834152417018      0.986929726801063    7.06120274518311     0.123051838194423    -80.3836915017322    0.123051838194423    -80.3836915017322    0.986929726801063    7.06120274518311     
17.9462034970768     0.987085871843933    7.01351289072081     0.122224171356021    -80.4394858542334    0.122224171356021    -80.4394858542334    0.987085871843933    7.01351289072081     
18.0589585884197     0.987240253018285    6.96607438139274     0.121400796738365    -80.4949720374531    0.121400796738365    -80.4949720374531    0.987240253018285    6.96607438139274     
18.172422114314      0.987392889213146    6.91888575631795     0.120581690617694    -80.5501514048912    0.120581690617694    -80.5501514048912    0.987392889213146    6.91888575631795     
18.2865985258182     0.987543799125918    6.87194555777594     0.1197668292944      -80.6050253002207    0.1197668292944      -80.6050253002207    0.987543799125918    6.87194555777594     
18.4014923019567     0.987693001263851    6.82525233125652     0.118956189094403    -80.6595950571123    0.118956189094403    -80.6595950571123    0.987693001263851    6.82525233125652     
18.5171079498952     0.987840513945499    6.77880462550908     0.118149746370501    -80.7138619990567    0.118149746370501    -80.7138619990567    0.987840513945499    6.77880462550908     
18.633450005118      0.987986355302191    6.73260099258977     0.117347477503682    -80.7678274391858    0.117347477503682    -80.7678274391858    0.987986355302191    6.73260099258977     
18.7505230316053     0.988130543279491    6.6866399879069      0.116549358904406    -80.8214926800907    0.116549358904406    -80.8214926800907    0.988130543279491    6.6866399879069      
18.8683316220127     0.988273095638658    6.64092017026582     0.115755367013849    -80.8748590136377    0.115755367013849    -80.8748590136377    0.988273095638658    6.64092017026582     
18.9868803978512     0.988414029958099    6.59544010191169     0.114965478305132    -80.9279277207824    0.114965478305132    -80.9279277207824    0.988414029958099    6.59544010191169     
19.1061740096686     0.988553363634827    6.55019834857106     0.114179669284497    -80.9807000713798    0.114179669284497    -80.9807000713798    0.988553363634827    6.55019834857106     
19.2262171372317     0.988691113885906    6.50519347949206     0.113397916492467    -81.033177323993     0.113397916492467    -81.033177323993     0.988691113885906    6.50519347949206     
19.3470144897101     0.9888272977499      6.46042406748337     0.112620196504982    -81.0853607256982    0.112620196504982    -81.0853607256982    0.9888272977499      6.46042406748337     
19.468570805861      0.988961932088316    6.41588868895151     0.111846485934481    -81.1372515118874    0.111846485934481    -81.1372515118874    0.988961932088316    6.41588868895151     
19.5908908542148     0.989095033587038    6.37158592393748     0.111076761430984    -81.1888509060667    0.111076761430984    -81.1888509060667    0.989095033587038    6.37158592393748     
19.7139794332624     0.989226618757765    6.32751435615153     0.11031099968313     -81.240160119652     0.11031099968313     -81.240160119652     0.989226618757765    6.32751435615153     
19.8378413716435     0.98935670393944     6.28367257300665     0.109549177419178    -81.2911803517614    0.109549177419178    -81.2911803517614    0.98935670393944     6.28367257300665     
19.9624815283357     0.989485305299669    6.24005916565156     0.108791271408007    -81.3419127890026    0.108791271408007    -81.3419127890026    0.989485305299669    6.24005916565156     
20.0879047928453     0.989612438836146    6.19667272900147     0.108037258460061    -81.3923586052584    0.108037258460061    -81.3923586052584    0.989612438836146    6.19667272900147     
20.2141160853993     0.989738120378064    6.15351186176837     0.107287115428289    -81.4425189614662    0.107287115428289    -81.4425189614662    0.989738120378064    6.15351186176837     
20.3411203571382     0.989862365587527    6.11057516649006     0.10654081920904     -81.4923950053938    0.10654081920904     -81.4923950053938    0.989862365587527    6.11057516649006     
20.4689225903102     0.989985189960948    6.0678612495574      0.105798346742945    -81.5419878714119    0.105798346742945    -81.5419878714119    0.989985189960948    6.0678612495574      
20.5975277984667     0.990106608830449    6.02536872124156     0.105059675015772    -81.5912986802597    0.105059675015772    -81.5912986802597    0.990106608830449    6.02536872124156     
20.726941026659      0.990226637365252    5.98309619571896     0.104324781059247    -81.6403285388076    0.104324781059247    -81.6403285388076    0.990226637365252    5.98309619571896     
20.8571673516363     0.990345290573065    5.94104229109585     0.10359364195186     -81.6890785398141    0.10359364195186     -81.6890785398141    0.990345290573065    5.94104229109585     
20.9882118820447     0.990462583301456    5.89920562943174     0.102866234819645    -81.7375497616767    0.102866234819645    -81.7375497616767    0.990462583301456    5.89920562943174     
21.1200797586275     0.990578530239235    5.85758483676144     0.102142536836928    -81.7857432681788    0.102142536836928    -81.7857432681788    0.990578530239235    5.85758483676144     
21.2527761544273     0.990693145917806    5.81617854311612     0.101422525227063    -81.8336601082292    0.101422525227063    -81.8336601082292    0.990693145917806    5.81617854311612     
21.3863062749886     0.990806444712539    5.77498538254407     0.100706177263134    -81.8813013155963    0.100706177263134    -81.8813013155963    0.990806444712539    5.77498538254407     
21.5206753585619     0.990918440844112    5.73400399312929     0.099993470268644    -81.9286679086364    0.099993470268644    -81.9286679086364    0.990918440844112    5.73400399312929     
21.6558886763096     0.991029148379864    5.69323301700974     0.099284381618173    -81.975760890015     0.099284381618173    -81.975760890015     0.991029148379864    5.69323301700974     
21.7919515325124     0.991138581235126    5.65267110039491     0.098578888738021    -82.0225812464208    0.098578888738021    -82.0225812464208    0.991138581235126    5.65267110039491     
21.9288692647775     0.991246753174554    5.61231689358175     0.097876969106823    -82.0691299482742    0.097876969106823    -82.0691299482742    0.991246753174554    5.61231689358175     
22.0666472442481     0.991353677813454    5.57216905097001     0.097178600256146    -82.1154079494263    0.097178600256146    -82.1154079494263    0.991353677813454    5.57216905097001     
22.205290875814      0.991459368619094    5.5322262310768      0.096483759771067    -82.1614161868521    0.096483759771067    -82.1614161868521    0.991459368619094    5.5322262310768      
22.3448055983237     0.991563838912014    5.49248709654998     0.095792425290726    -82.2071555803346    0.095792425290726    -82.2071555803346    0.991563838912014    5.49248709654998     
22.4851968847976     0.991667101867326    5.45295031418068     0.095104574508856    -82.2526270321411    0.095104574508856    -82.2526270321411    0.991667101867326    5.45295031418068     
22.6264702426429     0.991769170516006    5.41361455491533     0.094420185174309    -82.2978314266902    0.094420185174309    -82.2978314266902    0.991769170516006    5.41361455491533     
22.7686312138696     0.991870057746176    5.37447849386626     0.093739235091543    -82.3427696302111    0.093739235091543    -82.3427696302111    0.991870057746176    5.37447849386626     
22.9116853753077     0.991969776304389    5.3355408103217      0.093061702121094    -82.3874424903921    0.093061702121094    -82.3874424903921    0.991969776304389    5.3355408103217      
23.0556383388263     0.992068338796881    5.29680018775528     0.092387564180042    -82.4318508360203    0.092387564180042    -82.4318508360203    0.992068338796881    5.29680018775528     
23.2004957515535     0.992165757690848    5.25825531383434     0.091716799242444    -82.4759954766109    0.091716799242444    -82.4759954766109    0.992165757690848    5.25825531383434     
23.346263296098      0.99226204531569     5.21990488042729     0.091049385339754    -82.5198772020261    0.091049385339754    -82.5198772020261    0.99226204531569     5.21990488042729     
23.4929466907723     0.992357213864252    5.1817475836108      0.090385300561228    -82.5634967820825    0.090385300561228    -82.5634967820825    0.992357213864252    5.1817475836108      
23.6405516898163     0.992451275394066    5.14378212367564     0.089724523054302    -82.6068549661486    0.089724523054302    -82.6068549661486    0.992451275394066    5.14378212367564     
23.789084083624      0.992544241828569    5.10600720513226     0.089067031024967    -82.6499524827284    0.089067031024967    -82.6499524827284    0.992544241828569    5.10600720513226     
23.9385496989699     0.992636124958329    5.06842153671496     0.088412802738111    -82.6927900390348    0.088412802738111    -82.6927900390348    0.992636124958329    5.06842153671496     
24.0889543992377     0.992726936442252    5.03102383138613     0.087761816517858    -82.7353683205485    0.087761816517858    -82.7353683205485    0.992726936442252    5.03102383138613     
24.2403040846507     0.99281668780878     4.99381280633915     0.087114050747882    -82.7776879905653    0.087114050747882    -82.7776879905653    0.99281668780878     4.99381280633915     
24.3926046925028     0.992905390457086    4.95678718300112     0.086469483871708    -82.8197496897277    0.086469483871708    -82.8197496897277    0.992905390457086    4.95678718300112     
24.5458621973919     0.992993055658255    4.91994568703424     0.085828094392996    -82.8615540355442    0.085828094392996    -82.8615540355442    0.992993055658255    4.91994568703424     
24.7000826114537     0.993079694556464    4.88328704833741     0.085189860875814    -82.9031016218918    0.085189860875814    -82.9031016218918    0.993079694556464    4.88328704833741     
24.8552719845979     0.99316531817014     4.84681000104626     0.084554761944887    -82.9443930185045    0.084554761944887    -82.9443930185045    0.99316531817014     4.84681000104626     
25.0114364047457     0.993249937393125    4.81051328353311     0.083922776285837    -82.9854287704447    0.083922776285837    -82.9854287704447    0.993249937393125    4.81051328353311     
25.1685819980681     0.993333562995816    4.77439563840632     0.083293882645413    -83.0262093975579    0.083293882645413    -83.0262093975579    0.993333562995816    4.77439563840632     
25.3267149292268     0.993416205626312    4.73845581250843     0.082668059831692    -83.0667353939112    0.082668059831692    -83.0667353939112    0.993416205626312    4.73845581250843     
25.4858414016155     0.993497875811537    4.70269255691463     0.082045286714283    -83.1070072272114    0.082045286714283    -83.1070072272114    0.993497875811537    4.70269255691463     
25.6459676576037     0.993578583958368    4.66710462692968     0.081425542224504    -83.1470253382066    0.081425542224504    -83.1470253382066    0.993578583958368    4.66710462692968     
25.8070999787812     0.993658340354742    4.63169078208499     0.080808805355551    -83.1867901400663    0.080808805355551    -83.1867901400663    0.993658340354742    4.63169078208499     
25.969244686205      0.993737155170763    4.5964497861346      0.080195055162655    -83.2263020177423    0.080195055162655    -83.2263020177423    0.993737155170763    4.5964497861346      
26.1324081406468     0.99381503845979     4.56138040705097     0.079584270763223    -83.2655613273076    0.079584270763223    -83.2655613273076    0.99381503845979     4.56138040705097     
26.2965967428427     0.993892000159532    4.52648141702008     0.078976431336967    -83.3045683952735    0.078976431336967    -83.3045683952735    0.993892000159532    4.52648141702008     
26.4618169337442     0.993968050093114    4.49175159243593     0.078371516126021    -83.3433235178839    0.078371516126021    -83.3433235178839    0.993968050093114    4.49175159243593     
26.6280751947713     0.994043197970151    4.45718971389452     0.077769504435043    -83.381826960385     0.077769504435043    -83.381826960385     0.994043197970151    4.45718971389452     
26.7953780480662     0.994117453387802    4.42279456618754     0.077170375631312    -83.4200789562704    0.077170375631312    -83.4200789562704    0.994117453387802    4.42279456618754     
26.9637320567493     0.994190825831821    4.38856493829532     0.076574109144806    -83.4580797065006    0.076574109144806    -83.4580797065006    0.994190825831821    4.38856493829532     
27.133143825177      0.994263324677595    4.35449962337916     0.075980684468265    -83.4958293786945    0.075980684468265    -83.4958293786945    0.994263324677595    4.35449962337916     
27.3036199992004     0.994334959191176    4.32059741877366     0.075390081157262    -83.5333281062937    0.075390081157262    -83.5333281062937    0.994334959191176    4.32059741877366     
27.4751672664261     0.994405738530302    4.28685712597815     0.074802278830235    -83.5705759876964    0.074802278830235    -83.5705759876964    0.994405738530302    4.28685712597815     
27.6477923564788     0.994475671745407    4.25327755064769     0.074217257168533    -83.607573085362     0.074217257168533    -83.607573085362     0.994475671745407    4.25327755064769     
27.8215020412648     0.99454476778063     4.21985750258386     0.073634995916435    -83.6443194248823    0.073634995916435    -83.6443194248823    0.99454476778063     4.21985750258386     
27.9963031352382     0.994613035474804    4.18659579572502     0.073055474881168    -83.6808149940205    0.073055474881168    -83.6808149940205    0.994613035474804    4.18659579572502     
28.1722024956679     0.99468048356244     4.1534912481357      0.072478673932908    -83.7170597417157    0.072478673932908    -83.7170597417157    0.99468048356244     4.1534912481357      
28.3492070229065     0.994747120674712    4.12054268199642     0.071904573004777    -83.7530535770497    0.071904573004777    -83.7530535770497    0.994747120674712    4.12054268199642     
28.5273236606615     0.99481295534041     4.0877489235923      0.071333152092828    -83.7887963681783    0.071333152092828    -83.7887963681783    0.99481295534041     4.0877489235923      
28.706559396267      0.994877995986913    4.0551088033016      0.070764391256015    -83.8242879412214    0.070764391256015    -83.8242879412214    0.994877995986913    4.0551088033016      
28.8869212609585     0.994942250941126    4.02262115558397     0.070198270616167    -83.8595280791131    0.070198270616167    -83.8595280791131    0.994942250941126    4.02262115558397     
29.0684163301481     0.995005728430425    3.99028481896792     0.069634770357938    -83.8945165204088    0.069634770357938    -83.8945165204088    0.995005728430425    3.99028481896792     
29.2510517237026     0.995068436583586    3.95809863603851     0.069073870728757    -83.9292529580468    0.069073870728757    -83.9292529580468    0.995068436583586    3.95809863603851     
29.4348346062225     0.995130383431712    3.92606145342402     0.068515552038769    -83.9637370380649    0.068515552038769    -83.9637370380649    0.995130383431712    3.92606145342402     
29.619772187323      0.995191576909135    3.89417212178253     0.067959794660762    -83.9979683582663    0.067959794660762    -83.9979683582663    0.995191576909135    3.89417212178253     
29.8058717219171     0.995252024854333    3.86242949578839     0.067406579030091    -84.0319464668362    0.067406579030091    -84.0319464668362    0.995252024854333    3.86242949578839     
29.9931405104999     0.995311735010812    3.83083243411806     0.066855885644596    -84.0656708609038    0.066855885644596    -84.0656708609038    0.995311735010812    3.83083243411806     
30.1815858994353     0.995370715028004    3.79937979943532     0.066307695064502    -84.0991409850503    0.066307695064502    -84.0991409850503    0.995370715028004    3.79937979943532     
30.3712152812439     0.995428972462135    3.76807045837698     0.065761987912321    -84.1323562297568    0.065761987912321    -84.1323562297568    0.995428972462135    3.76807045837698     
30.5620360948934     0.995486514777094    3.73690328153739     0.065218744872745    -84.1653159297935    0.065218744872745    -84.1653159297935    0.995486514777094    3.73690328153739     
30.7540558260897     0.995543349345302    3.70587714345321     0.064677946692529    -84.1980193625433    0.064677946692529    -84.1980193625433    0.995543349345302    3.70587714345321     
30.9472820075714     0.995599483448546    3.67499092258749     0.064139574180367    -84.2304657462611    0.064139574180367    -84.2304657462611    0.995599483448546    3.67499092258749     
31.1417222194048     0.995654924278837    3.64424350131391     0.063603608206763    -84.2626542382611    0.063603608206763    -84.2626542382611    0.995654924278837    3.64424350131391     
31.3373840892813     0.995709678939234    3.61363376589997     0.063070029703893    -84.2945839330333    0.063070029703893    -84.2945839330333    0.995709678939234    3.61363376589997     
31.5342752928169     0.995763754444666    3.5831606064908      0.062538819665466    -84.3262538602828    0.062538819665466    -84.3262538602828    0.995763754444666    3.5831606064908      
31.7324035538528     0.995817157722757    3.55282291709211     0.062009959146573    -84.3576629828887    0.062009959146573    -84.3576629828887    0.995817157722757    3.55282291709211     
31.931776644759      0.995869895614622    3.52261959555266     0.06148342926353     -84.388810194781     0.06148342926353     -84.388810194781     0.995869895614622    3.52261959555266     
32.1324023867387     0.995921974875672    3.49254954354732     0.060959211193718    -84.4196943187278    0.060959211193718    -84.4196943187278    0.995921974875672    3.49254954354732     
32.3342886501354     0.995973402176403    3.46261166655893     0.060437286175417    -84.4503141040321    0.060437286175417    -84.4503141040321    0.995973402176403    3.46261166655893     
32.5374433547416     0.996024184103172    3.43280487386044     0.059917635507633    -84.4806682241316    0.059917635507633    -84.4806682241316    0.996024184103172    3.43280487386044     
32.7418744701096     0.996074327158975    3.40312807849668     0.059400240549923    -84.5107552740973    0.059400240549923    -84.5107552740973    0.996074327158975    3.40312807849668     
32.9475900158636     0.996123837764206    3.37358019726588     0.058885082722206    -84.5405737680262    0.058885082722206    -84.5405737680262    0.996123837764206    3.37358019726588     
33.154598062015      0.996172722257416    3.34416015070082     0.058372143504583    -84.570122136323     0.058372143504583    -84.570122136323     0.996172722257416    3.34416015070082     
33.3629067292786     0.996220986896058    3.31486686305002     0.05786140443714     -84.5993987228642    0.05786140443714     -84.5993987228642    0.996220986896058    3.31486686305002     
33.5725241893913     0.996268637857223    3.28569926225837     0.057352847119751    -84.6284017820404    0.057352847119751    -84.6284017820404    0.996268637857223    3.28569926225837     
33.7834586654326     0.996315681238375    3.25665627994794     0.056846453211881    -84.6571294756685    0.056846453211881    -84.6571294756685    0.996315681238375    3.25665627994794     
33.995718432147      0.996362123058067    3.22773685139802     0.056342204432377    -84.6855798697698    0.056342204432377    -84.6855798697698    0.996362123058067    3.22773685139802     
34.209311816269      0.996407969256658    3.19893991552561     0.055840082559259    -84.7137509312042    0.055840082559259    -84.7137509312042    0.996407969256658    3.19893991552561     
34.4242471968495     0.996453225697016    3.17026441486517     0.055340069429509    -84.7416405241555    0.055340069429509    -84.7416405241555    0.996453225697016    3.17026441486517     
34.6405330055846     0.996497898165217    3.14170929554835     0.054842146938856    -84.7692464064592    0.054842146938856    -84.7692464064592    0.996497898165217    3.14170929554835     
34.8581777271463     0.996541992371227    3.11327350728373     0.054346297041551    -84.7965662257634    0.054346297041551    -84.7965662257634    0.996541992371227    3.11327350728373     
35.0771898995152     0.996585513949592    3.0849560033359      0.053852501750152    -84.8235975155164    0.053852501750152    -84.8235975155164    0.996585513949592    3.0849560033359      
35.2975781143159     0.996628468460101    3.05675574050492     0.053360743135291    -84.8503376907693    0.053360743135291    -84.8503376907693    0.996628468460101    3.05675574050492     
35.5193510171535     0.996670861388452    3.02867167910505     0.052871003325452    -84.8767840437858    0.052871003325452    -84.8767840437858    0.996670861388452    3.02867167910505     
35.7425173079531     0.996712698146914    3.00070278294381     0.052383264506736    -84.9029337394465    0.052383264506736    -84.9029337394465    0.996712698146914    3.00070278294381     
35.9670857413011     0.996753984074965    2.97284801930038     0.051897508922633    -84.9287838104394    0.051897508922633    -84.9287838104394    0.996753984074965    2.97284801930038     
36.1930651267882     0.996794724439937    2.94510635890438     0.051413718873784    -84.954331152222     0.051413718873784    -84.954331152222     0.996794724439937    2.94510635890438     
36.4204643293557     0.996834924437649    2.91747677591389     0.050931876717746    -84.9795725177443    0.050931876717746    -84.9795725177443    0.996834924437649    2.91747677591389     
36.6492922696426     0.996874589193029    2.8899582478938      0.050451964868755    -85.0045045119189    0.050451964868755    -85.0045045119189    0.996874589193029    2.8899582478938      
36.879557924336      0.996913723760727    2.86254975579373     0.049973965797489    -85.0291235858232    0.049973965797489    -85.0291235858232    0.996913723760727    2.86254975579373     
37.1112703265229     0.996952333125728    2.83525028392591     0.049497862030822    -85.05342603062      0.049497862030822    -85.05342603062      0.996952333125728    2.83525028392591     
37.3444385660449     0.996990422203947    2.80805881994299     0.049023636151592    -85.0774079711794    0.049023636151592    -85.0774079711794    0.996990422203947    2.80805881994299     
37.5790717898545     0.997027995842826    2.78097435481544     0.048551270798358    -85.1010653593847    0.048551270798358    -85.1010653593847    0.997027995842826    2.78097435481544     
37.8151792023741     0.997065058821918    2.75399588280914     0.048080748665156    -85.1243939671052    0.048080748665156    -85.1243939671052    0.997065058821918    2.75399588280914     
38.052770065857      0.997101615853459    2.72712240146259     0.047612052501266    -85.1473893788148    0.047612052501266    -85.1473893788148    0.997101615853459    2.72712240146259     
38.2918537007508     0.997137671582942    2.70035291156416     0.047145165110964    -85.1700469838366    0.047145165110964    -85.1700469838366    0.997137671582942    2.70035291156416     
38.5324394860629     0.997173230589676    2.67368641712913     0.046680069353292    -85.1923619681917    0.046680069353292    -85.1923619681917    0.997173230589676    2.67368641712913     
38.7745368597287     0.997208297387343    2.64712192537653     0.046216748141817    -85.2143293060268    0.046216748141817    -85.2143293060268    0.997208297387343    2.64712192537653     
39.0181553189815     0.997242876424541    2.62065844670616     0.045755184444394    -85.2359437505968    0.045755184444394    -85.2359437505968    0.997242876424541    2.62065844670616     
39.2633044207254     0.997276972085324    2.59429499467503     0.045295361282939    -85.2571998247743    0.045295361282939    -85.2571998247743    0.997276972085324    2.59429499467503     
39.5099937819099     0.997310588689733    2.56803058597424     0.044837261733191    -85.2780918110578    0.044837261733191    -85.2780918110578    0.997310588689733    2.56803058597424     
39.7582330799075     0.99734373049432     2.54186424040525     0.04438086892449     -85.2986137410459    0.04438086892449     -85.2986137410459    0.99734373049432     2.54186424040525     
40.0080320528928     0.997376401692665    2.51579498085637     0.043926166039551    -85.3187593843465    0.043926166039551    -85.3187593843465    0.997376401692665    2.51579498085637     
40.2594005002252     0.997408606415882    2.48982183327904     0.043473136314246    -85.3385222368829    0.043473136314246    -85.3385222368829    0.997408606415882    2.48982183327904     
40.5123482828329     0.997440348733126    2.46394382666392     0.043021763037381    -85.3578955085598    0.043021763037381    -85.3578955085598    0.997440348733126    2.46394382666392     
40.7668853235997     0.997471632652082    2.43815999301723     0.042572029550498    -85.3768721102475    0.042572029550498    -85.3768721102475    0.997471632652082    2.43815999301723     
41.0230216077544     0.997502462119455    2.41246936733646     0.042123919247656    -85.3954446400408    0.042123919247656    -85.3954446400408    0.997502462119455    2.41246936733646     
41.2807671832627     0.997532841021449    2.38687098758651     0.041677415575241    -85.413605368744     0.041677415575241    -85.413605368744     0.997532841021449    2.38687098758651     
41.5401321612209     0.997562773184236    2.36136389467549     0.041232502031774    -85.4313462245312    0.041232502031774    -85.4313462245312    0.997562773184236    2.36136389467549     
41.8011267162528     0.99759226237443     2.33594713243041     0.04078916216772     -85.4486587767279    0.04078916216772     -85.4486587767279    0.99759226237443     2.33594713243041     
42.0637610869092     0.997621312299537    2.31061974757287     0.040347379585318    -85.4655342186528    0.040347379585318    -85.4655342186528    0.997621312299537    2.31061974757287     
42.3280455760687     0.997649926608406    2.28538078969486     0.039907137938413    -85.4819633494576    0.039907137938413    -85.4819633494576    0.997649926608406    2.28538078969486     
42.5939905513429     0.99767810889168     2.26022931123395     0.039468420932294    -85.4979365548954    0.039468420932294    -85.4979365548954    0.99767810889168     2.26022931123395     
42.861606445482      0.997705862682227    2.23516436744913     0.039031212323555    -85.5134437869425    0.039031212323555    -85.5134437869425    0.997705862682227    2.23516436744913     
43.1309037567852     0.99773319145557     2.21018501639592     0.038595495919955    -85.5284745421946    0.038595495919955    -85.5284745421946    0.99773319145557     2.21018501639592     
43.4018930495116     0.997760098630314    2.18529031890187     0.038161255580297    -85.5430178389504    0.038161255580297    -85.5430178389504    0.997760098630314    2.18529031890187     
43.6745849542951     0.997786587568555    2.16047933854188     0.037728475214325    -85.5570621928876    0.037728475214325    -85.5570621928876    0.997786587568555    2.16047933854188     
43.9489901685614     0.997812661576298    2.13575114161319     0.037297138782624    -85.5705955912315    0.037297138782624    -85.5705955912315    0.997812661576298    2.13575114161319     
44.2251194569477     0.99783832390385     2.11110479711089     0.036867230296554    -85.5836054653041    0.036867230296554    -85.5836054653041    0.99783832390385     2.11110479711089     
44.5029836517245     0.997863577746224    2.08653937670272     0.036438733818182    -85.5960786613369    0.036438733818182    -85.5960786613369    0.997863577746224    2.08653937670272     
44.7825936532214     0.997888426243517    2.06205395470431     0.036011633460252    -85.6080014094153    0.036011633460252    -85.6080014094153    0.997888426243517    2.06205395470431     
45.0639604302537     0.997912872481303    2.03764760805419     0.035585913386165    -85.6193592904157    0.035585913386165    -85.6193592904157    0.997912872481303    2.03764760805419     
45.3470950205536     0.997936919491       2.01331941628866     0.035161557809983    -85.6301372007818    0.035161557809983    -85.6301372007818    0.997936919491       2.01331941628866     
45.6320085312028     0.997960570250239    1.98906846151683     0.034738550996463    -85.6403193149742    0.034738550996463    -85.6403193149742    0.997960570250239    1.98906846151683     
45.9187121390679     0.997983827683228    1.96489382839549     0.034316877261115    -85.6498890454114    0.034316877261115    -85.6498890454114    0.997983827683228    1.96489382839549     
46.2072170912396     0.998006694661108    1.94079460410386     0.033896520970287    -85.6588289997063    0.033896520970287    -85.6588289997063    0.998006694661108    1.94079460410386     
46.4975347054732     0.998029174002293    1.91676987831857     0.033477466541288    -85.6671209349812    0.033477466541288    -85.6671209349812    0.998029174002293    1.91676987831857     
46.789676370633      0.998051268472822    1.89281874318829     0.033059698442539    -85.6747457090277    0.033059698442539    -85.6747457090277    0.998051268472822    1.89281874318829     
47.0836535471391     0.998072980786686    1.86894029330857     0.032643201193765    -85.6816832280539    0.032643201193765    -85.6816832280539    0.998072980786686    1.86894029330857     
47.3794777674165     0.998094313606161    1.84513362569649     0.032227959366231    -85.6879123907376    0.032227959366231    -85.6879123907376    0.998094313606161    1.84513362569649     
47.6771606363482     0.998115269542126    1.82139783976547     0.031813957583016    -85.6934110282782    0.031813957583016    -85.6934110282782    0.998115269542126    1.82139783976547     
47.9767138317299     0.99813585115438     1.79773203729976     0.031401180519339    -85.6981558401098    0.031401180519339    -85.6981558401098    0.99813585115438     1.79773203729976     
48.2781491047283     0.99815606095195     1.77413532242926     0.030989612902937    -85.702122324904     0.030989612902937    -85.702122324904     0.99815606095195     1.77413532242926     
48.5814782803423     0.998175901393397    1.75060680160397     0.030579239514501    -85.7052847064573    0.030579239514501    -85.7052847064573    0.998175901393397    1.75060680160397     
48.8867132578662     0.998195374887105    1.72714558356876     0.030170045188178    -85.707615854014     0.030170045188178    -85.707615854014     0.998195374887105    1.72714558356876     
49.1938660113576     0.998214483791576    1.70375077933782     0.029762014812131    -85.7090871965312    0.029762014812131    -85.7090871965312    0.998214483791576    1.70375077933782     
49.5029485901059     0.998233230415708    1.68042150216932     0.029355133329183    -85.7096686303453    0.029355133329183    -85.7096686303453    0.998233230415708    1.68042150216932     
49.813973119106      0.99825161701908     1.65715686753986     0.028949385737542    -85.7093284196361    0.028949385737542    -85.7093284196361    0.99825161701908     1.65715686753986     
50.1269517995333     0.998269645812212    1.63395599311913     0.028544757091608    -85.7080330890291    0.028544757091608    -85.7080330890291    0.998269645812212    1.63395599311913     
50.4418969092227     0.998287318956835    1.61081799874435     0.028141232502887    -85.7057473076006    0.028141232502887    -85.7057473076006    0.998287318956835    1.61081799874435     
50.7588208031501     0.998304638566148    1.58774200639483     0.027738797141003    -85.702433763473     0.027738797141003    -85.702433763473     0.998304638566148    1.58774200639483     
51.077735913917      0.998321606705068    1.56472714016651     0.027337436234833    -85.6980530280996    0.027337436234833    -85.6980530280996    0.998321606705068    1.56472714016651     
51.3986547522383     0.998338225390478    1.54177252624638     0.02693713507377     -85.6925634092353    0.02693713507377     -85.6925634092353    0.998338225390478    1.54177252624638     
51.7215899074333     0.998354496591459    1.51887729288709     0.026537879009127    -85.6859207914816    0.026537879009127    -85.6859207914816    0.998354496591459    1.51887729288709     
52.046554047919      0.998370422229532    1.4960405703814      0.026139653455696    -85.6780784631614    0.026139653455696    -85.6780784631614    0.998370422229532    1.4960405703814      
52.3735599217079     0.998386004178877    1.47326149103669     0.02574244389348     -85.6689869281399    0.02574244389348     -85.6689869281399    0.998386004178877    1.47326149103669     
52.7026203569072     0.998401244266558    1.45053918914951     0.025346235869612    -85.6585937010448    0.025346235869612    -85.6585937010448    0.998401244266558    1.45053918914951     
53.0337482622226     0.998416144272731    1.42787280097997     0.024951015000493    -85.6468430841505    0.024951015000493    -85.6468430841505    0.998416144272731    1.42787280097997     
53.3669566274646     0.998430705930863    1.40526146472642     0.024556766974148    -85.6336759239882    0.024556766974148    -85.6336759239882    0.998430705930863    1.40526146472642     
53.7022585240579     0.998444930927919    1.38270432049985     0.024163477552849    -85.6190293454983    0.024163477552849    -85.6190293454983    0.998444930927919    1.38270432049985     
54.0396671055545     0.998458820904571    1.36020051029847     0.023771132576022    -85.602836461277     0.023771132576022    -85.602836461277     0.998458820904571    1.36020051029847     
54.3791956081493     0.998472377455382    1.3377491779822      0.023379717963465    -85.5850260531504    0.023379717963465    -85.5850260531504    0.998472377455382    1.3377491779822      
54.7208573511997     0.998485602128986    1.31534946924733     0.022989219718929    -85.565522222963     0.022989219718929    -85.565522222963     0.998485602128986    1.31534946924733     
55.0646657377478     0.998498496428271    1.29300053160093     0.022599623934083    -85.5442440090513    0.022599623934083    -85.5442440090513    0.998498496428271    1.29300053160093     
55.4106342550465     0.998511061810551    1.27070151433552     0.022210916792925    -85.5211049644118    0.022210916792925    -85.5211049644118    0.998511061810551    1.27070151433552     
55.7587764750883     0.998523299687726    1.24845156850369     0.021823084576681    -85.4960126920296    0.021823084576681    -85.4960126920296    0.998523299687726    1.24845156850369     
56.1091060551378     0.998535211426447    1.2262498468926      0.021436113669255    -85.4688683322102    0.021436113669255    -85.4688683322102    0.998535211426447    1.2262498468926      
56.4616367382677     0.998546798348264    1.20409550399871     0.021049990563303    -85.4395659960409    0.021049990563303    -85.4395659960409    0.998546798348264    1.20409550399871     
56.8163823538977     0.998558061729779    1.18198769600238     0.020664701866997    -85.407992138267     0.020664701866997    -85.407992138267     0.998558061729779    1.18198769600238     
57.1733568183368     0.998569002802783    1.15992558074254     0.020280234311578    -85.3740248619012    0.020280234311578    -85.3740248619012    0.998569002802783    1.15992558074254     
57.5325741353297     0.998579622754393    1.13790831769138     0.019896574759792    -85.3375331457484    0.019896574759792    -85.3375331457484    0.998579622754393    1.13790831769138     
57.894048396606      0.998589922727182    1.11593506792906     0.019513710215333    -85.2983759847074    0.019513710215333    -85.2983759847074    0.998589922727182    1.11593506792906     
58.2577937824326     0.998599903819304    1.09400499411851     0.019131627833423    -85.2564014311576    0.019131627833423    -85.2564014311576    0.998599903819304    1.09400499411851     
58.6238245621706     0.998609567084605    1.07211726048007     0.018750314932685    -85.2114455239186    0.018750314932685    -85.2114455239186    0.998609567084605    1.07211726048007     
58.9921550948346     0.998618913532745    1.05027103276646     0.018369759008498    -85.1633310891213    0.018369759008498    -85.1633310891213    0.998618913532745    1.05027103276646     
59.3627998296563     0.998627944129294    1.02846547823743     0.01798994774803     -85.1118663947893    0.01798994774803     -85.1118663947893    0.998627944129294    1.02846547823743     
59.7357733066511     0.998636659795839    1.00669976563474     0.017610869047204    -85.0568436379212    0.017610869047204    -85.0568436379212    0.998636659795839    1.00669976563474     
60.1110901571886     0.998645061410071    0.98497306515698     0.017232511029888    -84.9980372392801    0.017232511029888    -84.9980372392801    0.998645061410071    0.98497306515698     
60.4887651045665     0.998653149805883    0.963284548434533    0.016854862069638    -84.9352019168231    0.016854862069638    -84.9352019168231    0.998653149805883    0.963284548434533    
60.8688129645885     0.99866092577344     0.941633388504536    0.016477910814386    -84.8680705035802    0.016477910814386    -84.8680705035802    0.99866092577344     0.941633388504536    
61.2512486461448     0.998668390059265    0.920018759785831    0.016101646214555    -84.7963514696402    0.016101646214555    -84.7963514696402    0.998668390059265    0.920018759785831    
61.6360871517979     0.998675543366306    0.898439838054041    0.015726057555147    -84.7197261004666    0.015726057555147    -84.7197261004666    0.998675543366306    0.898439838054041    
62.0233435783701     0.998682386353998    0.876895800416611    0.015351134492462    -84.6378452747712    0.015351134492462    -84.6378452747712    0.998682386353998    0.876895800416611    
62.4130331175369     0.998688919638326    0.855385825287963    0.014976867096241    -84.5503257742241    0.014976867096241    -84.5503257742241    0.998688919638326    0.855385825287963    
62.8051710564218     0.998695143791875    0.833909092364604    0.014603245898169    -84.4567460439023    0.014603245898169    -84.4567460439023    0.998695143791875    0.833909092364604    
63.1997727781968     0.99870105934388     0.812464782600359    0.01423026194789     -84.3566413059731    0.01423026194789     -84.3566413059731    0.99870105934388     0.812464782600359    
63.5968537626855     0.99870666678026     0.791052078181582    0.013857906877882    -84.2494979088721    0.013857906877882    -84.2494979088721    0.99870666678026     0.791052078181582    
63.9964295869705     0.998711966543664    0.76967016250249     0.013486172978894    -84.1347467691762    0.013486172978894    -84.1347467691762    0.998711966543664    0.76967016250249     
64.3985159260042     0.99871695903349     0.748318220140464    0.013115053287941    -84.0117557321637    0.013115053287941    -84.0117557321637    0.99871695903349     0.748318220140464    
64.8031285532245     0.998721644605915    0.726995436831414    0.012744541691384    -83.8798206379957    0.012744541691384    -83.8798206379957    0.998721644605915    0.726995436831414    
65.2102833411724     0.99872602357391     0.705700999445299    0.012374633046164    -83.7381548312807    0.012374633046164    -83.7381548312807    0.99872602357391     0.705700999445299    
65.6199962621155     0.998730096207253    0.684434095961524    0.012005323322982    -83.5858767895345    0.012005323322982    -83.5858767895345    0.998730096207253    0.684434095961524    
66.0322833886745     0.998733862732535    0.66319391544453     0.011636609776209    -83.4219954667435    0.011636609776209    -83.4219954667435    0.998733862732535    0.66319391544453     
66.4471608944534     0.998737323333159    0.641979648019363    0.011268491146468    -83.2453928465618    0.011268491146468    -83.2453928465618    0.998737323333159    0.641979648019363    
66.8646450546741     0.998740478149332    0.620790484847404    0.010900967903417    -83.0548030684198    0.010900967903417    -83.0548030684198    0.998740478149332    0.620790484847404    
67.2847522468151     0.998743327278061    0.599625618101905    0.01053404253831     -82.8487873191854    0.01053404253831     -82.8487873191854    0.998743327278061    0.599625618101905    
67.7074989512536     0.998745870773129    0.578484240943925    0.010167719918565    -82.6257034594936    0.010167719918565    -82.6257034594936    0.998745870773129    0.578484240943925    
68.1329017519121     0.998748108645072    0.55736554749813     0.009802007720165    -82.3836690587387    0.009802007720165    -82.3836690587387    0.998748108645072    0.55736554749813     
68.5609773369094     0.998750040861152    0.536268732828588    0.009436916958419    -82.1205161197821    0.009436916958419    -82.1205161197821    0.998750040861152    0.536268732828588    
68.9917424992145     0.99875166734532     0.515192992914781    0.009072462644056    -81.83373524662      0.009072462644056    -81.83373524662      0.99875166734532     0.515192992914781    
69.4252141373061     0.998752987978181    0.494137524627685    0.008708664600346    -81.5204062926019    0.008708664600346    -81.5204062926019    0.998752987978181    0.494137524627685    
69.8614092558349     0.998754002596938    0.473101525705716    0.00834554848896     -81.1771115468283    0.00834554848896     -81.1771115468283    0.998754002596938    0.473101525705716    
70.3003449662912     0.998754710995341    0.452084194730996    0.007983147109054    -80.7998261603676    0.007983147109054    -80.7998261603676    0.998754710995341    0.452084194730996    
70.7420384876757     0.998755112923638    0.431084731105521    0.007621502057654    -80.3837786167172    0.007621502057654    -80.3837786167172    0.998755112923638    0.431084731105521    
71.1865071471756     0.998755208088499    0.410102335027448    0.007260665873149    -79.9232713653441    0.007260665873149    -79.9232713653441    0.998755208088499    0.410102335027448    
71.6337683808436     0.998754996152952    0.389136207467475    0.006900704832461    -79.4114478883036    0.006900704832461    -79.4114478883036    0.998754996152952    0.389136207467475    
72.0838397342823     0.998754476736302    0.368185550145267    0.006541702644154    -78.8399868819904    0.006541702644154    -78.8399868819904    0.998754476736302    0.368185550145267    
72.5367388633324     0.998753649414054    0.347249565505973    0.006183765386624    -78.1986960120805    0.006183765386624    -78.1986960120805    0.998753649414054    0.347249565505973    
72.9924835347656     0.998752513717822    0.326327456696798    0.005827028202709    -77.4749654238388    0.005827028202709    -77.4749654238388    0.998752513717822    0.326327456696798    
73.451091626981      0.998751069135233    0.305418427543692    0.005471664512583    -76.6530225979849    0.005471664512583    -76.6530225979849    0.998751069135233    0.305418427543692    
73.9125811307071     0.998749315109831    0.284521682528093    0.005117898901226    -75.7129015710469    0.005117898901226    -75.7129015710469    0.998749315109831    0.284521682528093    
74.376970149707      0.99874725104097     0.263636426763712    0.004766025470379    -74.6289950100068    0.004766025470379    -74.6289950100068    0.99874725104097     0.263636426763712    
74.8442769014888     0.998744876283696    0.242761865973517    0.004416434484772    -73.3679873563793    0.004416434484772    -73.3679873563793    0.998744876283696    0.242761865973517    
75.3145197180206     0.998742190148638    0.221897206466672    0.004069651886144    -71.8858553443618    0.004069651886144    -71.8858553443618    0.998742190148638    0.221897206466672    
75.787717046449      0.998739191901878    0.201041655115641    0.003726399236637    -70.1234436891086    0.003726399236637    -70.1234436891086    0.998739191901878    0.201041655115641    
76.2638874498233     0.998735880764823    0.18019441933337     0.003387686874034    -67.9998429760965    0.003387686874034    -67.9998429760965    0.998735880764823    0.18019441933337     
76.7430496078232     0.998732255914067    0.159354707050546    0.003054962313823    -65.4023769839149    0.003054962313823    -65.4023769839149    0.998732255914067    0.159354707050546    
77.2252223174924     0.998728316481252    0.138521726692921    0.002730352350337    -62.1714699968254    0.002730352350337    -62.1714699968254    0.998728316481252    0.138521726692921    
77.710424493975      0.998724061552917    0.117694687158827    0.002417065580512    -58.0783461620139    0.002417065580512    -58.0783461620139    0.998724061552917    0.117694687158827    
78.1986751712582     0.998719490170344    0.096872797796622    0.002120065412712    -52.7949904300133    0.002120065412712    -52.7949904300133    0.998719490170344    0.096872797796622    
78.6899935029189     0.998714601329401    0.076055268382475    0.001847163974351    -45.8648515466058    0.001847163974351    -45.8648515466058    0.998714601329401    0.076055268382475    
79.1843987628746     0.998709393980369    0.055241309097961    0.001610600916922    -36.7160917216482    0.001610600916922    -36.7160917216482    0.998709393980369    0.055241309097961    
79.6819103461401     0.998703867027774    0.034430130507997    0.001428494467684    -24.8422140434654    0.001428494467684    -24.8422140434654    0.998703867027774    0.034430130507997    
80.1825477695883     0.998698019330211    0.013620943538789    0.001323478667422    -10.3343169249392    0.001323478667422    -10.3343169249392    0.998698019330211    0.013620943538789    
80.6863306727151     0.998691849700151    -0.007187040544153   0.001314142760684    5.47014719328758     0.001314142760684    5.47014719328758     0.998691849700151    -0.007187040544153   
81.1932788184109     0.998685356903755    -0.027994610157855   0.001402391081837    20.3617085584115     0.001402391081837    20.3617085584115     0.998685356903755    -0.027994610157855   
81.703412093735      0.998678539660678    -0.048802553423535   0.001571878711902    32.762712857633      0.001571878711902    32.762712857633      0.998678539660678    -0.048802553423535   
82.2167505106961     0.998671396643862    -0.069611658188306   0.001799815388549    42.3878586275188     0.001799815388549    42.3878586275188     0.998671396643862    -0.069611658188306   
82.7333142070377     0.998663926479328    -0.090422712046597   0.002066977885631    49.6848421256027     0.002066977885631    49.6848421256027     0.998663926479328    -0.090422712046597   
83.2531234470272     0.998656127745958    -0.111236502361625   0.002360111836921    55.2352782125787     0.002360111836921    55.2352782125787     0.998656127745958    -0.111236502361625   
83.7761986222517     0.998647998975278    -0.132053816286588   0.002670712502889    59.5208037435509     0.002670712502889    59.5208037435509     0.998647998975278    -0.132053816286588   
84.3025602524175     0.998639538651222    -0.152875440785809   0.0029933841829      62.8915028534069     0.0029933841829      62.8915028534069     0.998639538651222    -0.152875440785809   
84.8322289861553     0.998630745209904    -0.173702162655826   0.003324653061634    65.5921442451398     0.003324653061634    65.5921442451398     0.998630745209904    -0.173702162655826   
85.36522560183       0.998621617039371    -0.194534768546185   0.003662227758573    67.7932419646111     0.003662227758573    67.7932419646111     0.998621617039371    -0.194534768546185   
85.9015710083561     0.99861215247936     -0.215374044980313   0.00400455630319     69.6148627516016     0.00400455630319     69.6148627516016     0.99861215247936     -0.215374044980313   
86.4412862460173     0.998602349821039    -0.236220778376088   0.004350560325618    71.1429400731733     0.004350560325618    71.1429400731733     0.998602349821039    -0.236220778376088   
86.984392487293      0.998592207306755    -0.257075755066331   0.00469947278325     72.4400917427003     0.00469947278325     72.4400917427003     0.998592207306755    -0.257075755066331   
87.5309110376874     0.998581723129757    -0.277939761319241   0.005050736563549    73.5527673294574     0.005050736563549    73.5527673294574     0.998581723129757    -0.277939761319241   
88.080863336567      0.998570895433928    -0.298813583358547   0.005403939536412    74.5160122324085     0.005403939536412    74.5160122324085     0.998570895433928    -0.298813583358547   
88.6342709580001     0.998559722313509    -0.319698007383634   0.00575877192929     75.3566881421692     0.00575877192929     75.3566881421692     0.998559722313509    -0.319698007383634   
89.1911556116042     0.998548201812803    -0.340593819589521   0.006114997701087    76.0956853587516     0.006114997701087    76.0956853587516     0.998548201812803    -0.340593819589521   
89.7515391433969     0.99853633192589     -0.361501806186544   0.006472434901345    76.749467895168      0.006472434901345    76.749467895168      0.99853633192589     -0.361501806186544   
90.3154435366533     0.998524110596329    -0.382422753420167   0.006830941925769    77.3311702092452     0.006830941925769    77.3311702092452     0.998524110596329    -0.382422753420167   
90.8828909127685     0.998511535716841    -0.403357447590323   0.007190407722064    77.8513878193753     0.007190407722064    77.8513878193753     0.998511535716841    -0.403357447590323   
91.4539035321251     0.998498605129009    -0.424306675070893   0.007550744693805    78.3187556294404     0.007550744693805    78.3187556294404     0.998498605129009    -0.424306675070893   
92.0285037949666     0.998485316622955    -0.445271222328758   0.007911883480137    78.7403767908546     0.007911883480137    78.7403767908546     0.998485316622955    -0.445271222328758   
92.6067142422758     0.998471667937009    -0.466251875942912   0.008273769061324    79.122144813019      0.008273769061324    79.122144813019      0.998471667937009    -0.466251875942912   
93.1885575566598     0.998457656757382    -0.487249422623317   0.00863635781578     79.4689883869175     0.00863635781578     79.4689883869175     0.998457656757382    -0.487249422623317   
93.7740565632393     0.998443280717826    -0.508264649229522   0.008999615269577    79.7850595360541     0.008999615269577    79.7850595360541     0.998443280717826    -0.508264649229522   
94.3632342305437     0.998428537399288    -0.529298342789282   0.009363514356547    80.0738797108359     0.009363514356547    80.0738797108359     0.998428537399288    -0.529298342789282   
94.956113671413      0.998413424329554    -0.550351290516835   0.009728034059414    80.3384543214298     0.009728034059414    80.3384543214298     0.998413424329554    -0.550351290516835   
95.5527181439036     0.998397938982893    -0.571424279831114   0.01009315833851     80.5813633353398     0.01009315833851     80.5813633353398     0.998397938982893    -0.571424279831114   
96.1530710522013     0.998382078779691    -0.592518098373692   0.010458875279778    80.8048335439082     0.010458875279778    80.8048335439082     0.998382078779691    -0.592518098373692   
96.7571959475394     0.998365841086077    -0.61363353402664    0.010825176411649    81.0107966597657     0.010825176411649    81.0107966597657     0.998365841086077    -0.61363353402664    
97.365116529122      0.998349223213539    -0.634771374930127   0.011192056153147    81.2009363671214     0.011192056153147    81.2009363671214     0.998349223213539    -0.634771374930127   
97.9768566450546     0.998332222418545    -0.655932409499823   0.011559511364828    81.3767266886251     0.011559511364828    81.3767266886251     0.998332222418545    -0.655932409499823   
98.5924402932785     0.99831483590214     -0.677117426444194   0.01192754098096     81.539463474378      0.01192754098096     81.539463474378      0.99831483590214     -0.677117426444194   
99.2118916225134     0.998297060809554    -0.698327214781494   0.012296145706359    81.6902904038381     0.012296145706359    81.6902904038381     0.998297060809554    -0.698327214781494   
99.8352349332039     0.998278894229786    -0.719562563856574   0.012665327765041    81.8302205803091     0.012665327765041    81.8302205803091     0.998278894229786    -0.719562563856574   
100.462494678473     0.998260333195195    -0.740824263357581   0.013035090690694    81.9601545624703     0.013035090690694    81.9601545624703     0.998260333195195    -0.740824263357581   
101.093695465082     0.998241374681076    -0.762113103332382   0.013405439151078    82.0808954980707     0.013405439151078    82.0808954980707     0.998241374681076    -0.762113103332382   
101.728862054395     0.99822201560523     -0.783429874204604   0.013776378800165    82.193161887187      0.013776378800165    82.193161887187      0.99822201560523     -0.783429874204604   
102.36801936335      0.998202252827526    -0.804775366789902   0.014147916153025    82.297598395861      0.014147916153025    82.297598395861      0.998202252827526    -0.804775366789902   
103.011192465437     0.998182083149466    -0.826150372311483   0.014520058479518    82.3947850579318     0.014520058479518    82.3947850579318     0.998182083149466    -0.826150372311483   
103.658406591682     0.998161503313723    -0.847555682415751   0.01489281371358     82.4852451377809     0.01489281371358     82.4852451377809     0.998161503313723    -0.847555682415751   
104.309687131636     0.998140510003691    -0.868992089187633   0.015266190375501    82.5694518753602     0.015266190375501    82.5694518753602     0.998140510003691    -0.868992089187633   
104.965059634372     0.99811909984302     -0.890460385165593   0.015640197505104    82.6478342941227     0.015640197505104    82.6478342941227     0.99811909984302     -0.890460385165593   
105.624549809484     0.998097269395138    -0.91196136335652    0.016014844604068    82.7207822199486     0.016014844604068    82.7207822199486     0.998097269395138    -0.91196136335652    
106.2881835281       0.998075015162777    -0.933495817250303   0.016390141585997    82.7886506330674     0.016390141585997    82.7886506330674     0.998075015162777    -0.933495817250303   
106.955986823896     0.998052333587482    -0.955064540834162   0.016766098733039    82.8517634539294     0.016766098733039    82.8517634539294     0.998052333587482    -0.955064540834162   
107.627985894115     0.998029221049122    -0.97666832860675    0.017142726658087    82.9104168469233     0.017142726658087    82.9104168469233     0.998029221049122    -0.97666832860675    
108.304207100596     0.998005673865384    -0.998307975591996   0.017520036271748    82.9648821119498     0.017520036271748    82.9648821119498     0.998005673865384    -0.998307975591996   
108.984676970807     0.997981688291263    -1.01998427735265    0.017898038753393    83.0154082225011     0.017898038753393    83.0154082225011     0.997981688291263    -1.01998427735265    
109.669422198889     0.99795726051855     -1.04169803000361    0.018276745525726    83.0622240595644     0.018276745525726    83.0622240595644     0.99795726051855     -1.04169803000361    
110.3584696467       0.997932386675302    -1.06345003022495    0.018656168232373    83.1055403829733     0.018656168232373    83.1055403829733     0.997932386675302    -1.06345003022495    
111.051846344869     0.997907062825318    -1.08524107527463    0.019036318718096    83.1455515754557     0.019036318718096    83.1455515754557     0.997907062825318    -1.08524107527463    
111.749579493858     0.997881284967593    -1.10707196300102    0.019417209011281    83.1824371893291     0.019417209011281    83.1824371893291     0.997881284967593    -1.10707196300102    
112.451696465027     0.997855049035773    -1.12894349185504    0.019798851308402    83.2163633213757     0.019798851308402    83.2163633213757     0.997855049035773    -1.12894349185504    
113.158224801711     0.997828350897604    -1.15085646090206    0.02018125796021     83.2474838377267     0.02018125796021     83.2474838377267     0.997828350897604    -1.15085646090206    
113.869192220296     0.997801186354367    -1.17281166983348    0.02056444145943     83.2759414674782     0.02056444145943     83.2759414674782     0.997801186354367    -1.17281166983348    
114.584626611309     0.997773551140308    -1.19480991897797    0.020948414429783    83.30186878114       0.020948414429783    83.30186878114       0.997773551140308    -1.19480991897797    
115.304556040514     0.997745440922061    -1.21685200931257    0.021333189616163    83.3253890678046     0.021333189616163    83.3253890678046     0.997745440922061    -1.21685200931257    
116.029008750008     0.997716851298065    -1.2389387424731     0.021718779875847    83.346617123042      0.021718779875847    83.346617123042      0.997716851298065    -1.2389387424731     
116.758013159334     0.99768777779797     -1.26107092076476    0.022105198170601    83.365659957932      0.022105198170601    83.365659957932      0.99768777779797     -1.26107092076476    
117.491597866592     0.997658215882033    -1.28324934717191    0.022492457559583    83.3826174382802     0.022492457559583    83.3826174382802     0.997658215882033    -1.28324934717191    
118.229791649563     0.997628160940517    -1.30547482536784    0.022880571192961    83.3975828618992     0.022880571192961    83.3975828618992     0.997628160940517    -1.30547482536784    
118.972623466836     0.997597608293066    -1.32774815972405    0.023269552306151    83.4106434808366     0.023269552306151    83.4106434808366     0.997597608293066    -1.32774815972405    
119.720122458948     0.997566553188088    -1.35007015531925    0.023659414214619    83.4218809745721     0.023659414214619    83.4218809745721     0.997566553188088    -1.35007015531925    
120.472317949523     0.99753499080212     -1.37244161794794    0.02405017030918     83.4313718794671     0.02405017030918     83.4313718794671     0.99753499080212     -1.37244161794794    
121.229239446423     0.997502916239188    -1.39486335412865    0.024441834051737    83.439187979107      0.024441834051737    83.439187979107      0.997502916239188    -1.39486335412865    
121.990916642908     0.997470324530158    -1.41733617111188    0.024834418971424    83.4453966596256     0.024834418971424    83.4453966596256     0.997470324530158    -1.41733617111188    
122.757379418799     0.997437210632083    -1.43986087688758    0.025227938661096    83.4500612336194     0.025227938661096    83.4500612336194     0.997437210632083    -1.43986087688758    
123.52865784165      0.997403569427536    -1.46243828019223    0.025622406774147    83.4532412358396     0.025622406774147    83.4532412358396     0.997403569427536    -1.46243828019223    
124.304782167926     0.997369395723942    -1.48506919051563    0.026017837021606    83.4549926934884     0.026017837021606    83.4549926934884     0.997369395723942    -1.48506919051563    
125.085782844197     0.997334684252893    -1.50775441810725    0.026414243169495    83.4553683736242     0.026414243169495    83.4553683736242     0.997334684252893    -1.50775441810725    
125.871690508321     0.997299429669465    -1.5304947739821     0.026811639036417    83.4544180099058     0.026811639036417    83.4544180099058     0.997299429669465    -1.5304947739821     
126.662535990657     0.997263626551521    -1.55329106992628    0.02721003849135     83.4521885106573     0.02721003849135     83.4521885106573     0.997263626551521    -1.55329106992628    
127.458350315267     0.997227269399       -1.57614411850207    0.027609455451636    83.4487241500249     0.027609455451636    83.4487241500249     0.997227269399       -1.57614411850207    
128.259164701137     0.997190352633216    -1.59905473305266    0.028009903881133    83.444066743804      0.028009903881133    83.444066743804      0.997190352633216    -1.59905473305266    
129.065010563399     0.99715287059613     -1.62202372770628    0.02841139778852     83.4382558113523     0.02841139778852     83.4382558113523     0.99715287059613     -1.62202372770628    
129.875919514566     0.997114817549623    -1.6450519173801     0.02881395122575     83.4313287248544     0.02881395122575     83.4313287248544     0.997114817549623    -1.6450519173801     
130.69192336577      0.99707618767476     -1.66814011778347    0.029217578286618    83.4233208470761     0.029217578286618    83.4233208470761     0.99707618767476     -1.66814011778347    
131.513054128011     0.997036975071042    -1.69128914542086    0.029622293105449    83.4142656586293     0.029622293105449    83.4142656586293     0.997036975071042    -1.69128914542086    
132.339344013412     0.996997173755659    -1.71449981759427    0.030028109855888    83.4041948756666     0.030028109855888    83.4041948756666     0.996997173755659    -1.71449981759427    
133.170825436484     0.996956777662723    -1.73777295240512    0.030435042749781    83.3931385588356     0.030435042749781    83.3931385588356     0.996956777662723    -1.73777295240512    
134.007531015396     0.996915780642503    -1.76110936875573    0.030843106036147    83.3811252142384     0.030843106036147    83.3811252142384     0.996915780642503    -1.76110936875573    
134.849493573256     0.996874176460641    -1.78450988635021    0.031252314000218    83.3681818870736     0.031252314000218    83.3681818870736     0.996874176460641    -1.78450988635021    
135.696746139397     0.996831958797369    -1.80797532569502    0.031662680962559    83.3543342485709     0.031662680962559    83.3543342485709     0.996831958797369    -1.80797532569502    
136.549321950675     0.99678912124672     -1.83150650809875    0.032074221278242    83.3396066767718     0.032074221278242    83.3396066767718     0.99678912124672     -1.83150650809875    
137.40725445277      0.996745657315715    -1.85510425567162    0.032486949336085    83.3240223316592     0.032486949336085    83.3240223316592     0.996745657315715    -1.85510425567162    
138.2705773015       0.996701560423562    -1.87876939132431    0.032900879557937    83.30760322509       0.032900879557937    83.30760322509       0.996701560423562    -1.87876939132431    
139.139324364142     0.99665682390083     -1.90250273876631    0.033316026398016    83.2903702859463     0.033316026398016    83.2903702859463     0.99665682390083     -1.90250273876631    
140.013529720758     0.996611440988623    -1.92630512250369    0.033732404342286    83.272343420882      0.033732404342286    83.272343420882      0.996611440988623    -1.92630512250369    
140.893227665533     0.996565404837747    -1.95017736783623    0.034150027907872    83.2535415710073     0.034150027907872    83.2535415710073     0.996565404837747    -1.95017736783623    
141.778452708123     0.996518708507864    -1.97412030085418    0.034568911642517    83.2339827648253     0.034568911642517    83.2339827648253     0.996518708507864    -1.97412030085418    
142.669239575003     0.99647134496664     -1.99813474843423    0.034989070124058    83.2136841677052     0.034989070124058    83.2136841677052     0.99647134496664     -1.99813474843423    
143.565623210835     0.996423307088882    -2.02222153823499    0.035410517959943    83.1926621281556     0.035410517959943    83.1926621281556     0.996423307088882    -2.02222153823499    
144.467638779837     0.996374587655675    -2.04638149869178    0.035833269786768    83.1709322211345     0.035833269786768    83.1709322211345     0.996374587655675    -2.04638149869178    
145.375321667159     0.996325179353498    -2.07061545901099    0.036257340269836    83.1485092886154     0.036257340269836    83.1485092886154     0.996325179353498    -2.07061545901099    
146.288707480278     0.996275074773346    -2.09492424916351    0.036682744102736    83.1254074776124     0.036682744102736    83.1254074776124     0.996275074773346    -2.09492424916351    
147.207832050389     0.996224266409831    -2.11930869987785    0.037109496006948    83.1016402758437     0.037109496006948    83.1016402758437     0.996224266409831    -2.11930869987785    
148.132731433812     0.996172746660278    -2.14376964263238    0.037537610731451    83.0772205452072     0.037537610731451    83.0772205452072     0.996172746660278    -2.14376964263238    
149.063441913407     0.996120507823824    -2.16830790964698    0.037967103052357    83.0521605532205     0.037967103052357    83.0521605532205     0.996120507823824    -2.16830790964698    
150                  0.996067542100494    -2.19292433387396    0.03839798777255     83.026472002569      0.03839798777255     83.026472002569      0.996067542100494    -2.19292433387396    
