# MHz S MA R 50      
!Freq                MagS11               AngS11               MagS21               AngS21               MagS12               AngS12               MagS22               AngS22               
1                    0.05020972579461     53.3278393473358     0.97084857463832     -2.37735302100917    0.97084857463832     -2.37735302100917    0.05020972579461     53.3278393473358     
1.00751744586507     0.050480274371763    53.4850825630976     0.970810741112219    -2.39514214624821    0.970810741112219    -2.39514214624821    0.050480274371763    53.4850825630976     
1.01509140372247     0.050753252258478    53.6416984161343     0.970772626458395    -2.41306384439352    0.970772626458395    -2.41306384439352    0.050753252258478    53.6416984161343     
1.02272229839805     0.051028677213419    53.7976808774475     0.970734227542786    -2.43111909393143    0.970734227542786    -2.43111909393143    0.051028677213419    53.7976808774475     
1.03041055791125     0.051306567096191    53.9530240020975     0.970695541188829    -2.4493088803852     0.970695541188829    -2.4493088803852     0.051306567096191    53.9530240020975     
1.03815661349914     0.051586939868127    54.1077219293523     0.970656564176898    -2.4676341963618     0.970656564176898    -2.4676341963618     0.051586939868127    54.1077219293523     
1.04596089964059     0.051869813593081    54.2617688828037     0.970617293243633    -2.4860960415988     0.970617293243633    -2.4860960415988     0.051869813593081    54.2617688828037     
1.05382385408061     0.052155206438235    54.4151591704476     0.97057772508137     -2.50469542301167    0.97057772508137     -2.50469542301167    0.052155206438235    54.4151591704476     
1.06174591785498     0.052443136674904    54.5678871847344     0.970537856337487    -2.5234333547412     0.970537856337487    -2.5234333547412     0.052443136674904    54.5678871847344     
1.06972753531491     0.052733622679353    54.7199474025836     0.970497683613756    -2.54231085820106    0.970497683613756    -2.54231085820106    0.052733622679353    54.7199474025836     
1.07776915415201     0.053026682933624    54.8713343853681     0.970457203465698    -2.56132896212566    0.970457203465698    -2.56132896212566    0.053026682933624    54.8713343853681     
1.08587122542339     0.053322336026362    55.0220427788661     0.97041641240196     -2.58048870261843    0.97041641240196     -2.58048870261843    0.053322336026362    55.0220427788661     
1.09403420357694     0.053620600653654    55.172067313182      0.970375306883575    -2.59979112319979    0.970375306883575    -2.59979112319979    0.053620600653654    55.172067313182      
1.10225854647687     0.053921495619873    55.3214028026358     0.970333883323354    -2.61923727485596    0.970333883323354    -2.61923727485596    0.053921495619873    55.3214028026358     
1.11054471542931     0.054225039838526    55.4700441456231     0.970292138085165    -2.63882821608757    0.970292138085165    -2.63882821608757    0.054225039838526    55.4700441456231     
1.11889317520829     0.054531252333111    55.617986324445      0.970250067483226    -2.65856501295858    0.970250067483226    -2.65856501295858    0.054531252333111    55.617986324445      
1.12730439408171     0.05484015223798     55.7652244051079     0.970207667781435    -2.6784487391455     0.970207667781435    -2.6784487391455     0.05484015223798     55.7652244051079     
1.13577884383767     0.055151758799204    55.9117535370961     0.970164935192633    -2.69848047598677    0.970164935192633    -2.69848047598677    0.055151758799204    55.9117535370961     
1.14431699981091     0.055466091375448    56.0575689531154     0.970121865877877    -2.71866131253237    0.970121865877877    -2.71866131253237    0.055466091375448    56.0575689531154     
1.15291934090947     0.055783169438849    56.2026659688081     0.970078455945698    -2.73899234559338    0.970078455945698    -2.73899234559338    0.055783169438849    56.2026659688081     
1.16158634964154     0.0561030125759      56.3470399824437     0.970034701451362    -2.75947467979226    0.970034701451362    -2.75947467979226    0.0561030125759      56.3470399824437     
1.17031851214257     0.056425640488338    56.4906864745795     0.969990598396147    -2.78010942761302    0.969990598396147    -2.78010942761302    0.056425640488338    56.4906864745795     
1.17911631820249     0.05675107299404     56.6336010076984     0.969946142726494    -2.80089770945134    0.969946142726494    -2.80089770945134    0.05675107299404     56.6336010076984     
1.1879802612932      0.05707933002792     56.7757792258194     0.969901330333325    -2.82184065366552    0.969901330333325    -2.82184065366552    0.05707933002792     56.7757792258194     
1.19691083859624     0.057410431642829    56.9172168540843     0.969856157051173    -2.84293939662701    0.969856157051173    -2.84293939662701    0.057410431642829    56.9172168540843     
1.2059085510307      0.057744398010466    57.0579096983204     0.969810618657426    -2.86419508277153    0.969810618657426    -2.86419508277153    0.057744398010466    57.0579096983204     
1.21497390328129     0.058081249422289    57.1978536445787     0.96976471087152     -2.88560886465027    0.96976471087152     -2.88560886465027    0.058081249422289    57.1978536445787     
1.22410740382668     0.058421006290428    57.3370446586496     0.96971842935409     -2.90718190298113    0.96971842935409     -2.90718190298113    0.058421006290428    57.3370446586496     
1.23330956496797     0.058763689148603    57.4754787855575     0.96967176970616     -2.92891536670041    0.96967176970616     -2.92891536670041    0.058763689148603    57.4754787855575     
1.24258090285749     0.059109318653048    57.613152149031      0.969624727468282    -2.95081043301445    0.969624727468282    -2.95081043301445    0.059109318653048    57.613152149031      
1.25192193752769     0.059457915583433    57.750060950955      0.969577298119674    -2.97286828745156    0.969577298119674    -2.97286828745156    0.059457915583433    57.750060950955      
1.26133319292034     0.059809500843798    57.8862014708002     0.969529477077405    -2.99509012391428    0.969529477077405    -2.99509012391428    0.059809500843798    57.8862014708002     
1.27081519691593     0.060164095463477    58.0215700650328     0.969481259695416    -3.01747714473133    0.969481259695416    -3.01747714473133    0.060164095463477    58.0215700650328     
1.28036848136325     0.060521720598037    58.1561631665071     0.969432641263735    -3.0400305607104     0.969432641263735    -3.0400305607104     0.060521720598037    58.1561631665071     
1.28999358210924     0.06088239753021     58.2899772838362     0.969383617007491    -3.06275159119049    0.969383617007491    -3.06275159119049    0.06088239753021     58.2899772838362     
1.29969103902903     0.061246147670831    58.4230090007473     0.969334182086045    -3.08564146409485    0.969334182086045    -3.08564146409485    0.061246147670831    58.4230090007473     
1.30946139605624     0.061612992559782    58.5552549754185     0.969284331592026    -3.10870141598383    0.969284331592026    -3.10870141598383    0.061612992559782    58.5552549754185     
1.31930520121349     0.061982953866927    58.686711939798      0.969234060550426    -3.13193269210796    0.969234060550426    -3.13193269210796    0.061982953866927    58.686711939798      
1.32922300664312     0.062356053393061    58.8173766989098     0.969183363917601    -3.15533654646133    0.969183363917601    -3.15533654646133    0.062356053393061    58.8173766989098     
1.33921536863816     0.062732313070851    58.9472461301394     0.96913223658036     -3.17891424183483    0.96913223658036     -3.17891424183483    0.062732313070851    58.9472461301394     
1.34928284767356     0.063111754965776    59.0763171825094     0.9690806733549      -3.20266704986966    0.9690806733549      -3.20266704986966    0.063111754965776    59.0763171825094     
1.35942600843761     0.063494401277086    59.2045868759373     0.969028668985908    -3.22659625111126    0.969028668985908    -3.22659625111126    0.063494401277086    59.2045868759373     
1.36964541986361     0.063880274338733    59.3320523004801     0.968976218145479    -3.25070313506283    0.968976218145479    -3.25070313506283    0.063880274338733    59.3320523004801     
1.37994165516177     0.064269396620326    59.4587106155671     0.968923315432116    -3.2749890002394     0.968923315432116    -3.2749890002394     0.064269396620326    59.4587106155671     
1.3903152918514      0.064661790728076    59.5845590492183     0.968869955369713    -3.29945515422193    0.968869955369713    -3.29945515422193    0.064661790728076    59.5845590492183     
1.40076691179327     0.06505747940574     59.709594897252      0.968816132406484    -3.32410291371154    0.968816132406484    -3.32410291371154    0.06505747940574     59.709594897252      
1.41129710122225     0.065456485535569    59.8338155224802     0.968761840913903    -3.34893360458363    0.968761840913903    -3.34893360458363    0.065456485535569    59.8338155224802     
1.42190645078022     0.065858832139249    59.9572183538935     0.968707075185603    -3.37394856194247    0.968707075185603    -3.37394856194247    0.065858832139249    59.9572183538935     
1.43259555554915     0.066264542378847    60.0798008858351     0.968651829436348    -3.3991491301757     0.968651829436348    -3.3991491301757     0.066264542378847    60.0798008858351     
1.44336501508452     0.066673639557755    60.2015606771663     0.968596097800855    -3.42453666300894    0.968596097800855    -3.42453666300894    0.066673639557755    60.2015606771663     
1.45421543344895     0.067086147121626    60.3224953504205     0.968539874332705    -3.45011252356048    0.968539874332705    -3.45011252356048    0.067086147121626    60.3224953504205     
1.46514741924605     0.067502088659316    60.4426025909514     0.968483153003189    -3.47587808439609    0.968483153003189    -3.47587808439609    0.067502088659316    60.4426025909514     
1.47616158565458     0.067921487903819    60.5618801460704     0.968425927700183    -3.501834727584      0.968425927700183    -3.501834727584      0.067921487903819    60.5618801460704     
1.48725855046283     0.068344368733205    60.680325824178      0.968368192226946    -3.52798384474979    0.968368192226946    -3.52798384474979    0.068344368733205    60.680325824178      
1.49843893610329     0.068770755171545    60.7979374938873     0.968309940300958    -3.55432683713139    0.968309940300958    -3.55432683713139    0.068770755171545    60.7979374938873     
1.50970336968756     0.069200671389845    60.9147130831415     0.968251165552698    -3.58086511563427    0.968251165552698    -3.58086511563427    0.069200671389845    60.9147130831415     
1.52105248304149     0.069634141706968    61.0306505783246     0.968191861524468    -3.6076001008866     0.968191861524468    -3.6076001008866     0.069634141706968    61.0306505783246     
1.53248691274068     0.070071190590558    61.1457480233677     0.968132021669105    -3.63453322329434    0.968132021669105    -3.63453322329434    0.070071190590558    61.1457480233677     
1.54400730014613     0.070511842657958    61.2600035188481     0.968071639348784    -3.66166592309657    0.968071639348784    -3.66166592309657    0.070511842657958    61.2600035188481     
1.55561429144025     0.070956122677121    61.3734152210863     0.968010707833721    -3.68899965042081    0.968010707833721    -3.68899965042081    0.070956122677121    61.3734152210863     
1.56730853766308     0.071404055567522    61.4859813412368     0.96794922030091     -3.71653586533821    0.96794922030091     -3.71653586533821    0.071404055567522    61.4859813412368     
1.57909069474882     0.071855666401063    61.5977001443769     0.967887169832799    -3.74427603791902    0.967887169832799    -3.74427603791902    0.071855666401063    61.5977001443769     
1.59096142356263     0.072310980402968    61.7085699485901     0.967824549416013    -3.77222164828776    0.967824549416013    -3.77222164828776    0.072310980402968    61.7085699485901     
1.60292138993767     0.072770022952682    61.8185891240495     0.967761351939967    -3.80037418667867    0.967761351939967    -3.80037418667867    0.072770022952682    61.8185891240495     
1.61497126471248     0.073232819584759    61.9277560920962     0.967697570195576    -3.828735153491      0.967697570195576    -3.828735153491      0.073232819584759    61.9277560920962     
1.6271117237686      0.073699395989741    62.0360693243175     0.967633196873845    -3.85730605934437    0.967633196873845    -3.85730605934437    0.073699395989741    62.0360693243175     
1.63934344806845     0.074169778015039    62.1435273416227     0.967568224564496    -3.88608842513405    0.967568224564496    -3.88608842513405    0.074169778015039    62.1435273416227     
1.65166712369355     0.074643991665796    62.2501287133185     0.967502645754558    -3.91508378208604    0.967502645754558    -3.91508378208604    0.074643991665796    62.2501287133185     
1.66408344188303     0.075122063105757    62.3558720561829     0.967436452826952    -3.9442936718126     0.967436452826952    -3.9442936718126     0.075122063105757    62.3558720561829     
1.67659309907234     0.075604018658118    62.4607560335395     0.967369638059054    -3.97371964636712    0.967369638059054    -3.97371964636712    0.075604018658118    62.4607560335395     
1.68919679693236     0.076089884806374    62.5647793543311     0.96730219362122     -4.00336326829933    0.96730219362122     -4.00336326829933    0.076089884806374    62.5647793543311     
1.70189524240875     0.076579688195162    62.6679407721952     0.967234111575317    -4.03322611071042    0.967234111575317    -4.03322611071042    0.076579688195162    62.6679407721952     
1.71468914776157     0.07707345563109     62.7702390845378     0.967165383873228    -4.0633097573077     0.967165383873228    -4.0633097573077     0.07707345563109     62.7702390845378     
1.72757923060529     0.077571214083555    62.8716731316116     0.967096002355327    -4.09361580245973    0.967096002355327    -4.09361580245973    0.077571214083555    62.8716731316116     
1.74056621394898     0.078072990685561    62.9722417955922     0.967025958748948    -4.12414585125082    0.967025958748948    -4.12414585125082    0.078072990685561    62.9722417955922     
1.7536508262369      0.078578812734522    63.0719439996593     0.966955244666822    -4.15490151953579    0.966955244666822    -4.15490151953579    0.078578812734522    63.0719439996593     
1.76683380138937     0.07908870769305     63.170778707078      0.966883851605514    -4.18588443399435    0.966883851605514    -4.18588443399435    0.07908870769305     63.170778707078      
1.78011587884389     0.079602703189748    63.2687449202832     0.966811770943824    -4.21709623218556    0.966811770943824    -4.21709623218556    0.079602703189748    63.2687449202832     
1.79349780359664     0.080120827019969    63.365841679967      0.966738993941161    -4.24853856260181    0.966738993941161    -4.24853856260181    0.080120827019969    63.365841679967      
1.8069803262443      0.080643107146589    63.4620680641688     0.966665511735915    -4.28021308472299    0.966665511735915    -4.28021308472299    0.080643107146589    63.4620680641688     
1.82056420302608     0.08116957170075     63.5574231873693     0.966591315343777    -4.31212146907025    0.966591315343777    -4.31212146907025    0.08116957170075     63.5574231873693     
1.83425019586621     0.081700248982601    63.6519061995873     0.966516395656125    -4.34426539725971    0.966516395656125    -4.34426539725971    0.081700248982601    63.6519061995873     
1.84803907241662     0.082235167462019    63.7455162854815     0.966440743438226    -4.37664656205564    0.966440743438226    -4.37664656205564    0.082235167462019    63.7455162854815     
1.86193160610004     0.082774355779327    63.8382526634553     0.966364349327611    -4.40926666742402    0.966364349327611    -4.40926666742402    0.082774355779327    63.8382526634553     
1.87592857615336     0.083317842745989    63.9301145847672     0.966287203832271    -4.44212742858524    0.966287203832271    -4.44212742858524    0.083317842745989    63.9301145847672     
1.89003076767132     0.083865657345299    64.021101332645      0.966209297328933    -4.47523057206687    0.966209297328933    -4.47523057206687    0.083865657345299    64.021101332645      
1.9042389716506      0.084417828733045    64.1112122214056     0.966130620061222    -4.50857783575608    0.966130620061222    -4.50857783575608    0.084417828733045    64.1112122214056     
1.91855398503414     0.084974386238178    64.2004465955791     0.966051162137922    -4.54217096895188    0.966051162137922    -4.54217096895188    0.084974386238178    64.2004465955791     
1.93297661075584     0.085535359363439    64.2888038290395     0.965970913531081    -4.57601173241677    0.965970913531081    -4.57601173241677    0.085535359363439    64.2888038290395     
1.94750765778564     0.086100777785996    64.3762833241397     0.965889864074211    -4.61010189842853    0.965889864074211    -4.61010189842853    0.086100777785996    64.3762833241397     
1.96214794117485     0.086670671358052    64.462884510853      0.965808003460378    -4.64444325083135    0.965808003460378    -4.64444325083135    0.086670671358052    64.462884510853      
1.97689828210189     0.087245070107432    64.548606845921      0.965725321240313    -4.67903758508646    0.965725321240313    -4.67903758508646    0.087245070107432    64.548606845921      
1.99175950791833     0.087824004238165    64.6334498120066     0.9656418068205      -4.7138867083228     0.9656418068205      -4.7138867083228     0.087824004238165    64.6334498120066     
2.00673245219534     0.088407504131041    64.717412916854      0.965557449461217    -4.74899243938723    0.965557449461217    -4.74899243938723    0.088407504131041    64.717412916854      
2.02181795477039     0.08899560034415     64.8004956924556     0.965472238274575    -4.78435660889393    0.965472238274575    -4.78435660889393    0.08899560034415     64.8004956924556     
2.0370168617944      0.089588323613409    64.8826976942249     0.965386162222544    -4.81998105927398    0.965386162222544    -4.81998105927398    0.089588323613409    64.8826976942249     
2.05233002577917     0.090185704853054    64.9640185001765     0.965299210114896    -4.85586764482373    0.965299210114896    -4.85586764482373    0.090185704853054    64.9640185001765     
2.06775830564522     0.090787775156132    65.0444577101137     0.965211370607209    -4.89201823175368    0.965211370607209    -4.89201823175368    0.090787775156132    65.0444577101137     
2.08330256676995     0.09139456579496     65.1240149448224     0.965122632198767    -4.92843469823599    0.965122632198767    -4.92843469823599    0.09139456579496     65.1240149448224     
2.0989636810362      0.092006108221564    65.2026898452727     0.965032983230493    -4.96511893445194    0.965032983230493    -4.96511893445194    0.092006108221564    65.2026898452727     
2.11474252688113     0.092622434068104    65.2804820718283     0.964942411882843    -5.00207284263887    0.964942411882843    -5.00207284263887    0.092622434068104    65.2804820718283     
2.13063998934551     0.093243575147264    65.3573913034629     0.96485090617363     -5.03929833713625    0.96485090617363     -5.03929833713625    0.093243575147264    65.3573913034629     
2.14665696012337     0.093869563452633    65.4334172369849     0.964758453955907    -5.07679734443152    0.964758453955907    -5.07679734443152    0.093869563452633    65.4334172369849     
2.16279433761196     0.094500431159056    65.5085595862694     0.964665042915758    -5.11457180320538    0.964665042915758    -5.11457180320538    0.094500431159056    65.5085595862694     
2.17905302696224     0.095136210622953    65.5828180814983     0.964570660570069    -5.15262366437595    0.964570660570069    -5.15262366437595    0.095136210622953    65.5828180814983     
2.19543394012954     0.095776934382635    65.6561924684089     0.964475294264329    -5.19095489114296    0.964475294264329    -5.19095489114296    0.095776934382635    65.6561924684089     
2.21193799592479     0.096422635158568    65.7286825075495     0.964378931170324    -5.22956745903065    0.964378931170324    -5.22956745903065    0.096422635158568    65.7286825075495     
2.22856612006604     0.097073345853632    65.8002879735451     0.96428155828385     -5.26846335593046    0.96428155828385     -5.26846335593046    0.097073345853632    65.8002879735451     
2.24531924523036     0.097729099553341    65.8710086543695     0.964183162422438    -5.30764458214284    0.964183162422438    -5.30764458214284    0.097729099553341    65.8710086543695     
2.26219831110617     0.098389929526045    65.9408443506267     0.964083730222969    -5.34711315041815    0.964083730222969    -5.34711315041815    0.098389929526045    65.9408443506267     
2.27920426444596     0.099055869223093    66.0097948748415     0.96398324813931     -5.3868710859972     0.96398324813931     -5.3868710859972     0.099055869223093    66.0097948748415     
2.29633805911936     0.099726952278977    66.0778600507568     0.963881702439944    -5.42692042665042    0.963881702439944    -5.42692042665042    0.099726952278977    66.0778600507568     
2.31360065616669     0.100403212511436    66.1450397126414     0.963779079205498    -5.46726322271658    0.963779079205498    -5.46726322271658    0.100403212511436    66.1450397126414     
2.33099302385281     0.101084683921543    66.2113337046057     0.963675364326365    -5.50790153714084    0.963675364326365    -5.50790153714084    0.101084683921543    66.2113337046057     
2.34851613772147     0.10177140069375     66.2767418799263     0.963570543500147    -5.54883744551136    0.963570543500147    -5.54883744551136    0.10177140069375     66.2767418799263     
2.36617098065003     0.102463397195902    66.3412641003788     0.963464602229218    -5.59007303609544    0.963464602229218    -5.59007303609544    0.102463397195902    66.3412641003788     
2.38395854290456     0.103160707979225    66.4049002355809     0.96335752581814     -5.63161040987459    0.96335752581814     -5.63161040987459    0.103160707979225    66.4049002355809     
2.40187982219541     0.103863367778275    66.4676501623428     0.963249299371155    -5.67345168057864    0.963249299371155    -5.67345168057864    0.103863367778275    66.4676501623428     
2.41993582373316     0.10457141151085     66.5295137640281     0.963139907789566    -5.71559897471883    0.963139907789566    -5.71559897471883    0.10457141151085     66.5295137640281     
2.43812756028501     0.105284874277875    66.5904909299223     0.963029335769125    -5.75805443161969    0.963029335769125    -5.75805443161969    0.105284874277875    66.5904909299223     
2.45645605223158     0.106003791363244    66.6505815546116     0.9629175677974      -5.80082020345018    0.9629175677974      -5.80082020345018    0.106003791363244    66.6505815546116     
2.47492232762415     0.106728198233624    66.7097855373697     0.962804588151103    -5.84389845525349    0.962804588151103    -5.84389845525349    0.106728198233624    66.7097855373697     
2.49352742224231     0.107458130538229    66.7681027815545     0.962690380893399    -5.88729136497572    0.962690380893399    -5.88729136497572    0.107458130538229    66.7681027815545     
2.51227237965208     0.10819362410855     66.8255331940144     0.962574929871168    -5.93100112349371    0.962574929871168    -5.93100112349371    0.10819362410855     66.8255331940144     
2.53115825126442     0.10893471495804     66.8820766845017     0.962458218712257    -5.97502993464076    0.962458218712257    -5.97502993464076    0.10893471495804     66.8820766845017     
2.55018609639422     0.109681439281768    66.9377331650978     0.962340230822716    -6.01938001523249    0.962340230822716    -6.01938001523249    0.109681439281768    66.9377331650978     
2.56935698231971     0.110433833456028    66.9925025496461     0.962220949383951    -6.06405359509006    0.962220949383951    -6.06405359509006    0.110433833456028    66.9925025496461     
2.58867198434233     0.111191934037898    67.0463847531947     0.962100357349911    -6.1090529170629     0.962100357349911    -6.1090529170629     0.111191934037898    67.0463847531947     
2.60813218584704     0.11195577776477     67.0993796914473     0.961978437444234    -6.1543802370497     0.961978437444234    -6.1543802370497     0.11195577776477     67.0993796914473     
2.62773867836308     0.112725401553816    67.1514872802253     0.961855172157308    -6.20003782401811    0.961855172157308    -6.20003782401811    0.112725401553816    67.1514872802253     
2.64749256162522     0.113500842501429    67.2027074349381     0.961730543743397    -6.24602796002345    0.961730543743397    -6.24602796002345    0.113500842501429    67.2027074349381     
2.66739494363541     0.114282137882603    67.253040070062      0.961604534217657    -6.29235294022463    0.961604534217657    -6.29235294022463    0.114282137882603    67.253040070062      
2.68744694072494     0.115069325150263    67.3024850986294     0.961477125353164    -6.33901507290015    0.961477125353164    -6.33901507290015    0.115069325150263    67.3024850986294     
2.70764967761708     0.115862441934564    67.3510424317283     0.961348298677899    -6.38601667946152    0.961348298677899    -6.38601667946152    0.115862441934564    67.3510424317283     
2.72800428749013     0.116661526042114    67.398711978008      0.961218035471723    -6.43336009446501    0.961218035471723    -6.43336009446501    0.116661526042114    67.398711978008      
2.74851191204101     0.117466615455175    67.4454936431979     0.961086316763314    -6.48104766562279    0.961086316763314    -6.48104766562279    0.117466615455175    67.4454936431979     
2.76917370154927     0.118277748330779    67.4913873296323     0.960953123327034    -6.52908175381079    0.960953123327034    -6.52908175381079    0.118277748330779    67.4913873296323     
2.78999081494164     0.119094962999821    67.536392935787      0.960818435679877    -6.57746473307616    0.960818435679877    -6.57746473307616    0.119094962999821    67.536392935787      
2.810964419857       0.119918297966074    67.5805103558245     0.960682234078224    -6.6261989906422     0.960682234078224    -6.6261989906422     0.119918297966074    67.5805103558245     
2.8320956927119      0.120747791905163    67.6237394791469     0.960544498514764    -6.67528692691173    0.960544498514764    -6.67528692691173    0.120747791905163    67.6237394791469     
2.85338581876656     0.12158348366348     67.6660801899618     0.960405208715202    -6.72473095546857    0.960405208715202    -6.72473095546857    0.12158348366348     67.6660801899618     
2.87483599219129     0.122425412257021    67.7075323668532     0.960264344135072    -6.77453350307654    0.960264344135072    -6.77453350307654    0.122425412257021    67.7075323668532     
2.89644741613353     0.123273616870194    67.7480958823654     0.960121883956444    -6.82469700967736    0.960121883956444    -6.82469700967736    0.123273616870194    67.7480958823654     
2.91822130278533     0.124128136854543    67.7877706025937     0.959977807084666    -6.87522392838588    0.959977807084666    -6.87522392838588    0.124128136854543    67.7877706025937     
2.9401588734513      0.124989011727421    67.8265563867857     0.959832092145014    -6.92611672548332    0.959832092145014    -6.92611672548332    0.124989011727421    67.8265563867857     
2.96226135861717     0.125856281170591    67.8644530869525     0.959684717479352    -6.97737788040839    0.959684717479352    -6.97737788040839    0.125856281170591    67.8644530869525     
2.98452999801876     0.126729985028766    67.9014605474869     0.959535661142764    -7.02900988574596    0.959535661142764    -7.02900988574596    0.126729985028766    67.9014605474869     
3.00696604071153     0.127610163308084    67.9375786047934     0.959384900900144    -7.08101524721408    0.959384900900144    -7.08101524721408    0.127610163308084    67.9375786047934     
3.02957074514068     0.128496856174517    67.9728070869265     0.95923241422278     -7.13339648364807    0.95923241422278     -7.13339648364807    0.128496856174517    67.9728070869265     
3.05234537921166     0.129390103952197    68.0071458132378     0.959078178284879    -7.18615612698218    0.959078178284879    -7.18615612698218    0.129390103952197    68.0071458132378     
3.07529122036138     0.130289947121685    68.0405945940334     0.958922169960088    -7.2392967222293     0.958922169960088    -7.2392967222293     0.130289947121685    68.0405945940334     
3.09840955562976     0.131196426318171    68.0731532302397     0.958764365818014    -7.29282082745814    0.958764365818014    -7.29282082745814    0.131196426318171    68.0731532302397     
3.12170168173201     0.132109582329578    68.1048215130795     0.958604742120649    -7.34673101376661    0.958604742120649    -7.34673101376661    0.132109582329578    68.1048215130795     
3.14516890513132     0.133029456094617    68.135599223756      0.958443274818831    -7.40102986525477    0.958443274818831    -7.40102986525477    0.133029456094617    68.135599223756      
3.16881254211214     0.133956088700749    68.1654861331481     0.958279939548663    -7.45571997899312    0.958279939548663    -7.45571997899312    0.133956088700749    68.1654861331481     
3.19263391885402     0.134889521382066    68.1944820015125     0.958114711627875    -7.51080396498878    0.958114711627875    -7.51080396498878    0.134889521382066    68.1944820015125     
3.21663437150598     0.135829795517109    68.2225865781972     0.957947566052232    -7.56628444614934    0.957947566052232    -7.56628444614934    0.135829795517109    68.2225865781972     
3.24081524626149     0.136776952626583    68.2497996013629     0.957778477491818    -7.62216405824308    0.957778477491818    -7.62216405824308    0.136776952626583    68.2497996013629     
3.26517789943395     0.137731034371004    68.2761207977147     0.957607420287422    -7.6784454498567     0.957607420287422    -7.6784454498567     0.137731034371004    68.2761207977147     
3.28972369753276     0.138692082548259    68.3015498822426     0.95743436844676     -7.73513128234968    0.95743436844676     -7.73513128234968    0.138692082548259    68.3015498822426     
3.31445401733999     0.139660139091065    68.3260865579708     0.9572592956408      -7.79222422980572    0.9572592956408      -7.79222422980572    0.139660139091065    68.3260865579708     
3.3393702459876      0.140635246064359    68.3497305157174     0.957082175199967    -7.84972697898102    0.957082175199967    -7.84972697898102    0.140635246064359    68.3497305157174     
3.36447378103523     0.141617445662587    68.3724814338618     0.956902980110412    -7.90764222924941    0.956902980110412    -7.90764222924941    0.141617445662587    68.3724814338618     
3.3897660305486      0.142606780206901    68.3943389781238     0.956721683010177    -7.9659726925436     0.956721683010177    -7.9659726925436     0.142606780206901    68.3943389781238     
3.41524841317849     0.143603292142261    68.4153028013491     0.956538256185399    -8.02472109329376    0.956538256185399    -8.02472109329376    0.143603292142261    68.4153028013491     
3.44092235824031     0.144607024034453    68.4353725433062     0.956352671566471    -8.08389016836234    0.956352671566471    -8.08389016836234    0.144607024034453    68.4353725433062     
3.46678930579429     0.145618018566992    68.4545478304916     0.956164900724198    -8.14348266697485    0.956164900724198    -8.14348266697485    0.145618018566992    68.4545478304916     
3.49285070672619     0.146636318537937    68.4728282759451     0.95597491486589     -8.20350135064794    0.95597491486589     -8.20350135064794    0.146636318537937    68.4728282759451     
3.51910802282877     0.147661966856603    68.4902134790734     0.955782684831495    -8.2639489931129     0.955782684831495    -8.2639489931129     0.147661966856603    68.4902134790734     
3.54556272688371     0.148695006540165    68.5067030254836     0.955588181089684    -8.32482838023584    0.955588181089684    -8.32482838023584    0.148695006540165    68.5067030254836     
3.57221630274426     0.149735480710168    68.5222964868266     0.955391373733924    -8.38614230993386    0.955391373733924    -8.38614230993386    0.149735480710168    68.5222964868266     
3.59907024541845     0.150783432588908    68.5369934206481     0.955192232478528    -8.44789359208713    0.955192232478528    -8.44789359208713    0.150783432588908    68.5369934206481     
3.62612606115295     0.151838905495741    68.5507933702512     0.954990726654714    -8.51008504844747    0.954990726654714    -8.51008504844747    0.151838905495741    68.5507933702512     
3.65338526751758     0.152901942843233    68.5636958645664     0.954786825206607    -8.57271951254164    0.954786825206607    -8.57271951254164    0.152901942843233    68.5636958645664     
3.68084939349038     0.153972588133243    68.5757004180324     0.954580496687287    -8.63579982957187    0.954580496687287    -8.63579982957187    0.153972588133243    68.5757004180324     
3.70851997954341     0.155050884952858    68.5868065304856     0.95437170925477     -8.69932885631079    0.95437170925477     -8.69932885631079    0.155050884952858    68.5868065304856     
3.73639857772915     0.15613687697022     68.5970136870589     0.954160430667984    -8.76330946099243    0.954160430667984    -8.76330946099243    0.15613687697022     68.5970136870589     
3.76448675176754     0.157230607930253    68.6063213580904     0.953946628282808    -8.8277445231996     0.953946628282808    -8.8277445231996     0.157230607930253    68.6063213580904     
3.79278607713372     0.158332121650236    68.6147289990418     0.953730269047984    -8.89263693374476    0.953730269047984    -8.89263693374476    0.158332121650236    68.6147289990418     
3.82129814114635     0.159441462015277    68.6222360504246     0.953511319501118    -8.95798959454807    0.953511319501118    -8.95798959454807    0.159441462015277    68.6222360504246     
3.8500245430567      0.160558672973646    68.6288419377393     0.953289745764609    -9.02380541850949    0.953289745764609    -9.02380541850949    0.160558672973646    68.6288419377393     
3.87896689413831     0.161683798531998    68.6345460714193     0.953065513541644    -9.09008732937654    0.953065513541644    -9.09008732937654    0.161683798531998    68.6345460714193     
3.90812681777738     0.162816882750445    68.639347846789      0.952838588112108    -9.15683826160708    0.952838588112108    -9.15683826160708    0.162816882750445    68.639347846789      
3.93750594956384     0.163957969737508    68.6432466440288     0.952608934328551    -9.22406116022641    0.952608934328551    -9.22406116022641    0.163957969737508    68.6432466440288     
3.96710593738307     0.165107103644934    68.6462418281505     0.9523765166121      -9.29175898067996    0.9523765166121      -9.29175898067996    0.165107103644934    68.6462418281505     
3.99692844150834     0.166264328662381    68.6483327489822     0.952141298948462    -9.35993468868071    0.952141298948462    -9.35993468868071    0.166264328662381    68.6483327489822     
4.02697513469392     0.16742968901194     68.6495187411627     0.951903244883818    -9.42859126005016    0.951903244883818    -9.42859126005016    0.16742968901194     68.6495187411627     
4.05724770226896     0.168603228942553    68.6497991241474     0.951662317520786    -9.49773168055516    0.951662317520786    -9.49773168055516    0.168603228942553    68.6497991241474     
4.08774784223193     0.169784992724255    68.6491732022207     0.951418479514367    -9.56735894573809    0.951418479514367    -9.56735894573809    0.169784992724255    68.6491732022207     
4.11847726534596     0.170975024642288    68.6476402645213     0.951171693067927    -9.63747606074216    0.951171693067927    -9.63747606074216    0.170975024642288    68.6476402645213     
4.14943769523471     0.17217336899106     68.6451995850757     0.950921919929129    -9.70808604013041    0.950921919929129    -9.70808604013041    0.17217336899106     68.6451995850757     
4.1806308684791      0.173380070067959    68.641850422842      0.950669121385951    -9.77919190769871    0.950669121385951    -9.77919190769871    0.173380070067959    68.641850422842      
4.21205853471472     0.174595172167006    68.6375920217637     0.950413258262622    -9.85079669628333    0.950413258262622    -9.85079669628333    0.174595172167006    68.6375920217637     
4.24372245672994     0.175818719572356    68.6324236108341     0.950154290915662    -9.92290344756123    0.950154290915662    -9.92290344756123    0.175818719572356    68.6324236108341     
4.27562441056477     0.17705075655165     68.6263444041689     0.949892179229879    -9.99551521184589    0.949892179229879    -9.99551521184589    0.17705075655165     68.6263444041689     
4.30776618561056     0.178291327349194    68.6193536010914     0.949626882614402    -10.0686350478747    0.949626882614402    -10.0686350478747    0.178291327349194    68.6193536010914     
4.34014958471025     0.179540476178979    68.611450386226      0.949358359998731    -10.1422660225913    0.949358359998731    -10.1422660225913    0.179540476178979    68.611450386226      
4.37277642425961     0.180798247217545    68.6026339296025     0.949086569828812    -10.2164112109211    0.949086569828812    -10.2164112109211    0.180798247217545    68.6026339296025     
4.40564853430902     0.182064684596668    68.5929033867707     0.948811470063146    -10.2910736955395    0.948811470063146    -10.2910736955395    0.182064684596668    68.5929033867707     
4.4387677586662      0.183339832395882    68.5822578989257     0.948533018168873    -10.3662565666338    0.948533018168873    -10.3662565666338    0.183339832395882    68.5822578989257     
4.47213595499958     0.184623734634825    68.5706965930423     0.948251171117959    -10.4419629216579    0.948251171117959    -10.4419629216579    0.184623734634825    68.5706965930423     
4.50575499494251     0.185916435265423    68.5582185820215     0.947965885383361    -10.5181958650804    0.947965885383361    -10.5181958650804    0.185916435265423    68.5582185820215     
4.53962676419825     0.187217978163871    68.5448229648468     0.94767711693521     -10.5949585081247    0.94767711693521     -10.5949585081247    0.187217978163871    68.5448229648468     
4.57375316264572     0.188528407122472    68.5305088267502     0.94738482123712     -10.6722539685022    0.94738482123712     -10.6722539685022    0.188528407122472    68.5305088267502     
4.60813610444609     0.189847765841256    68.5152752393901     0.947088953242408    -10.7500853701384    0.947088953242408    -10.7500853701384    0.189847765841256    68.5152752393901     
4.64277751815013     0.191176097919447    68.4991212610397     0.946789467390453    -10.8284558428908    0.946789467390453    -10.8284558428908    0.191176097919447    68.4991212610397     
4.67767934680637     0.192513446846724    68.4820459367852     0.946486317603065    -10.9073685222597    0.946486317603065    -10.9073685222597    0.192513446846724    68.4820459367852     
4.71284354807013     0.1938598559943      68.4640482987365     0.946179457280875    -10.9868265490904    0.946179457280875    -10.9868265490904    0.1938598559943      68.4640482987365     
4.74827209431328     0.195215368605809    68.4451273662463     0.945868839299839    -11.0668330692686    0.945868839299839    -11.0668330692686    0.195215368605809    68.4451273662463     
4.78396697273489     0.196580027788005    68.4252821461435     0.94555441600771     -11.1473912334066    0.94555441600771     -11.1473912334066    0.196580027788005    68.4252821461435     
4.8199301854727      0.197953876501246    68.4045116329746     0.945236139220614    -11.2285041965217    0.945236139220614    -11.2285041965217    0.197953876501246    68.4045116329746     
4.85616374971539     0.199336957549818    68.382814809258      0.94491396021972     -11.3101751177069    0.94491396021972     -11.3101751177069    0.199336957549818    68.382814809258      
4.89266969781578     0.200729313572011    68.360190645749      0.944587829747871    -11.3924071597922    0.944587829747871    -11.3924071597922    0.200729313572011    68.360190645749      
4.92945007740477     0.202130987030029    68.3366381017156     0.944257698006377    -11.4752034889976    0.944257698006377    -11.4752034889976    0.202130987030029    68.3366381017156     
4.96650695150621     0.203542020199684    68.3121561252269     0.943923514651822    -11.5585672745778    0.943923514651822    -11.5585672745778    0.203542020199684    68.3121561252269     
5.00384239865264     0.20496245515987     68.2867436534519     0.943585228792945    -11.6425016884577    0.943585228792945    -11.6425016884577    0.20496245515987     68.2867436534519     
5.04145851300184     0.206392333781852    68.2603996129697     0.943242788987644    -11.7270099048589    0.943242788987644    -11.7270099048589    0.206392333781852    68.2603996129697     
5.07935740445431     0.207831697718325    68.2331229200922     0.942896143239982    -11.8120950999174    0.942896143239982    -11.8120950999174    0.207831697718325    68.2331229200922     
5.11754119877163     0.209280588392259    68.2049124811975     0.942545238997334    -11.8977604512915    0.942545238997334    -11.8977604512915    0.209280588392259    68.2049124811975     
5.15601203769564     0.210739046985546    68.1757671930762     0.942190023147623    -11.9840091377608    0.942190023147623    -11.9840091377608    0.210739046985546    68.1757671930762     
5.19477207906866     0.212207114427412    68.1456859432884     0.941830442016581    -12.0708443388161    0.941830442016581    -12.0708443388161    0.212207114427412    68.1456859432884     
5.23382349695442     0.21368483138261     68.114667610533      0.941466441365182    -12.1582692342386    0.941466441365182    -12.1582692342386    0.21368483138261     68.114667610533      
5.27316848176009     0.215172238239401    68.0827110650296     0.94109796638712     -12.24628700367      0.94109796638712     -12.24628700367      0.215172238239401    68.0827110650296     
5.3128092403591      0.216669375097313    68.0498151689118     0.940724961706451    -12.3349008261732    0.940724961706451    -12.3349008261732    0.216669375097313    68.0498151689118     
5.35274799621493     0.218176281754653    68.0159787766326     0.940347371375222    -12.4241138797815    0.940347371375222    -12.4241138797815    0.218176281754653    68.0159787766326     
5.39298698950583     0.21969299769582     67.9812007353831     0.939965138871374    -12.5139293410395    0.939965138871374    -12.5139293410395    0.21969299769582     67.9812007353831     
5.43352847725045     0.221219562078372    67.945479885522      0.939578207096625    -12.6043503845326    0.939578207096625    -12.6043503845326    0.221219562078372    67.945479885522      
5.47437473343448     0.222756013719863    67.9088150610187     0.939186518374539    -12.6953801824059    0.939186518374539    -12.6953801824059    0.222756013719863    67.9088150610187     
5.51552804913817     0.22430239108445     67.871205089909      0.938790014448691    -12.7870219038735    0.938790014448691    -12.7870219038735    0.22430239108445     67.871205089909      
5.55699073266482     0.225858732269283    67.8326487947622     0.938388636481018    -12.8792787147168    0.938388636481018    -12.8792787147168    0.225858732269283    67.8326487947622     
5.59876510967031     0.227425074990612    67.7931449931621     0.937982325050201    -12.9721537767711    0.937982325050201    -12.9721537767711    0.227425074990612    67.7931449931621     
5.64085352329349     0.229001456569732    67.7526924982001     0.937571020150312    -13.0656502474037    0.937571020150312    -13.0656502474037    0.229001456569732    67.7526924982001     
5.68325833428762     0.230587913918604    67.7112901189818     0.937154661189484    -13.1597712789772    0.937154661189484    -13.1597712789772    0.230587913918604    67.7112901189818     
5.72598192115282     0.232184483525316    67.6689366611455     0.936733186988839    -13.2545200183061    0.936733186988839    -13.2545200183061    0.232184483525316    67.6689366611455     
5.76902668026944     0.233791201439243    67.6256309273949     0.936306535781473    -13.3498996060984    0.936306535781473    -13.3498996060984    0.233791201439243    67.6256309273949     
5.8123950260325      0.235408103256007    67.5813717180437     0.935874645211704    -13.445913176388     0.935874645211704    -13.445913176388     0.235408103256007    67.5813717180437     
5.85608939098708     0.237035224102171    67.536157831574      0.935437452334372    -13.5425638559551    0.935437452334372    -13.5425638559551    0.237035224102171    67.536157831574      
5.90011222596482     0.2386725986197      67.4899880652091     0.934994893614412    -13.6398547637341    0.934994893614412    -13.6398547637341    0.2386725986197      67.4899880652091     
5.94446600022134     0.240320260950182    67.4428612154961     0.934546904926566    -13.7377890102119    0.934546904926566    -13.7377890102119    0.240320260950182    67.4428612154961     
5.98915320157473     0.241978244718785    67.3947760789067     0.934093421555221    -13.8363696968115    0.934093421555221    -13.8363696968115    0.241978244718785    67.3947760789067     
6.03417633654516     0.243646583018003    67.3457314524472     0.93363437819456     -13.9355999152666    0.93363437819456     -13.9355999152666    0.243646583018003    67.3457314524472     
6.07953793049541     0.245325308391119    67.2957261342846     0.933169708948771    -14.0354827469818    0.933169708948771    -14.0354827469818    0.245325308391119    67.2957261342846     
6.12524052777254     0.24701445281546     67.2447589243851     0.932699347332573    -14.1360212623824    0.932699347332573    -14.1360212623824    0.24701445281546     67.2447589243851     
6.17128669185058     0.248714047685373    67.192828625167      0.932223226271867    -14.2372185202507    0.932223226271867    -14.2372185202507    0.248714047685373    67.192828625167      
6.21767900547438     0.250424123794984    67.1399340421667     0.931741278104651    -14.339077567051     0.931741278104651    -14.339077567051     0.250424123794984    67.1399340421667     
6.2644200708044      0.252144711320693    67.0860739847188     0.931253434582115    -14.4416014362413    0.931253434582115    -14.4416014362413    0.252144711320693    67.0860739847188     
6.31151250956272     0.253875839803431    67.0312472666499     0.93075962686999     -14.5447931475732    0.93075962686999     -14.5447931475732    0.253875839803431    67.0312472666499     
6.35895896318005     0.255617538130686    66.9754527069865     0.930259785550136    -14.6486557063793    0.930259785550136    -14.6486557063793    0.255617538130686    66.9754527069865     
6.40676209294394     0.25736983451826     66.9186891306768     0.929753840622329    -14.7531921028467    0.929753840622329    -14.7531921028467    0.25736983451826     66.9186891306768     
6.45492458014801     0.259132756491806    66.8609553693259     0.92924172150634     -14.8584053112795    0.92924172150634     -14.8584053112795    0.259132756491806    66.8609553693259     
6.50344912624237     0.26090633086811     66.8022502619459     0.92872335704421     -14.964298289347     0.92872335704421     -14.964298289347     0.26090633086811     66.8022502619459     
6.55233845298511     0.262690583736151    66.7425726557197     0.928198675502882    -15.0708739773203    0.928198675502882    -15.0708739773203    0.262690583736151    66.7425726557197     
6.60159530259503     0.264485540437901    66.6819214067781     0.927667604576962    -15.1781352972949    0.927667604576962    -15.1781352972949    0.264485540437901    66.6819214067781     
6.65122243790537     0.266291225548901    66.6202953809932     0.927130071391882    -15.2860851524008    0.927130071391882    -15.2860851524008    0.266291225548901    66.6202953809932     
6.70122264251884     0.268107662858609    66.5576934547823     0.926586002507276    -15.3947264260003    0.926586002507276    -15.3947264260003    0.268107662858609    66.5576934547823     
6.75159872096374     0.269934875350497    66.4941145159305     0.926035323920642    -15.5040619808706    0.926035323920642    -15.5040619808706    0.269934875350497    66.4941145159305     
6.80235349885125     0.271772885181927    66.429557464424      0.925477961071309    -15.6140946583753    0.925477961071309    -15.6140946583753    0.271772885181927    66.429557464424      
6.85348982303391     0.273621713663808    66.3640212132981     0.924913838844724    -15.7248272776222    0.924913838844724    -15.7248272776222    0.273621713663808    66.3640212132981     
6.90501056176536     0.275481381240017    66.2975046895013     0.924342881577049    -15.8362626346078    0.924342881577049    -15.8362626346078    0.275481381240017    66.2975046895013     
6.95691860486115     0.277351907466605    66.230006834771      0.923765013060009    -15.9484035013482    0.923765013060009    -15.9484035013482    0.277351907466605    66.230006834771      
7.00921686386087     0.279233310990767    66.1615266065254     0.923180156546159    -16.061252624997     0.923180156546159    -16.061252624997     0.279233310990767    66.1615266065254     
7.06190827219147     0.281125609529635    66.0920629787687     0.922588234754422    -16.1748127269508    0.922588234754422    -16.1748127269508    0.281125609529635    66.0920629787687     
7.11499578533174     0.283028819848812    66.0216149430104     0.921989169875954    -16.2890865019402    0.921989169875954    -16.2890865019402    0.283028819848812    66.0216149430104     
7.16848238097815     0.284942957740738    65.950181509198      0.921382883580436    -16.4040766171085    0.921382883580436    -16.4040766171085    0.284942957740738    65.950181509198      
7.22237105921184     0.286868038002828    65.8777617066661     0.920769297022595    -16.519785711076     0.920769297022595    -16.519785711076     0.286868038002828    65.8777617066661     
7.2766648426669      0.288804074415432    65.8043545850966     0.920148330849239    -16.6362163929936    0.920148330849239    -16.6362163929936    0.288804074415432    65.8043545850966     
7.33136677669988     0.290751079719578    65.7299592154945     0.919519905206488    -16.7533712415799    0.919519905206488    -16.7533712415799    0.290751079719578    65.7299592154945     
7.38647992956068     0.292709065594552    65.6545746911778     0.918883939747554    -16.871252804148     0.918883939747554    -16.871252804148     0.292709065594552    65.6545746911778     
7.44200739256456     0.294678042635276    65.5782001287795     0.918240353640759    -16.9898635956177    0.918240353640759    -16.9898635956177    0.294678042635276    65.5782001287795     
7.49795228026559     0.296658020329515    65.500834669266      0.917589065578052    -17.1092060975154    0.917589065578052    -17.1092060975154    0.296658020329515    65.500834669266      
7.55431773063135     0.298649007034924    65.4224774789664     0.91692999378387     -17.2292827569607    0.91692999378387     -17.2292827569607    0.298649007034924    65.4224774789664     
7.61110690521889     0.300651009955905    65.3431277506175     0.916263056024388    -17.3500959856399    0.916263056024388    -17.3500959856399    0.300651009955905    65.3431277506175     
7.66832298935211     0.302664035120336    65.2627847044203     0.915588169617264    -17.471648158768     0.915588169617264    -17.471648158768     0.302664035120336    65.2627847044203     
7.72596919230042     0.304688087356137    65.1814475891116     0.91490525144173     -17.5939416140366    0.91490525144173     -17.5939416140366    0.304688087356137    65.1814475891116     
7.78404874745872     0.306723170267668    65.0991156830485     0.914214217949125    -17.7169786505493    0.914214217949125    -17.7169786505493    0.306723170267668    65.0991156830485     
7.84256491252878     0.308769286212053    65.0157882953036     0.913514985173904    -17.8407615277463    0.913514985173904    -17.8407615277463    0.308769286212053    65.0157882953036     
7.90152096970199     0.310826436275307    64.9314647667771     0.91280746874505     -17.9652924643151    0.91280746874505     -17.9652924643151    0.310826436275307    64.9314647667771     
7.96092022584342     0.312894620248389    64.8461444713181     0.912091583897956    -18.0905736370888    0.912091583897956    -18.0905736370888    0.312894620248389    64.8461444713181     
8.02076601267732     0.314973836603137    64.7598268168599     0.911367245486774    -18.2166071799345    0.911367245486774    -18.2166071799345    0.314973836603137    64.7598268168599     
8.081061686974       0.317064082468085    64.6725112465689     0.910634367997182    -18.3433951826271    0.910634367997182    -18.3433951826271    0.317064082468085    64.6725112465689     
8.14181063073809     0.319165353604218    64.584197240002      0.909892865559727    -18.4709396897141    0.909892865559727    -18.4709396897141    0.319165353604218    64.584197240002      
8.20301625139829     0.321277644380621    64.4948843142807     0.909142651963522    -18.5992426993672    0.909142651963522    -18.5992426993672    0.321277644380621    64.4948843142807     
8.26468198199845     0.32340094775006     64.4045720252731     0.908383640670505    -18.7283061622227    0.908383640670505    -18.7283061622227    0.32340094775006     64.4045720252731     
8.32681128139012     0.32553525522452     64.3132599687893     0.907615744830196    -18.8581319802122    0.907615744830196    -18.8581319802122    0.32553525522452     64.3132599687893     
8.3894076344266      0.327680556850686    64.2209477817874     0.906838877294928    -18.9887220053812    0.906838877294928    -18.9887220053812    0.327680556850686    64.2209477817874     
8.45247455215839     0.329836841185374    64.1276351435909     0.906052950635566    -19.1200780386979    0.906052950635566    -19.1200780386979    0.329836841185374    64.1276351435909     
8.5160155720301      0.332004095270949    64.0333217771159     0.905257877157802    -19.252201828851     0.905257877157802    -19.252201828851     0.332004095270949    64.0333217771159     
8.58003425807891     0.334182304610742    63.9380074501103     0.904453568918908    -19.3850950710389    0.904453568918908    -19.3850950710389    0.334182304610742    63.9380074501103     
8.64453420113444     0.336371453144435    63.8416919764012     0.903639937745034    -19.518759405747     0.903639937745034    -19.518759405747     0.336371453144435    63.8416919764012     
8.70951901902019     0.338571523223494    63.7443752171534     0.902816895249063    -19.6531964175183    0.902816895249063    -19.6531964175183    0.338571523223494    63.7443752171534     
8.77499235675645     0.340782495586605    63.6460570821369     0.90198435284895     -19.7884076337127    0.90198435284895     -19.7884076337127    0.340782495586605    63.6460570821369     
8.84095788676474     0.34300434933516     63.5467375310033     0.90114222178665     -19.9243945232585    0.90114222178665     -19.9243945232585    0.34300434933516     63.5467375310033     
8.90741930907384     0.345237061908797    63.4464165745714     0.900290413147564    -20.0611584953959    0.900290413147564    -20.0611584953959    0.345237061908797    63.4464165745714     
8.97438035152726     0.347480609061008    63.3450942761203     0.899428837880526    -20.1987008984111    0.899428837880526    -20.1987008984111    0.347480609061008    63.3450942761203     
9.04184476999239     0.349734964834843    63.2427707526912     0.89855740681841     -20.3370230183654    0.89855740681841     -20.3370230183654    0.349734964834843    63.2427707526912     
9.10981634857115     0.352000101538699    63.1394461763965     0.897676030699208    -20.476126077814     0.897676030699208    -20.476126077814     0.352000101538699    63.1394461763965     
9.17829889981224     0.354275989722237    63.0351207757354     0.89678462018772     -20.6160112345198    0.89678462018772     -20.6160112345198    0.354275989722237    63.0351207757354     
9.24729626492498     0.356562598152436    62.9297948369167     0.895883085897822    -20.7566795801616    0.895883085897822    -20.7566795801616    0.356562598152436    62.9297948369167     
9.3168123139948      0.358859893789778    62.8234687051883     0.894971338415258    -20.898132139034     0.894971338415258    -20.898132139034     0.358859893789778    62.8234687051883     
9.38685094620025     0.361167841764637    62.7161427861701     0.894049288321057    -21.0403698667444    0.894049288321057    -21.0403698667444    0.361167841764637    62.7161427861701     
9.45741609003176     0.363486405353818    62.6078175471947     0.893116846215492    -21.1833936489034    0.893116846215492    -21.1833936489034    0.363486405353818    62.6078175471947     
9.52851170351199     0.365815545957311    62.4984935186517     0.892173922742603    -21.3272042998115    0.892173922742603    -21.3272042998115    0.365815545957311    62.4984935186517     
9.60014177441781     0.368155223075296    62.3881712953342     0.891220428615369    -21.4718025611426    0.891220428615369    -21.4718025611426    0.368155223075296    62.3881712953342     
9.67231032050396     0.37050539428534     62.2768515377927     0.890256274641369    -21.6171891006224    0.890256274641369    -21.6171891006224    0.37050539428534     62.2768515377927     
9.74502138972849     0.372866015219896    62.1645349736888     0.889281371749074    -21.7633645107055    0.889281371749074    -21.7633645107055    0.372866015219896    62.1645349736888     
9.81827906047969     0.375237039544072    62.0512223991513     0.888295631014735    -21.910329307251     0.888295631014735    -21.910329307251     0.375237039544072    62.0512223991513     
9.89208744180497     0.377618418933691    61.9369146801365     0.887298963689813    -22.0580839281935    0.887298963689813    -22.0580839281935    0.377618418933691    61.9369146801365     
9.96645067364125     0.380010103053682    61.821612753787      0.886291281229019    -22.2066287322169    0.886291281229019    -22.2066287322169    0.380010103053682    61.821612753787      
10.0413729270472     0.382412039536821    61.7053176297917     0.885272495318905    -22.3559639974257    0.885272495318905    -22.3559639974257    0.382412039536821    61.7053176297917     
10.1168584044372     0.384824173962818    61.5880303917469     0.884242517907082    -22.5060899200166    0.884242517907082    -22.5060899200166    0.384824173962818    61.5880303917469     
10.1929113398172     0.387246449837815    61.4697521985138     0.883201261231965    -22.6570066129531    0.883201261231965    -22.6570066129531    0.387246449837815    61.4697521985138     
10.2695359990217     0.389678808574256    61.3504842855777     0.882148637853094    -22.8087141046384    0.882148637853094    -22.8087141046384    0.389678808574256    61.3504842855777     
10.3467366799537     0.392121189471233    61.2302279664014     0.881084560682088    -22.9612123375951    0.881084560682088    -22.9612123375951    0.392121189471233    61.2302279664014     
10.4245177128253     0.394573529695248    61.1089846337778     0.880008943014084    -23.1145011671441    0.880008943014084    -23.1145011671441    0.394573529695248    61.1089846337778     
10.5028834604009     0.397035764261457    60.9867557611792     0.878921698559776    -23.2685803600898    0.878921698559776    -23.2685803600898    0.397035764261457    60.9867557611792     
10.5818383182416     0.399507826015435    60.8635429040985     0.87782274147802     -23.4234495934094    0.87782274147802     -23.4234495934094    0.399507826015435    60.8635429040985     
10.6613867149519     0.401989645615448    60.7393477013886     0.876711986408995    -23.5791084529483    0.876711986408995    -23.5791084529483    0.401989645615448    60.7393477013886     
10.7415331124281     0.40448115151526     60.614171876594      0.875589348507866    -23.7355564321202    0.875589348507866    -23.7355564321202    0.40448115151526     60.614171876594      
10.8222820061086     0.40698226994752     60.4880172392761     0.874454743479014    -23.8927929306152    0.874454743479014    -23.8927929306152    0.40698226994752     60.4880172392761     
10.903637925226      0.409492924907766    60.3608856863281     0.873308087610835    -24.0508172531177    0.873308087610835    -24.0508172531177    0.409492924907766    60.3608856863281     
10.9856054330612     0.412013038139008    60.2327792032852     0.872149297810978    -24.2096286080296    0.872149297810978    -24.2096286080296    0.412013038139008    60.2327792032852     
11.0681891271992     0.41454252911698     60.1036998656206     0.870978291642177    -24.3692261062064    0.870978291642177    -24.3692261062064    0.41454252911698     60.1036998656206     
11.1513936397873     0.417081315036054    59.9736498400353     0.869794987358528    -24.5296087597019    0.869794987358528    -24.5296087597019    0.417081315036054    59.9736498400353     
11.2352236377944     0.419629310795845    59.8426313857321     0.868599303942302    -24.6907754805256    0.868599303942302    -24.6907754805256    0.419629310795845    59.8426313857321     
11.3196838232735     0.422186428988538    59.7106468556812     0.867391161141215    -24.852725079412     0.867391161141215    -24.852725079412     0.422186428988538    59.7106468556812     
11.4047789336246     0.424752579886938    59.5776986978696     0.866170479506157    -25.0154562646023    0.866170479506157    -25.0154562646023    0.424752579886938    59.5776986978696     
11.4905137418612     0.427327671433332    59.4437894565368     0.864937180429437    -25.1789676406435    0.864937180429437    -25.1789676406435    0.427327671433332    59.4437894565368     
11.5768930568774     0.429911609229097    59.3089217733958     0.86369118618339     -25.3432577071996    0.86369118618339     -25.3432577071996    0.429911609229097    59.3089217733958     
11.6639217237182     0.43250429652515     59.1730983888372     0.862432419959492    -25.5083248578803    0.862432419959492    -25.5083248578803    0.43250429652515     59.1730983888372     
11.7516046238506     0.435105634213227    59.0363221431165     0.861160805907821    -25.6741673790871    0.861160805907821    -25.6741673790871    0.435105634213227    59.0363221431165     
11.8399466754381     0.437715520818056    58.8985959775225     0.859876269176971    -25.8407834488779    0.859876269176971    -25.8407834488779    0.437715520818056    58.8985959775225     
11.928952833616      0.440333852490394    58.7599229355262     0.858578735954318    -26.0081711358507    0.858578735954318    -26.0081711358507    0.440333852490394    58.7599229355262     
12.0186280907696     0.442960523000996    58.6203061639101     0.857268133506664    -26.1763283980472    0.857268133506664    -26.1763283980472    0.442960523000996    58.6203061639101     
12.1089774768144     0.445595423735519    58.4797489138759     0.855944390221216    -26.345253081878     0.855944390221216    -26.345253081878     0.445595423735519    58.4797489138759     
12.2000060594776     0.448238443690408    58.3382545421281     0.854607435646903    -26.5149429210715    0.854607435646903    -26.5149429210715    0.448238443690408    58.3382545421281     
12.2917189445833     0.450889469469748    58.1958265119371     0.853257200535992    -26.6853955356438    0.853257200535992    -26.6853955356438    0.450889469469748    58.1958265119371     
12.3841212763378     0.453548385283161    58.0524683941738     0.851893616886008    -26.856608430896     0.851893616886008    -26.856608430896     0.453548385283161    58.0524683941738     
12.4772182376191     0.456215072944707    57.9081838683222     0.85051661798187     -27.0285789964346    0.85051661798187     -27.0285789964346    0.456215072944707    57.9081838683222     
12.571015050267      0.458889411872883    57.7629767234627     0.849126138438358    -27.2013045052208    0.849126138438358    -27.2013045052208    0.458889411872883    57.7629767234627     
12.6655169753763     0.461571279091679    57.6168508592278     0.847722114242692    -27.3747821126462    0.847722114242692    -27.3747821126462    0.461571279091679    57.6168508592278     
12.7607293135918     0.464260549232761    57.4698102867297     0.846304482797392    -27.549008855638     0.846304482797392    -27.549008855638     0.464260549232761    57.4698102867297     
12.8566574054055     0.466957094538764    57.3218591294571     0.844873182963276    -27.7239816517941    0.844873182963276    -27.7239816517941    0.466957094538764    57.3218591294571     
12.9533066314564     0.469660784867752    57.1730016241411     0.843428155102567    -27.8996972985492    0.843428155102567    -27.8996972985492    0.469660784867752    57.1730016241411     
13.050682412832      0.472371487698846    57.0232421215884     0.841969341122195    -28.0761524723734    0.841969341122195    -28.0761524723734    0.472371487698846    57.0232421215884     
13.1487902113726     0.475089068139053    56.8725850874803     0.840496684517113    -28.2533437280044    0.840496684517113    -28.2533437280044    0.475089068139053    56.8725850874803     
13.2476355299778     0.477813388931275    56.7210351031402     0.839010130413723    -28.4312674977122    0.839010130413723    -28.4312674977122    0.477813388931275    56.7210351031402     
13.3472239129145     0.480544310463613    56.5685968662605     0.837509625613327    -28.6099200906036    0.837509625613327    -28.6099200906036    0.480544310463613    56.5685968662605     
13.4475609461288     0.483281690779842    56.4152751915984     0.835995118635542    -28.7892976919569    0.835995118635542    -28.7892976919569    0.483281690779842    56.4152751915984     
13.5486522575585     0.486025385591239    56.2610750116282     0.834466559761766    -28.9693963626017    0.834466559761766    -28.9693963626017    0.486025385591239    56.2610750116282     
13.6505035174493     0.48877524828962     56.1060013771597     0.832923901078498    -29.1502120383305    0.832923901078498    -29.1502120383305    0.48877524828962     56.1060013771597     
13.7531204386726     0.491531129961743    55.9500594579125     0.831367096520626    -29.3317405293556    0.831367096520626    -29.3317405293556    0.491531129961743    55.9500594579125     
13.8565087770461     0.494292879404975    55.7932545430531     0.829796101914579    -29.513977519803     0.829796101914579    -29.513977519803     0.494292879404975    55.7932545430531     
13.9606743316564     0.497060343144342    55.6355920416858     0.828210875021316    -29.6969185672514    0.828210875021316    -29.6969185672514    0.497060343144342    55.6355920416858     
14.0656229451845     0.499833365450902    55.4770774833024     0.826611375579117    -29.8805591023126    0.826611375579117    -29.8805591023126    0.499833365450902    55.4770774833024     
14.1713605042333     0.502611788361442    55.3177165181901     0.82499756534617     -30.0648944282543    0.82499756534617     -30.0648944282543    0.502611788361442    55.3177165181901     
14.2778929396583     0.505395451699626    55.1575149177888     0.823369408142888    -30.2499197206722    0.823369408142888    -30.2499197206722    0.505395451699626    55.1575149177888     
14.3852262268994     0.508184193098458    54.9964785750061     0.821726869893936    -30.4356300272048    0.821726869893936    -30.4356300272048    0.508184193098458    54.9964785750061     
14.4933663863168     0.510977848024154    54.8346135044846     0.820069918669901    -30.6220202672958    0.820069918669901    -30.6220202672958    0.510977848024154    54.8346135044846     
14.6023194835286     0.51377624980142     54.6719258428195     0.818398524728628    -30.8090852320051    0.818398524728628    -30.8090852320051    0.51377624980142     54.6719258428195     
14.7120916297504     0.516579229640147    54.5084218487283     0.81671266055614     -30.9968195838692    0.81671266055614     -30.9968195838692    0.516579229640147    54.5084218487283     
14.822688982139      0.519386616663491    54.3441079031699     0.815012300907087    -31.1852178568099    0.815012300907087    -31.1852178568099    0.519386616663491    54.3441079031699     
14.9341177441369     0.522198237937389    54.1789905094127     0.813297422844769    -31.3742744560954    0.813297422844769    -31.3742744560954    0.522198237937389    54.1789905094127     
15.046384165821      0.525013918501509    54.0130762930507     0.811568005780566    -31.5639836583526    0.811568005780566    -31.5639836583526    0.525013918501509    54.0130762930507     
15.1594945442526     0.527833481401576    53.8463720019684     0.809824031512892    -31.7543396116301    0.809824031512892    -31.7543396116301    0.527833481401576    53.8463720019684     
15.2734552238308     0.530656747723189    53.6788845062493     0.808065484265472    -31.9453363355178    0.808065484265472    -31.9453363355178    0.530656747723189    53.6788845062493     
15.3882725966485     0.533483536627015    53.5106207980321     0.806292350725038    -32.1369677213183    0.806292350725038    -32.1369677213183    0.533483536627015    53.5106207980321     
15.5039531028507     0.536313665385402    53.3415879913123     0.804504620078328    -32.3292275322725    0.804504620078328    -32.3292275322725    0.536313665385402    53.3415879913123     
15.6205032309959     0.539146949420461    53.1717933216853     0.802702284048358    -32.5221094038443    0.802702284048358    -32.5221094038443    0.539146949420461    53.1717933216853     
15.73792951842       0.541983202343496    53.0012441460367     0.800885336929962    -32.7156068440566    0.800885336929962    -32.7156068440566    0.541983202343496    53.0012441460367     
15.856238551603      0.544822235995889    52.8299479421718     0.799053775624521    -32.9097132338887    0.799053775624521    -32.9097132338887    0.544822235995889    52.8299479421718     
15.9754369665383     0.547663860491376    52.6579123083895     0.797207599673866    -33.1044218277284    0.797207599673866    -33.1044218277284    0.547663860491376    52.6579123083895     
16.095531449105      0.550507884259682    52.4851449629988     0.795346811293278    -33.2997257538828    0.795346811293278    -33.2997257538828    0.550507884259682    52.4851449629988     
16.2165287354431     0.553354114091598    52.311653743772      0.793471415403641    -33.4956180151492    0.793471415403641    -33.4956180151492    0.553354114091598    52.311653743772      
16.3384356123311     0.55620235518536     52.1374466073435     0.791581419662538    -33.6920914894429    0.791581419662538    -33.6920914894429    0.55620235518536     52.1374466073435     
16.4612589175667     0.55905241119442     51.9625316285465     0.789676834494467    -33.889138930486     0.789676834494467    -33.889138930486     0.55905241119442     51.9625316285465     
16.5850055403504     0.561904084276552    51.7869169996883     0.787757673119954    -34.0867529685557    0.787757673119954    -34.0867529685557    0.561904084276552    51.7869169996883     
16.7096824216718     0.56475717514426     51.6106110297676     0.785823951583592    -34.2849261112933    0.785823951583592    -34.2849261112933    0.56475717514426     51.6106110297676     
16.8352965546992     0.567611483116509    51.433622143629      0.783875688781024    -34.483650744573     0.783875688781024    -34.483650744573     0.567611483116509    51.433622143629      
16.9618549851715     0.570466806171718    51.255958881056      0.78191290648474     -34.6829191334327    0.78191290648474     -34.6829191334327    0.570466806171718    51.255958881056      
17.0893648117937     0.573322941002028    51.0776298958051     0.779935629368691    -34.8827234230649    0.779935629368691    -34.8827234230649    0.573322941002028    51.0776298958051     
17.2178331866347     0.576179683068807    50.898643954574      0.777943885031714    -35.0830556398704    0.777943885031714    -35.0830556398704    0.576179683068807    50.898643954574      
17.347267315529      0.579036826659336    50.7190099359129     0.775937704019669    -35.2839076925709    0.775937704019669    -35.2839076925709    0.579036826659336    50.7190099359129     
17.4776744584803     0.58189416494472     50.5387368290701     0.773917119846299    -35.4852713733856    0.773917119846299    -35.4852713733856    0.58189416494472     50.5387368290701     
17.6090619300692     0.584751490038925    50.3578337327781     0.771882169012769    -35.6871383592683    0.771882169012769    -35.6871383592683    0.584751490038925    50.3578337327781     
17.7414370998632     0.587608593058942    50.176309853977      0.769832891025844    -35.8895002132049    0.769832891025844    -35.8895002132049    0.587608593058942    50.176309853977      
17.8748073928299     0.590465264186052    49.9941745064768     0.767769328414668    -36.0923483855736    0.767769328414668    -36.0923483855736    0.590465264186052    49.9941745064768     
18.009180289754      0.593321292728162    49.8114371095567     0.765691526746147    -36.2956742155665    0.765691526746147    -36.2956742155665    0.593321292728162    49.8114371095567     
18.1445633276564     0.59617646718312     49.6281071865061     0.763599534638822    -36.4994689326698    0.763599534638822    -36.4994689326698    0.59617646718312     49.6281071865061     
18.2809641002174     0.599030575303074    49.4441943631006     0.761493403775327    -36.7037236582078    0.761493403775327    -36.7037236582078    0.599030575303074    49.4441943631006     
18.418390258202      0.601883404159749    49.2597083660213     0.759373188913312    -36.9084294069447    0.759373188913312    -36.9084294069447    0.601883404159749    49.2597083660213     
18.5568495098897     0.604734740210641    49.0746590212103     0.757238947894761    -37.1135770887479    0.757238947894761    -37.1135770887479    0.604734740210641    49.0746590212103     
18.6963496215065     0.607584369366072    48.8890562521692     0.755090741653886    -37.3191575103095    0.755090741653886    -37.3191575103095    0.607584369366072    48.8890562521692     
18.8368984176606     0.610432077057102    48.7029100781961     0.752928634223272    -37.5251613769282    0.752928634223272    -37.5251613769282    0.610432077057102    48.7029100781961     
18.9785037817811     0.61327764830418     48.516230612566      0.75075269273852     -37.7315792943477    0.75075269273852     -37.7315792943477    0.61327764830418     48.516230612566      
19.1211736565606     0.616120867786591    48.329028060649      0.748562987441215    -37.9384017706556    0.748562987441215    -37.9384017706556    0.616120867786591    48.329028060649      
19.2649160444004     0.618961519912535    48.141312717977      0.746359591680235    -38.145619218236     0.746359591680235    -38.145619218236     0.618961519912535    48.141312717977      
19.4097390078592     0.621799388889895    47.9530949682484     0.744142581911385    -38.3532219557812    0.744142581911385    -38.3532219557812    0.621799388889895    47.9530949682484     
19.5556506701059     0.624634258797588    47.7643852812793     0.741912037695338    -38.5612002103575    0.741912037695338    -38.5612002103575    0.624634258797588    47.7643852812793     
19.7026592153746     0.62746591365748     47.5751942108982     0.739668041693872    -38.7695441195271    0.739668041693872    -38.7695441195271    0.62746591365748     47.5751942108982     
19.850772889424      0.630294137506745    47.3855323927893     0.737410679664392    -38.9782437335207    0.737410679664392    -38.9782437335207    0.630294137506745    47.3855323927893     
20                   0.633118714470744    47.1954105422791     0.735140040452682    -39.1872890174662    0.735140040452682    -39.1872890174662    0.633118714470744    47.1954105422791     
20.1503489173014     0.63593942883623     47.0048394520735     0.732856215983942    -39.3966698536673    0.732856215983942    -39.3966698536673    0.63593942883623     47.0048394520735     
20.3018280744494     0.638756065124939    46.8138299899421     0.73055930125205     -39.6063760439334    0.73055930125205     -39.6063760439334    0.638756065124939    46.8138299899421     
20.454445967961      0.641568408167438    46.6223930963536     0.72824939430706     -39.8163973119583    0.72824939430706     -39.8163973119583    0.641568408167438    46.6223930963536     
20.6082111582251     0.644376243177206    46.4305397820621     0.725926596240942    -40.0267233057471    0.725926596240942    -40.0267233057471    0.644376243177206    46.4305397820621     
20.7631322699829     0.647179355824898    46.2382811256461     0.723591011171529    -40.2373436000917    0.723591011171529    -40.2373436000917    0.647179355824898    46.2382811256461     
20.9192179928117     0.649977532312705    46.0456282710013     0.721242746224691    -40.4482476990888    0.721242746224691    -40.4482476990888    0.649977532312705    46.0456282710013     
21.0764770816122     0.65277055944881     45.852592424788      0.71888191151475     -40.659425038706     0.71888191151475     -40.659425038706     0.65277055944881     45.852592424788      
21.2349183570996     0.6555582247218      45.6591848538361     0.716508620123097    -40.8708649893879    0.716508620123097    -40.8708649893879    0.6555582247218      45.6591848538361     
21.3945507062982     0.658340316375052    45.4654168825079     0.714122988075048    -41.0825568587041    0.714122988075048    -41.0825568587041    0.658340316375052    45.4654168825079     
21.5553830830402     0.66111662348099     45.2712998900202     0.711725134314919    -41.2944898940379    0.711725134314919    -41.2944898940379    0.66111662348099     45.2712998900202     
21.7174245084678     0.663886936015188    45.0768453077271     0.709315180679373    -41.5066532853133    0.709315180679373    -41.5066532853133    0.663886936015188    45.0768453077271     
21.8806840715389     0.666651044930211    44.882064616367      0.70689325186899     -41.7190361677576    0.70689325186899     -41.7190361677576    0.666651044930211    44.882064616367      
22.0451709295373     0.669408742229182    44.6869693432732     0.704459475418093    -41.9316276246989    0.704459475418093    -41.9316276246989    0.669408742229182    44.6869693432732     
22.2108943085863     0.672159821039018    44.4915710595489     0.702013981662889    -42.1444166904002    0.702013981662889    -42.1444166904002    0.672159821039018    44.4915710595489     
22.3778635041658     0.674904075683208    44.2958813772144     0.699556903707844    -42.3573923529194    0.699556903707844    -42.3573923529194    0.674904075683208    44.2958813772144     
22.5460878816342     0.67764130175418     44.0999119463185     0.697088377390414    -42.5705435570049    0.697088377390414    -42.5705435570049    0.67764130175418     44.0999119463185     
22.7155768767535     0.680371296185089    43.9036744520263     0.694608541244088    -42.7838592070141    0.694608541244088    -42.7838592070141    0.680371296185089    43.9036744520263     
22.8863399962182     0.683093857321082    43.7071806116756     0.692117536459744    -42.9973281698627    0.692117536459744    -42.9973281698627    0.683093857321082    43.7071806116756     
23.0583868181893     0.685808784989873    43.5104421718115     0.689615506845431    -43.2109392779957    0.689615506845431    -43.2109392779957    0.685808784989873    43.5104421718115     
23.2317269928309     0.688515880571608    43.3134709051994     0.687102598784517    -43.4246813323781    0.687102598784517    -43.4246813323781    0.688515880571608    43.3134709051994     
23.4063702428515     0.691214947068061    43.1162786078106     0.684578961192241    -43.638543105514     0.684578961192241    -43.638543105514     0.691214947068061    43.1162786078106     
23.5823263640498     0.693905789170912    42.9188770957963     0.682044745470752    -43.8525133444746    0.682044745470752    -43.8525133444746    0.693905789170912    42.9188770957963     
23.7596052258639     0.696588213329235    42.7212782024393     0.67950010546259     -44.06658077395      0.67950010546259     -44.06658077395      0.696588213329235    42.7212782024393     
23.9382167719247     0.699262027816025    42.5234937750932     0.676945197402732    -44.2807340993106    0.676945197402732    -44.2807340993106    0.699262027816025    42.5234937750932     
24.1181710206139     0.701927042793782    42.3255356721075     0.674380179869092    -44.4949620096847    0.674380179869092    -44.4949620096847    0.701927042793782    42.3255356721075     
24.2994780656259     0.704583070379051    42.1274157597402     0.671805213731721    -44.7092531810435    0.671805213731721    -44.7092531810435    0.704583070379051    42.1274157597402     
24.4821480765336     0.707229924705875    41.9291459090654     0.669220462100516    -44.9235962792959    0.669220462100516    -44.9235962792959    0.707229924705875    41.9291459090654     
24.6661912993595     0.709867421988147    41.7307379928695     0.666626090271643    -45.137979963389     0.666626090271643    -45.137979963389     0.709867421988147    41.7307379928695     
24.8516180571498     0.71249538058078     41.5322038825442     0.664022265672645    -45.3523928884138    0.664022265672645    -45.3523928884138    0.71249538058078     41.5322038825442     
25.0384387505538     0.715113621039624    41.3335554449779     0.66140915780628     -45.5668237087109    0.66140915780628     -45.5668237087109    0.715113621039624    41.3335554449779     
25.2266638584069     0.717721966180145    41.1348045394445     0.658786938193145    -45.781261080978     0.658786938193145    -45.781261080978     0.717721966180145    41.1348045394445     
25.4163039383187     0.720320241134785    40.935963014494      0.6561557803131      -45.9956936673751    0.6561557803131      -45.9956936673751    0.720320241134785    40.935963014494      
25.6073696272651     0.722908273408944    40.7370427048463     0.653515859545617    -46.2101101386249    0.653515859545617    -46.2101101386249    0.722908273408944    40.7370427048463     
25.7998716421848     0.725485892935576    40.5380554282914     0.650867353108978    -46.4244991771068    0.650867353108978    -46.4244991771068    0.725485892935576    40.5380554282914     
25.9938207805806     0.728052932128322    40.3390129825967     0.648210439998487    -46.6388494799421    0.648210439998487    -46.6388494799421    0.728052932128322    40.3390129825967     
26.1892279211249     0.730609225933204    40.1399271424223     0.645545300923659    -46.8531497620715    0.645545300923659    -46.8531497620715    0.730609225933204    40.1399271424223     
26.3861040242699     0.733154611878766    39.9408096562486     0.642872118244495    -47.0673887593176    0.642872118244495    -47.0673887593176    0.733154611878766    39.9408096562486     
26.5844601328624     0.735688930124651    39.7416722433208     0.64019107590685     -47.2815552314317    0.64019107590685     -47.2815552314317    0.735688930124651    39.7416722433208     
26.7843073727632     0.738212023508636    39.542526590603      0.637502359377007    -47.4956379651279    0.637502359377007    -47.4956379651279    0.738212023508636    39.542526590603      
26.9856569534713     0.740723737592003    39.343384349755      0.634806155575397    -47.7096257770955    0.634806155575397    -47.7096257770955    0.740723737592003    39.343384349755      
27.1885201687523     0.743223920703286    39.1442571341254     0.632102652809666    -47.9235075169922    0.632102652809666    -47.9235075169922    0.743223920703286    39.1442571341254     
27.3929083972722     0.745712423980326    38.9451565157692     0.629392040707002    -48.1372720704134    0.629392040707002    -48.1372720704134    0.745712423980326    38.9451565157692     
27.5988331032354     0.748189101410635    38.7460940224851     0.626674510145896    -48.3509083618399    0.626674510145896    -48.3509083618399    0.748189101410635    38.7460940224851     
27.806305837028      0.75065380987002     38.5470811348817     0.62395025318729     -48.5644053575561    0.62395025318729     -48.5644053575561    0.75065380987002     38.5470811348817     
28.0153382358654     0.75310640915947     38.3481292834679     0.621219463005238    -48.7777520685417    0.621219463005238    -48.7777520685417    0.75310640915947     38.3481292834679     
28.225942024445      0.755546762040242    38.1492498457754     0.618482333817119    -48.9909375533327    0.618482333817119    -48.9909375533327    0.755546762040242    38.1492498457754     
28.4381290156043     0.757974734267202    37.9504541435088     0.615739060813428    -49.2039509208507    0.615739060813428    -49.2039509208507    0.757974734267202    37.9504541435088     
28.651911110983      0.760390194620333    37.7517534397288     0.612989840087228    -49.4167813331999    0.612989840087228    -49.4167813331999    0.760390194620333    37.7517534397288     
28.8673003016905     0.762793014934392    37.5531589360743     0.61023486856335     -49.6294180084234    0.61023486856335     -49.6294180084234    0.762793014934392    37.5531589360743     
29.0843086689791     0.765183070126829    37.3546817700109     0.607474343927296    -49.8418502232322    0.607474343927296    -49.8418502232322    0.765183070126829    37.3546817700109     
29.3029483849211     0.767560238223741    37.1563330121281     0.604708464554042    -50.0540673156834    0.604708464554042    -50.0540673156834    0.767560238223741    37.1563330121281     
29.5232317130916     0.769924400384082    36.9581236634657     0.601937429436652    -50.2660586878291    0.601937429436652    -50.2660586878291    0.769924400384082    36.9581236634657     
29.7451710092566     0.772275440921935    36.7600646528891     0.599161438114891    -50.4778138083143    0.599161438114891    -50.4778138083143    0.772275440921935    36.7600646528891     
29.9687787220658     0.774613247326994    36.5621668344986     0.596380690603779    -50.6893222149392    0.596380690603779    -50.6893222149392    0.774613247326994    36.5621668344986     
30.1940673937511     0.776937710283108    36.3644409850906     0.593595387322236    -50.90057351717      0.593595387322236    -50.90057351717      0.776937710283108    36.3644409850906     
30.4210496608299     0.779248723685017    36.1668978016581     0.590805729021791    -51.1115573986065    0.590805729021791    -51.1115573986065    0.779248723685017    36.1668978016581     
30.6497382548137     0.781546184653215    35.9695478989378     0.588011916715489    -51.3222636194032    0.588011916715489    -51.3222636194032    0.781546184653215    35.9695478989378     
30.8801460029227     0.783829993546933    35.7724018070084     0.585214151606953    -51.5326820186383    0.585214151606953    -51.5326820186383    0.783829993546933    35.7724018070084     
31.1122858288051     0.786100053975283    35.5754699689345     0.582412635019783    -51.7428025166333    0.582412635019783    -51.7428025166333    0.786100053975283    35.5754699689345     
31.3461707532616     0.788356272806566    35.3787627384612     0.579607568327186    -51.9526151172231    0.579607568327186    -51.9526151172231    0.788356272806566    35.3787627384612     
31.5818138949764     0.790598560175729    35.1822903777608     0.576799152882053    -52.1621099099709    0.576799152882053    -52.1621099099709    0.790598560175729    35.1822903777608     
31.8192284712525     0.792826829490005    34.9860630552303     0.573987589947397    -52.3712770723301    0.573987589947397    -52.3712770723301    0.792826829490005    34.9860630552303     
32.0584277987534     0.795040997432731    34.7900908433438     0.571173080627282    -52.580106871752     0.571173080627282    -52.580106871752     0.795040997432731    34.7900908433438     
32.2994252942497     0.7972409839654      34.5943837165567     0.568355825798274    -52.788589667737     0.568355825798274    -52.788589667737     0.7972409839654      34.5943837165567     
32.542234475372      0.799426712327883    34.3989515492681     0.56553602604144     -52.9967159138287    0.56553602604144     -52.9967159138287    0.799426712327883    34.3989515492681     
32.7868689613689     0.801598109036935    34.2038041138362     0.562713881574954    -53.2044761595514    0.562713881574954    -53.2044761595514    0.801598109036935    34.2038041138362     
33.0333424738711     0.803755103882934    34.0089510786513     0.559889592187392    -53.4118610522885    0.559889592187392    -53.4118610522885    0.803755103882934    34.0089510786513     
33.2816688376606     0.805897629924904    33.8144020062675     0.557063357171699    -53.6188613391009    0.557063357171699    -53.6188613391009    0.805897629924904    33.8144020062675     
33.5318619814468     0.80802562348385     33.6201663515898     0.554235375259891    -53.8254678684879    0.554235375259891    -53.8254678684879    0.80802562348385     33.6201663515898     
33.7839359386473     0.810139024134398    33.4262534601231     0.551405844558579    -54.0316715920839    0.551405844558579    -54.0316715920839    0.810139024134398    33.4262534601231     
34.037904848175      0.812237774694805    33.2326725662773     0.548574962485286    -54.2374635662971    0.548574962485286    -54.2374635662971    0.812237774694805    33.2326725662773     
34.2937829552314     0.814321821215348    33.0394327917338     0.545742925705646    -54.4428349538857    0.545742925705646    -54.4428349538857    0.814321821215348    33.0394327917338     
34.5515846121058     0.816391112965112    32.8465431438716     0.54290993007151     -54.6477770254705    0.54290993007151     -54.6477770254705    0.816391112965112    32.8465431438716     
34.8113242789796     0.818445602417221    32.6540125142537     0.540076170559978    -54.8522811609867    0.540076170559978    -54.8522811609867    0.818445602417221    32.6540125142537     
35.0730165247381     0.820485245232536    32.4618496771747     0.537241841213406    -55.0563388510719    0.537241841213406    -55.0563388510719    0.820485245232536    32.4618496771747     
35.3366760277874     0.822510000241845    32.2700632882694     0.534407135080452    -55.25994169839      0.534407135080452    -55.25994169839      0.822510000241845    32.2700632882694     
35.6023175768778     0.824519829426618    32.0786618831807     0.531572244158119    -55.4630814188952    0.531572244158119    -55.4630814188952    0.824519829426618    32.0786618831807     
35.8699560719329     0.826514697898277    31.8876538762921     0.528737359334903    -55.6657498430268    0.528737359334903    -55.6657498430268    0.826514697898277    31.8876538762921     
36.139606524886      0.828494573876123    31.6970475595189     0.52590267033503     -55.8679389168447    0.52590267033503     -55.8679389168447    0.828494573876123    31.6970475595189     
36.4112840605216     0.830459428663861    31.5068511011619     0.523068365663818    -56.0696407030989    0.523068365663818    -56.0696407030989    0.830459428663861    31.5068511011619     
36.6850039173242     0.832409236624823    31.3170725448221     0.520234632554202    -56.2708473822358    0.520234632554202    -56.2708473822358    0.832409236624823    31.3170725448221     
36.9607814483325     0.834343975155895    31.1277198083771     0.51740165691443     -56.4715512533398    0.51740165691443     -56.4715512533398    0.834343975155895    31.1277198083771     
37.2386321220009     0.836263624660204    30.9388006830177     0.51456962327697     -56.6717447350131    0.51456962327697     -56.6717447350131    0.836263624660204    30.9388006830177     
37.5185715230672     0.83816816851857     30.7503228323474     0.511738714748632    -56.8714203661878    0.511738714748632    -56.8714203661878    0.83816816851857     30.7503228323474     
37.8006153534265     0.840057593059831    30.5622937915385     0.508909112961934    -57.0705708068801    0.508909112961934    -57.0705708068801    0.840057593059831    30.5622937915385     
38.0847794330121     0.841931887529973    30.3747209665562     0.506080998027752    -57.2691888388735    0.506080998027752    -57.2691888388735    0.841931887529973    30.3747209665562     
38.3710797006828     0.843791044060248    30.1876116334325     0.5032545484892      -57.4672673663483    0.5032545484892      -57.4672673663483    0.843791044060248    30.1876116334325     
38.6595322151169     0.845635057634169    30.000972937609      0.500429941276859    -57.6647994164396    0.500429941276859    -57.6647994164396    0.845635057634169    30.000972937609      
38.9501531557129     0.847463926053536    29.8148118933346     0.497607351665283    -57.8617781397379    0.497607351665283    -57.8617781397379    0.847463926053536    29.8148118933346     
39.242958823497      0.849277649903494    29.6291353831208     0.494786953230816    -58.058196810727     0.494786953230816    -58.058196810727     0.849277649903494    29.6291353831208     
39.5379656420377     0.85107623251664     29.4439501572596     0.491968917810774    -58.2540488281579    0.491968917810774    -58.2540488281579    0.85107623251664     29.4439501572596     
39.8351901583667     0.85285967993627     29.2592628333946     0.489153415463932    -58.4493277153645    0.489153415463932    -58.4493277153645    0.85285967993627     29.2592628333946     
40.1346490439068     0.854628000878768    29.0750798961526     0.486340614432377    -58.6440271205168    0.486340614432377    -58.6440271205168    0.854628000878768    29.0750798961526     
40.4363590954079     0.856381206695199    28.8914076968295     0.48353068110471     -58.8381408168144    0.48353068110471     -58.8381408168144    0.856381206695199    28.8914076968295     
40.740337235888      0.858119311332134    28.7082524531336     0.480723779980607    -59.0316627026199    0.480723779980607    -59.0316627026199    0.858119311332134    28.7082524531336     
41.0466005155834     0.859842331291776    28.5256202489822     0.477920073636737    -59.224586801535     0.477920073636737    -59.224586801535     0.859842331291776    28.5256202489822     
41.3551661129043     0.861550285591381    28.3435170343547     0.475119722694054    -59.4169072624163    0.475119722694054    -59.4169072624163    0.861550285591381    28.3435170343547     
41.666051335399      0.86324319572206     28.1619486251981     0.472322885786442    -59.6086183593333    0.472322885786442    -59.6086183593333    0.86324319572206     28.1619486251981     
41.979273620724      0.864921085606994    27.9809207033843     0.469529719530728    -59.7997144914729    0.469529719530728    -59.7997144914729    0.864921085606994    27.9809207033843     
42.2948505376226     0.866583981559068    27.800438816722      0.466740378498065    -59.9901901829819    0.466740378498065    -59.9901901829819    0.866583981559068    27.800438816722      
42.6127997869103     0.868231912238014    27.6205083790177     0.463955015186661    -60.1800400827589    0.463955015186661    -60.1800400827589    0.868231912238014    27.6205083790177     
42.9331392024673     0.869864908607068    27.4411346701873     0.461173779995862    -60.3692589641883    0.461173779995862    -60.3692589641883    0.869864908607068    27.4411346701873     
43.2558867522393     0.871483003889208    27.2623228364169     0.458396821201607    -60.5578417248228    0.458396821201607    -60.5578417248228    0.871483003889208    27.2623228364169     
43.5810605392447     0.873086233522972    27.0840778903729     0.455624284933187    -60.7457833860098    0.455624284933187    -60.7457833860098    0.873086233522972    27.0840778903729     
43.9086788025907     0.874674635117936    26.9064047114584     0.452856315151366    -60.9330790924678    0.452856315151366    -60.9330790924678    0.874674635117936    26.9064047114584     
44.2387599184958     0.87624824840988     26.7293080461169     0.450093053627822    -61.1197241118093    0.450093053627822    -61.1197241118093    0.87624824840988     26.7293080461169     
44.5713224013208     0.877807115215651    26.5527925081809     0.447334639925889    -61.3057138340147    0.447334639925889    -61.3057138340147    0.877807115215651    26.5527925081809     
44.9063849046072     0.879351279387806    26.3768625792649     0.444581211382627    -61.4910437708555    0.444581211382627    -61.4910437708555    0.879351279387806    26.3768625792649     
45.2439662221235     0.880880786769024    26.201522609203      0.441832903092153    -61.675709555267     0.441832903092153    -61.675709555267     0.880880786769024    26.201522609203      
45.5840852889192     0.882395685146373    26.0267768165265     0.439089847890279    -61.8597069406758    0.439089847890279    -61.8597069406758    0.882395685146373    26.0267768165265     
45.9267611823873     0.883896024205417    25.8526292889857     0.436352176340391    -62.0430318002771    0.436352176340391    -62.0430318002771    0.883896024205417    25.8526292889857     
46.2720131233338     0.885381855484227    25.6790839841104     0.433620016720603    -62.2256801262674    0.433620016720603    -62.2256801262674    0.885381855484227    25.6790839841104     
46.6198604770561     0.886853232327334    25.5061447298087     0.430893495012116    -62.4076480290311    0.430893495012116    -62.4076480290311    0.886853232327334    25.5061447298087     
46.9703227544294     0.888310209839634    25.3338152250065     0.428172734888824    -62.5889317362815    0.428172734888824    -62.5889317362815    0.888310209839634    25.3338152250065     
47.3234196130006     0.889752844840294    25.1620990403216     0.425457857708089    -62.7695275921602    0.425457857708089    -62.7695275921602    0.889752844840294    25.1620990403216     
47.6791708580912     0.891181195816679    24.9909996187757     0.422748982502739    -62.9494320562907    0.422748982502739    -62.9494320562907    0.891181195816679    24.9909996187757     
48.0375964439082     0.892595322878358    24.8205202765388     0.420046225974185    -63.1286417027932    0.420046225974185    -63.1286417027932    0.892595322878358    24.8205202765388     
48.3987164746632     0.893995287711159    24.6506642037112     0.417349702486723    -63.3071532192544    0.417349702486723    -63.3071532192544    0.893995287711159    24.6506642037112     
48.7625512057002     0.895381153531392    24.4814344651331     0.414659524062935    -63.4849634056619    0.414659524062935    -63.4849634056619    0.895381153531392    24.4814344651331     
49.1291210446317     0.896752985040169    24.3128340012305     0.411975800380212    -63.6620691732944    0.411975800380212    -63.6620691732944    0.896752985040169    24.3128340012305     
49.498446552483      0.89811084837792     24.1448656288891     0.409298638768346    -63.8384675435758    0.409298638768346    -63.8384675435758    0.89811084837792     24.1448656288891     
49.8705484448463     0.89945481107911     23.9775320423576     0.406628144208206    -64.0141556468915    0.406628144208206    -64.0141556468915    0.89945481107911     23.9775320423576     
50.2454475930416     0.900784942027169    23.8108358141799     0.403964419331436    -64.1891307213679    0.403964419331436    -64.1891307213679    0.900784942027169    23.8108358141799     
50.6231650252884     0.902101311409668    23.6447793961541     0.401307564421179    -64.3633901116141    0.401307564421179    -64.3633901116141    0.902101311409668    23.6447793961541     
51.0037219278843     0.903403990673782    23.4793651203189     0.398657677413809    -64.5369312674304    0.398657677413809    -64.5369312674304    0.903403990673782    23.4793651203189     
51.3871396463942     0.904693052482038    23.3145951999615     0.396014853901623    -64.7097517424821    0.396014853901623    -64.7097517424821    0.904693052482038    23.3145951999615     
51.7734396868466     0.905968570668375    23.1504717306539     0.393379187136489    -64.8818491929377    0.393379187136489    -64.8818491929377    0.905968570668375    23.1504717306539     
52.1626437169408     0.907230620194553    22.9869966913093     0.390750768034434    -65.0532213760761    0.390750768034434    -65.0532213760761    0.907230620194553    22.9869966913093     
52.5547735672617     0.908479277106911    22.8241719452606     0.388129685181119    -65.2238661488607    0.388129685181119    -65.2238661488607    0.908479277106911    22.8241719452606     
52.9498512325044     0.909714618493512    22.6619992413602     0.385516024838206    -65.3937814664821    0.385516024838206    -65.3937814664821    0.909714618493512    22.6619992413602     
53.3478988727082     0.91093672244167     22.5004802150992     0.382909870950582    -65.5629653808702    0.382909870950582    -65.5629653808702    0.91093672244167     22.5004802150992     
53.7489388144988     0.912145667995901    22.3396163897466     0.380311305154421    -65.731416039174     0.380311305154421    -65.731416039174     0.912145667995901    22.3396163897466     
54.1529935523416     0.913341535116313    22.1794091775025     0.377720406786037    -65.8991316822168    0.377720406786037    -65.8991316822168    0.913341535116313    22.1794091775025     
54.5600857498027     0.914524404637415    22.0198598806728     0.375137252891552    -66.0661106429166    0.375137252891552    -66.0661106429166    0.914524404637415    22.0198598806728     
54.9702382408203     0.915694358227413    21.8609696928563     0.372561918237299    -66.2323513446808    0.372561918237299    -66.2323513446808    0.915694358227413    21.8609696928563     
55.3834740309855     0.916851478347967    21.7027397001476     0.369994475320986    -66.3978522997745    0.369994475320986    -66.3978522997745    0.916851478347967    21.7027397001476     
55.7998162988328     0.91799584821445     21.5451708823531     0.367434994383543    -66.5626121076587    0.367434994383543    -66.5626121076587    0.91799584821445     21.5451708823531     
56.21928839714       0.919127551756692    21.3882641142211     0.3648835434217      -66.7266294533031    0.3648835434217      -66.7266294533031    0.919127551756692    21.3882641142211     
56.6419138542381     0.920246673580253    21.232020166682      0.362340188201188    -66.8899031054726    0.362340188201188    -66.8899031054726    0.920246673580253    21.232020166682      
57.0677163753312     0.921353298928208    21.0764397081016     0.359804992270618    -67.052431914986     0.359804992270618    -67.052431914986     0.921353298928208    21.0764397081016     
57.4967198438257     0.922447513643474    20.9215233055424     0.357278016975948    -67.2142148129526    0.357278016975948    -67.2142148129526    0.922447513643474    20.9215233055424     
57.9289483226706     0.923529404131681    20.7672714260347     0.354759321475573    -67.3752508089798    0.354759321475573    -67.3752508089798    0.923529404131681    20.7672714260347     
58.3644260557066     0.924599057324597    20.6136844378564     0.35224896275596     -67.5355389893582    0.35224896275596     -67.5355389893582    0.924599057324597    20.6136844378564     
58.8031774690261     0.925656560644102    20.4607626118208     0.349746995647853    -67.6950785152206    0.349746995647853    -67.6950785152206    0.925656560644102    20.4607626118208     
59.2452271723434     0.926702001966749    20.3085061225693     0.347253472842989    -67.8538686206775    0.347253472842989    -67.8538686206775    0.926702001966749    20.3085061225693     
59.6905999603752     0.927735469588887    20.1569150498707     0.344768444911316    -68.0119086109275    0.344768444911316    -68.0119086109275    0.927735469588887    20.1569150498707     
60.1393208142307     0.928757052192371    20.0059893799263     0.342291960318706    -68.1691978603447    0.342291960318706    -68.1691978603447    0.928757052192371    20.0059893799263     
60.5914149028136     0.929766838810847    19.8557290066783     0.339824065445111    -68.3257358105393    0.339824065445111    -68.3257358105393    0.929766838810847    19.8557290066783     
61.0469075842333     0.930764918796655    19.7061337331209     0.337364804603149    -68.4815219683992    0.337364804603149    -68.4815219683992    0.930764918796655    19.7061337331209     
61.5058244072276     0.931751381788282    19.5572032726171     0.334914220057134    -68.6365559041013    0.334914220057134    -68.6365559041013    0.931751381788282    19.5572032726171     
61.9681911125953     0.932726317678463    19.4089372502136     0.332472352042456    -68.7908372491035    0.332472352042456    -68.7908372491035    0.932726317678463    19.4089372502136     
62.4340336346403     0.933689816582848    19.2613352039594     0.330039238785369    -68.9443656941113    0.330039238785369    -68.9443656941113    0.933689816582848    19.2613352039594     
62.9033781026265     0.934641968809279    19.1143965862248     0.327614916523109    -69.0971409870185    0.327614916523109    -69.0971409870185    0.934641968809279    19.1143965862248     
63.3762508422429     0.935582864827686    18.9681207650197     0.325199419524345    -69.2491629308251    0.325199419524345    -69.2491629308251    0.935582864827686    18.9681207650197     
63.8526783770804     0.936512595240572    18.822507025311      0.322792780109952    -69.40043138153      0.322792780109952    -69.40043138153      0.936512595240572    18.822507025311      
64.3326874301196     0.937431250754114    18.6775545703396     0.320395028674053    -69.5509462459982    0.320395028674053    -69.5509462459982    0.937431250754114    18.6775545703396     
64.8163049252299     0.938338922149859    18.5332625229349     0.318006193705354    -69.7007074798018    0.318006193705354    -69.7007074798018    0.938338922149859    18.5332625229349     
65.303557988679      0.939235700257049    18.3896299268259     0.315626301808713    -69.8497150850382    0.315626301808713    -69.8497150850382    0.939235700257049    18.3896299268259     
65.7944739506551     0.940121675925516    18.2466557479513     0.313255377726957    -69.9979691081163    0.313255377726957    -69.9979691081163    0.940121675925516    18.2466557479513     
66.2890803467998     0.940996939999217    18.1043388757635     0.310893444362899    -70.1454696375214    0.310893444362899    -70.1454696375214    0.940996939999217    18.1043388757635     
66.787404919752      0.941861583290348    17.9626781245293     0.308540522801565    -70.2922168015492    0.308540522801565    -70.2922168015492    0.941861583290348    17.9626781245293     
67.2894756207045     0.942715696554059    17.8216722346273     0.306196632332598    -70.4382107660115    0.306196632332598    -70.4382107660115    0.942715696554059    17.8216722346273     
67.795320610972      0.943559370463775    17.6813198738372     0.303861790472813    -70.5834517319141    0.303861790472813    -70.5834517319141    0.943559370463775    17.6813198738372     
68.3049682635698     0.944392695587105    17.541619638626      0.30153601298892     -70.7279399331031    0.30153601298892     -70.7279399331031    0.944392695587105    17.541619638626      
68.8184471648063     0.945215762362338    17.4025700554262     0.299219313920348    -70.8716756338815    0.299219313920348    -70.8716756338815    0.945215762362338    17.4025700554262     
69.3357861158858     0.946028661075536    17.2641695819082     0.296911705602218    -71.0146591265934    0.296911705602218    -71.0146591265934    0.946028661075536    17.2641695819082     
69.8570141345239     0.946831481838194    17.1264166082455     0.294613198688378    -71.1568907291746    0.294613198688378    -71.1568907291746    0.946831481838194    17.1264166082455     
70.3821604565753     0.947624314565496    16.9893094583724     0.292323802174549    -71.2983707826695    0.292323802174549    -71.2983707826695    0.947624314565496    16.9893094583724     
70.9112545376742     0.948407248955128    16.8528463912335     0.290043523421525    -71.4390996487124    0.290043523421525    -71.4390996487124    0.948407248955128    16.8528463912335     
71.4443260548852     0.949180374466664    16.7170256020256     0.287772368178439    -71.5790777069714    0.287772368178439    -71.5790777069714    0.949180374466664    16.7170256020256     
71.981404908369      0.949943780301525    16.5818452234298     0.285510340606049    -71.7183053525546    0.285510340606049    -71.7183053525546    0.949943780301525    16.5818452234298     
72.5225212230592     0.950697555383476    16.4473033268361     0.283257443300083    -71.8567829933758    0.283257443300083    -71.8567829933758    0.950697555383476    16.4473033268361     
73.0677053503517     0.951441788339697    16.3133979235575     0.281013677314571    -71.9945110474787    0.281013677314571    -71.9945110474787    0.951441788339697    16.3133979235575     
73.6169878698076     0.952176567482372    16.180126966035      0.27877904218519     -72.1314899403174    0.27877904218519     -72.1314899403174    0.952176567482372    16.180126966035      
74.1703995908683     0.952901980790847    16.0474883490323     0.2765535359526      -72.267720101993     0.2765535359526      -72.267720101993     0.952901980790847    16.0474883490323     
74.727971554583      0.953618115894292    15.9154799108214     0.274337155185761    -72.4032019644396    0.274337155185761    -72.4032019644396    0.953618115894292    15.9154799108214     
75.2897350353509     0.954325060054918    15.7840994343556     0.2721298950052      -72.5379359585652    0.2721298950052      -72.5379359585652    0.954325060054918    15.7840994343556     
75.8557215426744     0.955022900151679    15.6533446484342     0.269931749106259    -72.6719225113368    0.269931749106259    -72.6719225113368    0.955022900151679    15.6533446484342     
76.425962822927      0.955711722664518    15.5232132288546     0.267742709782269    -72.8051620428137    0.267742709782269    -72.8051620428137    0.955711722664518    15.5232132288546     
77.0004908611341     0.9563916136591      15.393702799553      0.265562767947667    -72.9376549631237    0.265562767947667    -72.9376549631237    0.9563916136591      15.393702799553      
77.5793378827663     0.957062658772043    15.264810933736      0.263391913161037    -73.0694016693783    0.263391913161037    -73.0694016693783    0.957062658772043    15.264810933736      
78.1625363555477     0.957724943196648    15.136535154997      0.26123013364807     -73.2004025425284    0.26123013364807     -73.2004025425284    0.957724943196648    15.136535154997      
78.7501189912769     0.958378551669103    15.0088729384238     0.259077416324421    -73.3306579441517    0.259077416324421    -73.3306579441517    0.958378551669103    15.0088729384238     
79.3421187476615     0.95902356845516     14.8818217116938     0.256933746818482    -73.460168213173     0.256933746818482    -73.460168213173     0.95902356845516     14.8818217116938     
79.9385688301667     0.959660077337292    14.755378856155      0.254799109494033    -73.588933662513     0.254799109494033    -73.588933662513     0.959660077337292    14.755378856155      
80.5395026938785     0.9602881616023      14.629541707897      0.25267348747277     -73.7169545756608    0.25267348747277     -73.7169545756608    0.9602881616023      14.629541707897      
81.1449540453792     0.960907904029362    14.5043075588085     0.250556862656723    -73.8442312031667    0.250556862656723    -73.8442312031667    0.960907904029362    14.5043075588085     
81.7549568446387     0.961519386878548    14.379673657623      0.24844921575054     -73.9707637590523    0.24844921575054     -73.9707637590523    0.961519386878548    14.379673657623      
82.3695453069192     0.962122691879752    14.255637210951      0.246350526283609    -74.0965524171339    0.246350526283609    -74.0965524171339    0.962122691879752    14.255637210951      
82.9887539046942     0.962717900222056    14.1321953842996     0.244260772632067    -74.221597307252     0.244260772632067    -74.221597307252     0.962717900222056    14.1321953842996     
83.6126173695821     0.963305092543515    14.0093453030803     0.242179932040642    -74.3458985114056    0.242179932040642    -74.3458985114056    0.963305092543515    14.0093453030803     
84.2411706942946     0.963884348921355    13.8870840536022     0.24010798064433     -74.4694560597843    0.24010798064433     -74.4694560597843    0.963884348921355    13.8870840536022     
84.8744491345988     0.96445574886257     13.7654086840536     0.238044893489919    -74.5922699266943    0.238044893489919    -74.5922699266943    0.96445574886257     13.7654086840536     
85.5124882112956     0.965019371294911    13.6443162054703     0.235990644557352    -74.7143400263702    0.235990644557352    -74.7143400263702    0.965019371294911    13.6443162054703     
86.1553237122112     0.965575294558269    13.5238035926903     0.233945206780899    -74.8356662086701    0.233945206780899    -74.8356662086701    0.965575294558269    13.5238035926903     
86.8029916942051     0.966123596396426    13.4038677852955     0.231908552070166    -74.9562482546465    0.231908552070166    -74.9562482546465    0.966123596396426    13.4038677852955     
87.4555284851922     0.966664353949198    13.2845056885404     0.229880651330914    -75.0760858719851    0.229880651330914    -75.0760858719851    0.966664353949198    13.2845056885404     
88.1129706861805     0.967197643744905    13.1657141742683     0.227861474485709    -75.1951786903061    0.227861474485709    -75.1951786903061    0.967197643744905    13.1657141742683     
88.7753551733241     0.96772354169323     13.0474900818131     0.225850990494351    -75.3135262563209    0.225850990494351    -75.3135262563209    0.96772354169323     13.0474900818131     
89.4427190999917     0.9682421230784      12.9298302188877     0.223849167374149    -75.4311280288361    0.223849167374149    -75.4311280288361    0.9682421230784      12.9298302188877     
90.1150998988503     0.968753462552714    12.8127313624616     0.221855972219978    -75.5479833735954    0.221855972219978    -75.5479833735954    0.968753462552714    12.8127313624616     
90.792535283965      0.969257634130408    12.6961902596219     0.219871371224133    -75.6640915579542    0.219871371224133    -75.6640915579542    0.969257634130408    12.6961902596219     
91.4750632529145     0.969754711181822    12.5802036284242     0.217895329696013    -75.7794517453729    0.217895329696013    -75.7794517453729    0.969754711181822    12.5802036284242     
92.1627220889219     0.970244766427902    12.4647681587278     0.215927812081566    -75.8940629897248    0.215927812081566    -75.8940629897248    0.970244766427902    12.4647681587278     
92.8555503630026     0.970727871934992    12.3498805130203     0.213968781982553    -76.0079242294033    0.213968781982553    -76.0079242294033    0.970727871934992    12.3498805130203     
93.5535869361275     0.97120409910994     12.2355373272266     0.2120182021756      -76.121034281222     0.2120182021756      -76.121034281222     0.97120409910994     12.2355373272266     
94.2568709614027     0.971673518695473    12.1217352115066     0.210076034631044    -76.2333918340933    0.210076034631044    -76.2333918340933    0.971673518695473    12.1217352115066     
94.9654418862657     0.972136200765879    12.0084707510394     0.208142240531567    -76.3449954424746    0.208142240531567    -76.3449954424746    0.972136200765879    12.0084707510394     
95.6793394546979     0.972592214722946    11.8957405067946     0.206216780290627    -76.4558435195696    0.206216780290627    -76.4558435195696    0.972592214722946    11.8957405067946     
96.398603709454      0.973041629292178    11.7835410162905     0.204299613570672    -76.5659343302703    0.204299613570672    -76.5659343302703    0.973041629292178    11.7835410162905     
97.1232749943079     0.973484512519264    11.6718687943396     0.202390699301157    -76.6752659838265    0.202390699301157    -76.6752659838265    0.973484512519264    11.6718687943396     
97.8533939563157     0.973920931766812    11.5607203337817     0.200489995696331    -76.7838364262271    0.200489995696331    -76.7838364262271    0.973920931766812    11.5607203337817     
98.5890015480954     0.974350953711311    11.4500921062042     0.198597460272834    -76.8916434322755    0.198597460272834    -76.8916434322755    0.974350953711311    11.4500921062042     
99.3301390301242     0.974774644340355    11.3399805626489     0.196713049867074    -76.9986845973457    0.196713049867074    -76.9986845973457    0.974774644340355    11.3399805626489     
100.076847973053     0.975192068950065    11.2303821343087     0.194836720652404    -77.1049573287963    0.194836720652404    -77.1049573287963    0.975192068950065    11.2303821343087     
100.829170260037     0.975603292142774    11.1212932332086     0.192968428156073    -77.2104588370273    0.192968428156073    -77.2104588370273    0.975603292142774    11.1212932332086     
101.587148089086     0.976008377824897    11.0127102528775     0.191108127275992    -77.3151861261562    0.191108127275992    -77.3151861261562    0.976008377824897    11.0127102528775     
102.350823975433     0.976407389205032    10.9046295690056     0.189255772297288    -77.4191359842929    0.189255772297288    -77.4191359842929    0.976407389205032    10.9046295690056     
103.120240753913     0.976800388792249    10.7970475400916     0.187411316908644    -77.52230497339      0.187411316908644    -77.52230497339      0.976800388792249    10.7970475400916     
103.895441581373     0.977187438394593    10.6899605080754     0.185574714218451    -77.6246894186444    0.185574714218451    -77.6246894186444    0.977187438394593    10.6899605080754     
104.676469939088     0.977568599117763    10.583364798962      0.183745916770757    -77.7262853974214    0.183745916770757    -77.7262853974214    0.977568599117763    10.583364798962      
105.463369635202     0.977943931363982    10.4772567234308     0.181924876561014    -77.8270887276779    0.181924876561014    -77.8270887276779    0.977943931363982    10.4772567234308     
106.256184807182     0.97831349483104     10.3716325774351     0.180111545051635    -77.9270949558494    0.180111545051635    -77.9270949558494    0.97831349483104     10.3716325774351     
107.054959924299     0.978677348511518    10.2664886427895     0.178305873187362    -78.0262993441729    0.178305873187362    -78.0262993441729    0.978677348511518    10.2664886427895     
107.859739790116     0.979035550692168    10.1618211877454     0.176507811410436    -78.124696857411     0.176507811410436    -78.124696857411     0.979035550692168    10.1618211877454     
108.670569545009     0.979388158953448    10.0576264675566     0.174717309675598    -78.2222821489386    0.174717309675598    -78.2222821489386    0.979388158953448    10.0576264675566     
109.48749466869      0.979735230169234    9.95390072503146     0.172934317464886    -78.3190495461582    0.172934317464886    -78.3190495461582    0.979735230169234    9.95390072503146     
110.310560982763     0.980076820506643    9.85064019107658     0.17115878380229     -78.414993035196     0.17115878380229     -78.414993035196     0.980076820506643    9.85064019107658     
111.139814653296     0.980412985426031    9.74784108522781     0.169390657268189    -78.5101062448411    0.169390657268189    -78.5101062448411    0.980412985426031    9.74784108522781     
111.975302193406     0.98074377968111     9.64549961617126     0.167629886013659    -78.6043824296759    0.167629886013659    -78.6043824296759    0.98074377968111     9.64549961617126     
112.81707046587      0.981069257319196    9.54361198225327     0.165876417774604    -78.6978144523494    0.165876417774604    -78.6978144523494    0.981069257319196    9.54361198225327     
113.665166685752     0.98138947168159     9.44217437198037     0.164130199885714    -78.7903947649376    0.164130199885714    -78.7903947649376    0.98138947168159     9.44217437198037     
114.519638423057     0.98170447540407     9.34118296450847     0.162391179294303    -78.8821153893349    0.162391179294303    -78.8821153893349    0.98170447540407     9.34118296450847     
115.380533605389     0.982014320417501    9.24063393012218     0.160659302573968    -78.9729678966119    0.160659302573968    -78.9729678966119    0.982014320417501    9.24063393012218     
116.24790052065      0.982319057948556    9.14052343070333     0.158934515938129    -79.0629433852746    0.158934515938129    -79.0629433852746    0.982319057948556    9.14052343070333     
117.121787819742     0.982618738520543    9.04084762019079     0.15721676525343     -79.1520324583522    0.15721676525343     -79.1520324583522    0.982618738520543    9.04084762019079     
118.002244519297     0.982913411954324    8.94160264502928     0.15550599605301     -79.2402251992365    0.15550599605301     -79.2402251992365    0.982913411954324    8.94160264502928     
118.889320004427     0.983203127369335    8.84278464460912     0.153802153549668    -79.3275111461908    0.153802153549668    -79.3275111461908    0.983203127369335    8.84278464460912     
119.783064031495     0.983487933184692    8.74438975169661     0.152105182648897    -79.4138792654377    0.152105182648897    -79.4138792654377    0.983487933184692    8.74438975169661     
120.683526730903     0.983767877120391    8.64641409285473     0.150415027961844    -79.4993179227315    0.150415027961844    -79.4993179227315    0.983767877120391    8.64641409285473     
121.590758609908     0.984043006198572    8.54885378885441     0.148731633818153    -79.5838148533105    0.148731633818153    -79.5838148533105    0.984043006198572    8.54885378885441     
122.504810555451     0.984313366744881    8.45170495507769     0.147054944278742    -79.6673571301184    0.147054944278742    -79.6673571301184    0.984313366744881    8.45170495507769     
123.425733837012     0.984579004389882    8.35496370191071     0.145384903148498    -79.7499311301749    0.145384903148498    -79.7499311301749    0.984579004389882    8.35496370191071     
124.353580109488     0.984839964070555    8.25862613512906     0.143721453988932    -79.8315224989646    0.143721453988932    -79.8315224989646    0.984839964070555    8.25862613512906     
125.288401416088     0.98509629003185     8.16268835627379     0.142064540130751    -79.9121161127056    0.142064540130751    -79.9121161127056    0.98509629003185     8.16268835627379     
126.230250191254     0.985348025828293    8.06714646301896     0.140414104686431    -79.9916960383458    0.140414104686431    -79.9916960383458    0.985348025828293    8.06714646301896     
127.179179263601     0.985595214325666    7.97199654953175     0.138770090562742    -80.0702454911207    0.138770090562742    -80.0702454911207    0.985595214325666    7.97199654953175     
128.135241858879     0.985837897702725    7.87723470682285     0.137132440473288    -80.1477467895017    0.137132440473288    -80.1477467895017    0.985837897702725    7.87723470682285     
129.09849160296      0.986076117452963    7.78285702309031     0.135501096951031    -80.2241813073328    0.135501096951031    -80.2241813073328    0.986076117452963    7.78285702309031     
130.068982524847     0.986309914386437    7.68885958405497     0.133876002360867    -80.2995294229573    0.133876002360867    -80.2995294229573    0.986309914386437    7.68885958405497     
131.046769059702     0.986539328631613    7.59523847328775     0.13225709891223     -80.3737704651009    0.13225709891223     -80.3737704651009    0.986539328631613    7.59523847328775     
132.031906051901     0.986764399637262    7.50198977252985     0.130644328671757    -80.4468826552697    0.130644328671757    -80.4468826552697    0.986764399637262    7.50198977252985     
133.024448758107     0.986985166174389    7.40910956200568     0.129037633576057    -80.5188430463927    0.129037633576057    -80.5188430463927    0.986985166174389    7.40910956200568     
134.024452850377     0.987201666338187    7.31659392072808     0.127436955444568    -80.5896274574208    0.127436955444568    -80.5896274574208    0.987201666338187    7.31659392072808     
135.031974419275     0.987413937550026    7.22443892679638     0.125842235992553    -80.6592104035644    0.125842235992553    -80.6592104035644    0.987413937550026    7.22443892679638     
136.047069977025     0.987622016559458    7.13264065768803     0.124253416844258    -80.727565021823     0.124253416844258    -80.727565021823     0.987622016559458    7.13264065768803     
137.069796460678     0.987825939446252    7.04119519054314     0.122670439546258    -80.7946629914328    0.122670439546258    -80.7946629914328    0.987825939446252    7.04119519054314     
138.100211235307     0.988025741622442    6.95009860244213     0.121093245581013    -80.8604744488192    0.121093245581013    -80.8604744488192    0.988025741622442    6.95009860244213     
139.138372097223     0.98822145783439     6.8593469706769      0.119521776380688    -80.9249678966037    0.119521776380688    -80.9249678966037    0.98822145783439     6.8593469706769      
140.184337277218     0.988413122164867    6.76893637301591     0.117955973341254    -80.988110106176     0.117955973341254    -80.988110106176     0.988413122164867    6.76893637301591     
141.238165443829     0.988600768035141    6.67886288796289     0.116395777836925    -81.0498660132885    0.116395777836925    -81.0498660132885    0.988600768035141    6.67886288796289     
142.299915706635     0.988784428207066    6.58912259500938     0.114841131234969    -81.1101986060842    0.114841131234969    -81.1101986060842    0.988784428207066    6.58912259500938     
143.369647619563     0.988964134785189    6.49971157488138     0.113291974910928    -81.1690688049088    0.113291974910928    -81.1690688049088    0.988964134785189    6.49971157488138     
144.447421184237     0.989139919218851    6.41062590978046     0.111748250264334    -81.226435333194     0.111748250264334    -81.226435333194     0.989139919218851    6.41062590978046     
145.533296853338     0.989311812304281    6.3218616836185      0.110209898734935    -81.2822545786255    0.110209898734935    -81.2822545786255    0.989311812304281    6.3218616836185      
146.627335533998     0.989479844186707    6.23341498224805     0.108676861819527    -81.3364804437345    0.108676861819527    -81.3364804437345    0.989479844186707    6.23341498224805     
147.729598591214     0.989644044362446    6.14528189368648     0.107149081089447    -81.3890641849582    0.107149081089447    -81.3890641849582    0.989644044362446    6.14528189368648     
148.840147851291     0.989804441680989    6.05745850833488     0.1056264982088      -81.4399542391171    0.1056264982088      -81.4399542391171    0.989804441680989    6.05745850833488     
149.959045605312     0.989961064347084    5.96994091919282     0.104109054953518    -81.4890960361474    0.104109054953518    -81.4890960361474    0.989961064347084    5.96994091919282     
151.086354612627     0.990113939922801    5.88272522206691     0.102596693231325    -81.5364317968015    0.102596693231325    -81.5364317968015    0.990113939922801    5.88272522206691     
152.222138104378     0.990263095329591    5.79580751577599     0.10108935510273     -81.58190031389      0.10108935510273     -81.58190031389      0.990263095329591    5.79580751577599     
153.366459787042     0.990408556850317    5.70918390235022     0.099586982803137    -81.6254367154845    0.099586982803137    -81.6254367154845    0.990408556850317    5.70918390235022     
154.519383846008     0.990550350131288    5.62285048722684     0.098089518766221    -81.666972208322     0.098089518766221    -81.666972208322     0.990550350131288    5.62285048722684     
155.680974949174     0.990688500184254    5.53680337944111     0.096596905648703    -81.7064337994561    0.096596905648703    -81.7064337994561    0.990688500184254    5.53680337944111     
156.851298250576     0.990823031388392    5.45103869181322     0.095109086356665    -81.7437439939753    0.095109086356665    -81.7437439939753    0.990823031388392    5.45103869181322     
158.03041939404      0.990953967492269    5.36555254113086     0.093626004073594    -81.7788204663586    0.093626004073594    -81.7788204663586    0.990953967492269    5.36555254113086     
159.218404516869     0.99108133161578     5.28034104832783     0.092147602290341    -81.8115757027497    0.092147602290341    -81.8115757027497    0.99108133161578     5.28034104832783     
160.415320253546     0.991205146252056    5.19540033865968     0.090673824837215    -81.8419166111096    0.090673824837215    -81.8419166111096    0.991205146252056    5.19540033865968     
161.62123373948      0.991325433269357    5.11072654187448     0.089204615918447    -81.8697440958427    0.089204615918447    -81.8697440958427    0.991325433269357    5.11072654187448     
162.836212614762     0.991442213912922    5.02631579238091     0.087739920149297    -81.8949525930639    0.087739920149297    -81.8949525930639    0.991442213912922    5.02631579238091     
164.060325027966     0.991555508806804    4.94216422941317     0.086279682596119    -81.9174295622089    0.086279682596119    -81.9174295622089    0.991555508806804    4.94216422941317     
165.293639639969     0.991665337955659    4.85826799719152     0.084823848819703    -81.9370549291396    0.084823848819703    -81.9370549291396    0.991665337955659    4.85826799719152     
166.536225627803     0.991771720746522    4.77462324508116     0.083372364922313    -81.9537004752708    0.083372364922313    -81.9537004752708    0.991771720746522    4.77462324508116     
167.788152688532     0.991874675950526    4.69122612774703     0.081925177598831    -81.9672291665385    0.081925177598831    -81.9672291665385    0.991874675950526    4.69122612774703     
169.049491043168     0.991974221724613    4.60807280530664     0.080482234192523    -81.9774944152036    0.080482234192523    -81.9774944152036    0.991974221724613    4.60807280530664     
170.320311440602     0.992070375613184    4.5251594434794      0.079043482755968    -81.9843392665421    0.079043482755968    -81.9843392665421    0.992070375613184    4.5251594434794      
171.600685161578     0.99216315454973     4.4424822137341      0.077608872117818    -81.9875955013875    0.077608872117818    -81.9875955013875    0.99216315454973     4.4424822137341      
172.890684022689     0.992252574858421    4.3600372934336      0.076178351956095    -81.9870826442256    0.076178351956095    -81.9870826442256    0.992252574858421    4.3600372934336      
174.190380380404     0.992338652255653    4.27782086597725     0.074751872878869    -81.9826068650906    0.074751872878869    -81.9826068650906    0.992338652255653    4.27782086597725     
175.499847135129     0.992421401851557    4.19582912094154     0.073329386513277    -81.9739597618089    0.073329386513277    -81.9739597618089    0.992421401851557    4.19582912094154     
176.819157735295     0.99250083815147     4.11405825421827     0.071910845603961    -81.9609170071717    0.071910845603961    -81.9609170071717    0.99250083815147     4.11405825421827     
178.148386181477     0.992576975057368    4.03250446815083     0.07049620412221     -81.9432368433071    0.07049620412221     -81.9432368433071    0.992576975057368    4.03250446815083     
179.487607030545     0.992649825869243    3.95116397166928     0.069085417387235    -81.9206584028326    0.069085417387235    -81.9206584028326    0.992649825869243    3.95116397166928     
180.836895399848     0.99271940328646     3.87003298042344     0.067678442201281    -81.892899833202     0.067678442201281    -81.892899833202     0.99271940328646     3.87003298042344     
182.196326971423     0.992785719409051    3.7891077169142      0.066275237000502    -81.8596561969423    0.066275237000502    -81.8596561969423    0.992785719409051    3.7891077169142      
183.565977996245     0.992848785738975    3.70838441062421     0.06487576202389     -81.8205971160817    0.06487576202389     -81.8205971160817    0.992848785738975    3.70838441062421     
184.9459252985       0.992908613181333    3.6278592981468      0.06347997950288     -81.7753641238753    0.06347997950288     -81.7753641238753    0.992908613181333    3.6278592981468      
186.336246279896     0.992965212045539    3.54752862331388     0.06208785387472     -81.7235676807625    0.06208785387472     -81.7235676807625    0.992965212045539    3.54752862331388     
187.737018924005     0.993018592046443    3.46738863732316     0.060699352023247    -81.6647838041484    0.060699352023247    -81.6647838041484    0.993018592046443    3.46738863732316     
189.148321800635     0.99306876230541     3.38743559886419     0.059314443551306    -81.5985502528188    0.059314443551306    -81.5985502528188    0.99306876230541     3.38743559886419     
190.57023407024      0.993115731351358    3.30766577424408     0.057933101089865    -81.5243621962861    0.057933101089865    -81.5243621962861    0.993115731351358    3.30766577424408     
192.002835488356     0.993159507121738    3.22807543751218     0.056555300649756    -81.4416672867022    0.056555300649756    -81.4416672867022    0.993159507121738    3.22807543751218     
193.446206410079     0.993200096963485    3.14866087058497     0.055181022023155    -81.3498600357085    0.055181022023155    -81.3498600357085    0.993200096963485    3.14866087058497     
194.90042779457      0.993237507633903    3.06941836337001     0.053810249243212    -81.2482753800822    0.053810249243212    -81.2482753800822    0.993237507633903    3.06941836337001     
196.365581209594     0.993271745301523    2.99034421389003     0.05244297111197     -81.1361812975332    0.05244297111197     -81.1361812975332    0.993271745301523    2.99034421389003     
197.841748836099     0.993302815546897    2.91143472840697     0.051079181808709    -81.0127703065234    0.051079181808709    -81.0127703065234    0.993302815546897    2.91143472840697     
199.329013472825     0.99333072336336     2.83268622154619     0.049718881593404    -80.8771496502842    0.049718881593404    -80.8771496502842    0.99333072336336     2.83268622154619     
200.827458540944     0.993355473157731    2.7540950164205      0.048362077623061    -80.7283299237199    0.048362077623061    -80.7283299237199    0.993355473157731    2.7540950164205      
202.337168088745     0.99337706875098     2.67565744475498     0.047008784902617    -80.5652118505767    0.047008784902617    -80.5652118505767    0.99337706875098     2.67565744475498     
203.858226796343     0.99339551337884     2.59736984701224     0.045659027396883    -80.3865708545181    0.045659027396883    -80.3865708545181    0.99339551337884     2.59736984701224     
205.390719980433     0.993410809692378    2.51922857251781     0.04431283933609     -80.191038988198     0.04431283933609     -80.191038988198     0.993410809692378    2.51922857251781     
206.934733599074     0.993422959758511    2.44122997958687     0.042970266755322    -79.9770836846606    0.042970266755322    -79.9770836846606    0.993422959758511    2.44122997958687     
208.490354256507     0.993431965060488    2.36337043565128     0.041631369317783    -79.74298266966      0.041631369317783    -79.74298266966      0.993431965060488    2.36337043565128     
210.057669208019     0.993437826498315    2.28564631738831     0.040296222484381    -79.4867942142397    0.040296222484381    -79.4867942142397    0.993437826498315    2.28564631738831     
211.636766364832     0.993440544389144    2.20805401084962     0.038964920108046    -79.2063217041139    0.038964920108046    -79.2063217041139    0.993440544389144    2.20805401084962     
213.227734299038     0.993440118467604    2.13058991159218     0.037637577551951    -78.8990712428381    0.037637577551951    -78.8990712428381    0.993440118467604    2.13058991159218     
214.830662248562     0.993436547886103    2.05325042481011     0.036314335457748    -78.5622006717169    0.036314335457748    -78.5622006717169    0.993436547886103    2.05325042481011     
216.445640122172     0.993429831215071    1.97603196546864     0.034995364325302    -78.1924579572577    0.034995364325302    -78.1924579572577    0.993429831215071    1.97603196546864     
218.07275850452      0.99341996644317     1.8989309584387      0.033680870112073    -77.7861063348757    0.033680870112073    -77.7861063348757    0.99341996644317     1.8989309584387      
219.712108661224     0.993406950977449    1.82194383863438     0.032371101122488    -77.3388328626941    0.032371101122488    -77.3388328626941    0.993406950977449    1.82194383863438     
221.363782543985     0.993390781643475    1.74506705115145     0.031066356540886    -76.8456360737597    0.031066356540886    -76.8456360737597    0.993390781643475    1.74506705115145     
223.027872795745     0.993371454685394    1.66829705140848     0.029766997074244    -76.3006871407944    0.029766997074244    -76.3006871407944    0.993371454685394    1.66829705140848     
224.704472755889     0.993348965765981    1.59163030528952     0.028473458324157    -75.6971572797508    0.028473458324157    -75.6971572797508    0.993348965765981    1.59163030528952     
226.393676465469     0.993323309966622    1.51506328928973     0.027186267718095    -75.0270018768778    0.027186267718095    -75.0270018768778    0.993323309966622    1.51506328928973     
228.095578672492     0.993294481787278    1.43859249066302     0.025906066121229    -74.2806888446369    0.025906066121229    -74.2806888446369    0.993294481787278    1.43859249066302     
229.810274837224     0.993262475146393    1.36221440757216     0.02463363565632     -73.4468547596034    0.02463363565632     -73.4468547596034    0.993262475146393    1.36221440757216     
231.537861137549     0.993227283380773    1.28592554924193     0.0233699358296      -72.5118671260801    0.0233699358296      -72.5118671260801    0.993227283380773    1.28592554924193     
233.278434474364     0.993188899245426    1.20972243611462     0.022116150866335    -71.4592643361831    0.022116150866335    -71.4592643361831    0.993188899245426    1.20972243611462     
235.032092477013     0.993147314913362    1.13360160000904     0.020873752302794    -70.2690363233076    0.020873752302794    -70.2690363233076    0.993147314913362    1.13360160000904     
236.798933508762     0.993102521975361    1.05755958428188     0.019644582504509    -68.9166986029493    0.019644582504509    -68.9166986029493    0.993102521975361    1.05755958428188     
238.57905667232      0.993054511439709    0.981592943993028    0.018430967076658    -67.3721013205646    0.018430967076658    -67.3721013205646    0.993054511439709    0.981592943993028    
240.372561815393     0.993003273731888    0.905698246073796    0.017235867338993    -65.5979062362746    0.017235867338993    -65.5979062362746    0.993003273731888    0.905698246073796    
242.179549536288     0.992948798694254    0.829872069498222    0.016063088389487    -63.547666506227     0.016063088389487    -63.547666506227     0.992948798694254    0.829872069498222    
244.000121189553     0.992891075585667    0.754111005459267    0.014917563835494    -61.1634760844389    0.014917563835494    -61.1634760844389    0.992891075585667    0.754111005459267    
245.834378891665     0.992830093081094    0.678411657547021    0.013805744417093    -58.3732604441622    0.013805744417093    -58.3732604441622    0.992830093081094    0.678411657547021    
247.682425526756     0.992765839271199    0.602770641932349    0.012736121955425    -55.0880470869082    0.012736121955425    -55.0880470869082    0.992765839271199    0.602770641932349    
249.544364752382     0.992698301661879    0.527184587553208    0.011719915013784    -51.200152267904     0.011719915013784    -51.200152267904     0.992698301661879    0.527184587553208    
251.420301005341     0.992627467173806    0.451650136306441    0.010771910498526    -46.5844228540118    0.010771910498526    -46.5844228540118    0.992627467173806    0.451650136306441    
253.310339507527     0.992553322141914    0.376163943242473    0.009911359014868    -41.1067571334469    0.009911359014868    -41.1067571334469    0.992553322141914    0.376163943242473    
255.214586271837     0.992475852314888    0.300722676765357    0.009162601849682    -34.6468060686383    0.009162601849682    -34.6468060686383    0.992475852314888    0.300722676765357    
257.133148108111     0.992395042854621    0.225323018837054    0.00855472418085     -27.1425160901078    0.00855472418085     -27.1425160901078    0.992395042854621    0.225323018837054    
259.066132629128     0.992310878335652    0.149961665186346    0.008119131959153    -18.6560327953595    0.008119131959153    -18.6560327953595    0.992310878335652    0.149961665186346    
261.01364825664      0.992223342744588    0.07463532552258     0.007884164671774    -9.43545414336713    0.007884164671774    -9.43545414336713    0.992223342744588    0.07463532552258     
262.975804227453     0.992132419479514    -0.000659276245807   0.007867588868589    0.083137232676301    0.007867588868589    0.083137232676301    0.992132419479514    -0.000659276245807   
264.952710599555     0.992038091349383    -0.075925401787166   0.008070565390893    9.37455807779672     0.008070565390893    9.37455807779672     0.992038091349383    -0.075925401787166   
266.94447825829      0.991940340573399    -0.151166298118023   0.008477198381163    17.9821207577202     0.008477198381163    17.9821207577202     0.991940340573399    -0.151166298118023   
268.951218922576     0.99183914878039     -0.226385197368553   0.009060010418282    25.6295301698605     0.009060010418282    25.6295301698605     0.99183914878039     -0.226385197368553   
270.97304515117      0.991734497008169    -0.301585316542771   0.009787520315992    32.2317487466554     0.009787520315992    32.2317487466554     0.991734497008169    -0.301585316542771   
273.010070348986     0.991626365702896    -0.376769857273305   0.010630034286472    37.8378043280989     0.010630034286472    37.8378043280989     0.991626365702896    -0.376769857273305   
275.062408773453     0.99151473471843     -0.45194200556996    0.011562441524359    42.5631563010563     0.011562441524359    42.5631563010563     0.99151473471843     -0.45194200556996    
277.130175540923     0.991399583315685    -0.527104931563016   0.012564770818231    46.5417757183459     0.012564770818231    46.5417757183459     0.991399583315685    -0.527104931563016   
279.213486633128     0.991280890161988    -0.602261789239628   0.013621640653709    49.9008120424126     0.013621640653709    49.9008120424126     0.991280890161988    -0.602261789239628   
281.312458903689     0.991158633330431    -0.677415716174988   0.014721370853866    52.7505676946201     0.014721370853866    52.7505676946201     0.991158633330431    -0.677415716174988   
283.427210084667     0.991032790299242    -0.752569833256766   0.015855121295638    55.1825539771108     0.015855121295638    55.1825539771108     0.991032790299242    -0.752569833256766   
285.557858793165     0.99090333795116     -0.827727244402702   0.017016181177981    57.2710440865239     0.017016181177981    57.2710440865239     0.99090333795116     -0.827727244402702   
287.704524537988     0.990770252572812    -0.902891036272493   0.018199422708824    59.0757505831714     0.018199422708824    59.0757505831714     0.990770252572812    -0.902891036272493   
289.867327726337     0.990633509854124    -0.978064277972335   0.019400894849879    60.6445668863272     0.019400894849879    60.6445668863272     0.990633509854124    -0.978064277972335   
292.046389670571     0.990493084887724    -1.05325002075275    0.020617525428018    62.0159759695844     0.020617525428018    62.0159759695844     0.990493084887724    -1.05325002075275    
294.241832595008     0.990348952168389    -1.1284512976995     0.021846903497565    63.2210299160699     0.021846903497565    63.2210299160699     0.990348952168389    -1.1284512976995     
296.453779642779     0.990201085592493    -1.20367112341728    0.023087119968568    64.2849246705948     0.023087119968568    64.2849246705948     0.990201085592493    -1.20367112341728    
298.682354882739     0.990049458457498    -1.27891249370651    0.024336650236638    65.2282331273095     0.024336650236638    65.2282331273095     0.990049458457498    -1.27891249370651    
300.927683316421     0.989894043461461    -1.35417838523208    0.025594267086728    66.0678642760709     0.025594267086728    66.0678642760709     0.989894043461461    -1.35417838523208    
303.189890885052     0.989734812702582    -1.42947175518525    0.026858975504691    66.8178082572932     0.026858975504691    66.8178082572932     0.989734812702582    -1.42947175518525    
305.469104476616     0.989571737678777    -1.50479554093731    0.028129963443212    67.4897161685455     0.028129963443212    67.4897161685455     0.989571737678777    -1.50479554093731    
307.76545193297      0.989404789287303    -1.58015265968586    0.029406564296011    68.0933529669263     0.029406564296011    68.0933529669263     0.989404789287303    -1.58015265968586    
310.079062057013     0.989233937824405    -1.65554600809307    0.030688228036474    68.6369529801509     0.030688228036474    68.6369529801509     0.989233937824405    -1.65554600809307    
312.410064619918     0.989059152985033    -1.7309784619157     0.031974498823977    69.1275005260754     0.031974498823977    69.1275005260754     0.989059152985033    -1.7309784619157     
314.758590368401     0.988880403862586    -1.80645287562711    0.033264997480369    69.5709527312251     0.033264997480369    69.5709527312251     0.988880403862586    -1.80645287562711    
317.12477103206      0.988697658948717    -1.88197208203085    0.034559407665306    69.9724175294855     0.034559407665306    69.9724175294855     0.988697658948717    -1.88197208203085    
319.508739330765     0.988510886133201    -1.95753889186572    0.035857464884509    70.3362967224691     0.035857464884509    70.3362967224691     0.988510886133201    -1.95753889186572    
321.9106289821       0.988320052703848    -2.03315609340242    0.037158947685358    70.6664016508118     0.037158947685358    70.6664016508118     0.988320052703848    -2.03315609340242    
324.330574708863     0.988125125346492    -2.10882645203167    0.038463670554655    70.9660472699462     0.038463670554655    70.9660472699462     0.988125125346492    -2.10882645203167    
326.768712246623     0.987926070145046    -2.18455270984277    0.039771478150868    71.2381290990278     0.039771478150868    71.2381290990278     0.987926070145046    -2.18455270984277    
329.225178351335     0.987722852581622    -2.26033758519389    0.041082240590175    71.4851865083913     0.041082240590175    71.4851865083913     0.987722852581622    -2.26033758519389    
331.700110807008     0.987515437536738    -2.33618377227283    0.042395849570334    71.7094550477379     0.042395849570334    71.7094550477379     0.987515437536738    -2.33618377227283    
334.193648433437     0.987303789289592    -2.41209394064897    0.043712215165036    71.9129099339633     0.043712215165036    71.9129099339633     0.987303789289592    -2.41209394064897    
336.705931093984     0.987087871518438    -2.48807073481562    0.045031263158161    72.0973023693882     0.045031263158161    72.0973023693882     0.987087871518438    -2.48807073481562    
339.23709970343      0.986867647301035    -2.56411677372264    0.046352932815369    72.2641900150349     0.046352932815369    72.2641900150349     0.986867647301035    -2.56411677372264    
341.787296235874     0.986643079115201    -2.64023465030021    0.047677175011983    72.4149626748287     0.047677175011983    72.4149626748287     0.986643079115201    -2.64023465030021    
344.356663732694     0.98641412883946     -2.71642693097209    0.049003950652636    72.5508640367687     0.049003950652636    72.5508640367687     0.98641412883946     -2.71642693097209    
346.94534631058      0.986180757753791    -2.79269615515959    0.050333229331151    72.6730101524726     0.050333229331151    72.6730101524726     0.986180757753791    -2.79269615515959    
349.553489169607     0.985942926540496    -2.86904483477549    0.051664988189135    72.7824052065738     0.051664988189135    72.7824052065738     0.985942926540496    -2.86904483477549    
352.181238601385     0.985700595285163    -2.94547545370789    0.052999210939742    72.8799550244627     0.052999210939742    72.8799550244627     0.985700595285163    -2.94547545370789    
354.828741997263     0.985453723477765    -3.02199046729388    0.054335887029328    72.966478684779      0.054335887029328    72.966478684779      0.985453723477765    -3.02199046729388    
357.496147856598     0.985202270013873    -3.0985923017829     0.055675010914714    73.0427185373475     0.055675010914714    73.0427185373475     0.985202270013873    -3.0985923017829     
360.18360579508      0.984946193195994    -3.17528335379026    0.057016581437788    73.1093488743786     0.057016581437788    73.1093488743786     0.984946193195994    -3.17528335379026    
362.891266553129     0.984685450735058    -3.25206598973902    0.058360601282339    73.166983460032      0.058360601282339    73.166983460032      0.984685450735058    -3.25206598973902    
365.619282004348     0.984419999752023    -3.32894254529302    0.059707076500697    73.2161820887642     0.059707076500697    73.2161820887642     0.984419999752023    -3.32894254529302    
368.36780516404      0.984149796779644    -3.4059153247776     0.061056016099739    73.2574563146122     0.061056016099739    73.2574563146122     0.984149796779644    -3.4059153247776     
371.136990197795     0.983874797764382    -3.48298660059066    0.062407431677653    73.2912744704298     0.062407431677653    73.2912744704298     0.983874797764382    -3.48298660059066    
373.92699243013      0.983594958068468    -3.56015861260255    0.063761337104183    73.31806607708       0.063761337104183    73.31806607708       0.983594958068468    -3.56015861260255    
376.737968353212     0.983310232472137    -3.63743356754504    0.06511774823825     73.338225726902      0.06511774823825     73.338225726902      0.983310232472137    -3.63743356754504    
379.570075635622     0.983020575176022    -3.71481363838923    0.066476682677801    73.3521165127843     0.066476682677801    73.3521165127843     0.983020575176022    -3.71481363838923    
382.423473131212     0.982725939803725    -3.79230096371265    0.067838159537547    73.3600730633865     0.067838159537547    73.3600730633865     0.982725939803725    -3.79230096371265    
385.298320888007     0.982426279404565    -3.86989764705523    0.069202199250853    73.3624042360503     0.069202199250853    73.3624042360503     0.982426279404565    -3.86989764705523    
388.194780157185     0.982121546456524    -3.94760575626342    0.07056882339264     73.3593955114105     0.07056882339264     73.3593955114105     0.982121546456524    -3.94760575626342    
391.113013402118     0.981811692869358    -4.02542732282425    0.071938054520617    73.3513111274        0.071938054520617    73.3513111274        0.981811692869358    -4.02542732282425    
394.053184307492     0.981496669987943    -4.10336434118683    0.073309916032489    73.3383959850186     0.073309916032489    73.3383959850186     0.981496669987943    -4.10336434118683    
397.015457788481     0.981176428595787    -4.18141876807349    0.074684432037204    73.3208773537394     0.074684432037204    73.3208773537394     0.981176428595787    -4.18141876807349    
400                  0.980850918918792    -4.25959252177887    0.076061627238476    73.2989664006225     0.076061627238476    73.2989664006225     0.980850918918792    -4.25959252177887    
