# MHz S MA R 50      
!Freq                MagS11               AngS11               MagS21               AngS21               MagS12               AngS12               MagS22               AngS22               
1                    0.059296441151158    54.2699864747108     0.966572187734069    -2.8545245292604     0.966572187734069    -2.8545245292604     0.059296441151158    54.2699864747108     
1.00779851133806     0.059639547050086    54.4206436847765     0.966517834081234    -2.87664268100079    0.966517834081234    -2.87664268100079    0.059639547050086    54.4206436847765     
1.01565783945522     0.059985754198008    54.5705733543282     0.966463055999378    -2.89893122727585    0.966463055999378    -2.89893122727585    0.059985754198008    54.5705733543282     
1.0235784586318      0.060335085694547    54.7197698398726     0.966407848552441    -2.92139146254228    0.966407848552441    -2.92139146254228    0.060335085694547    54.7197698398726     
1.03156084684684     0.060687564777156    54.8682275863931     0.966352206735301    -2.94402469072042    0.966352206735301    -2.94402469072042    0.060687564777156    54.8682275863931     
1.03960548580688     0.06104321482214     55.0159411271539     0.966296125472748    -2.9668322252553     0.966296125472748    -2.9668322252553     0.06104321482214     55.0159411271539     
1.04771286097506     0.061402059345682    55.1629050834722     0.966239599618436    -2.98981538917784    0.966239599618436    -2.98981538917784    0.061402059345682    55.1629050834722     
1.05588346160041     0.061764122004871    55.3091141644592     0.966182623953882    -3.01297551516662    0.966182623953882    -3.01297551516662    0.061764122004871    55.3091141644592     
1.06411778074737     0.062129426598738    55.4545631667288     0.966125193187389    -3.03631394560939    0.966125193187389    -3.03631394560939    0.062129426598738    55.4545631667288     
1.07241631532557     0.062497997069303    55.599246974078      0.966067301953022    -3.0598320326653     0.966067301953022    -3.0598320326653     0.062497997069303    55.599246974078      
1.08077956611976     0.062869857502608    55.7431605571347     0.966008944809464    -3.08353113832669    0.966008944809464    -3.08353113832669    0.062869857502608    55.7431605571347     
1.08920803782009     0.063245032129777    55.8862989729783     0.965950116238978    -3.10741263448173    0.965950116238978    -3.10741263448173    0.063245032129777    55.8862989729783     
1.09770223905254     0.063623545328061    56.0286573647313     0.965890810646256    -3.13147790297664    0.965890810646256    -3.13147790297664    0.063623545328061    56.0286573647313     
1.10626268240961     0.0640054216219      56.1702309611228     0.965831022357344    -3.15572833567863    0.965831022357344    -3.15572833567863    0.0640054216219      56.1702309611228     
1.11488988448126     0.064390685683978    56.3110150760246     0.965770745618412    -3.18016533453847    0.965770745618412    -3.18016533453847    0.064390685683978    56.3110150760246     
1.12358436588608     0.064779362336289    56.4510051079614     0.965709974594678    -3.20479031165369    0.965709974594678    -3.20479031165369    0.064779362336289    56.4510051079614     
1.13234665130272     0.065171476551197    56.5901965395948     0.965648703369195    -3.22960468933161    0.965648703369195    -3.22960468933161    0.065171476551197    56.5901965395948     
1.14117726950152     0.065567053452511    56.728584937182      0.965586925941671    -3.2546099001529     0.965586925941671    -3.2546099001529     0.065567053452511    56.728584937182      
1.15007675337647     0.065966118316548    56.8661659500101     0.965524636227248    -3.2798073870347     0.965524636227248    -3.2798073870347     0.065966118316548    56.8661659500101     
1.15904563997732     0.066368696573202    57.0029353098073     0.965461828055286    -3.30519860329445    0.965461828055286    -3.30519860329445    0.066368696573202    57.0029353098073     
1.16808447054201     0.066774813807026    57.1388888301298     0.965398495168122    -3.33078501271364    0.965398495168122    -3.33078501271364    0.066774813807026    57.1388888301298     
1.17719379052935     0.067184495758291    57.2740224057268     0.965334631219797    -3.35656808960149    0.965334631219797    -3.35656808960149    0.067184495758291    57.2740224057268     
1.18637414965189     0.067597768324071    57.4083320118849     0.965270229774808    -3.38254931885916    0.965270229774808    -3.38254931885916    0.067597768324071    57.4083320118849     
1.19562610190914     0.068014657559311    57.5418137037495     0.965205284306773    -3.4087301960437     0.965205284306773    -3.4087301960437     0.068014657559311    57.5418137037495     
1.20495020562097     0.068435189677901    57.6744636156271     0.965139788197153    -3.43511222743224    0.965139788197153    -3.43511222743224    0.068435189677901    57.6744636156271     
1.2143470234613      0.068859391053751    57.8062779602683     0.965073734733904    -3.46169693008643    0.965073734733904    -3.46169693008643    0.068859391053751    57.8062779602683     
1.22381712249211     0.069287288221858    57.9372530281312     0.965007117110133    -3.48848583191669    0.965007117110133    -3.48848583191669    0.069287288221858    57.9372530281312     
1.23336107419758     0.069718907879384    58.0673851866262     0.964939928422719    -3.51548047174669    0.964939928422719    -3.51548047174669    0.069718907879384    58.0673851866262     
1.24297945451864     0.070154276886717    58.1966708793445     0.964872161670947    -3.54268239937802    0.964872161670947    -3.54268239937802    0.070154276886717    58.1966708793445     
1.25267284388768     0.070593422268547    58.3251066252689     0.964803809755099    -3.57009317565467    0.964803809755099    -3.57009317565467    0.070593422268547    58.3251066252689     
1.26244182726363     0.071036371214917    58.4526890179679     0.964734865474988    -3.5977143725276     0.964734865474988    -3.5977143725276     0.071036371214917    58.4526890179679     
1.27228699416719     0.071483151082302    58.5794147247762     0.964665321528581    -3.62554757311979    0.964665321528581    -3.62554757311979    0.071483151082302    58.5794147247762     
1.28220893871647     0.071933789394651    58.7052804859581     0.96459517051048     -3.65359437179052    0.96459517051048     -3.65359437179052    0.071933789394651    58.7052804859581     
1.29220825966282     0.072388313844454    58.8302831138582     0.964524404910472    -3.68185637420065    0.964524404910472    -3.68185637420065    0.072388313844454    58.8302831138582     
1.30228556042694     0.072846752293782    58.9544194920382     0.964453017111986    -3.71033519737681    0.964453017111986    -3.71033519737681    0.072846752293782    58.9544194920382     
1.31244144913533     0.073309132775343    59.0776865744007     0.964380999390623    -3.73903246977679    0.964380999390623    -3.73903246977679    0.073309132775343    59.0776865744007     
1.32267653865696     0.073775483493517    59.200081384301      0.964308343912557    -3.76794983135388    0.964308343912557    -3.76794983135388    0.073775483493517    59.200081384301      
1.33299144664026     0.074245832825392    59.3216010136474     0.964235042732999    -3.79708893362184    0.964235042732999    -3.79708893362184    0.074245832825392    59.3216010136474     
1.34338679555043     0.074720209321796    59.4422426219906     0.964161087794593    -3.82645143971964    0.964161087794593    -3.82645143971964    0.074720209321796    59.4422426219906     
1.35386321270694     0.075198641708322    59.5620034356019     0.96408647092585     -3.85603902447616    0.96408647092585     -3.85603902447616    0.075198641708322    59.5620034356019     
1.36442133032142     0.075681158886339    59.6808807465436     0.96401118383943     -3.88585337447465    0.96401118383943     -3.88585337447465    0.075681158886339    59.6808807465436     
1.37506178553583     0.076167789934007    59.7988719117286     0.963935218130591    -3.91589618811765    0.963935218130591    -3.91589618811765    0.076167789934007    59.7988719117286     
1.38578522046087     0.076658564107279    59.9159743519722     0.963858565275436    -3.94616917569124    0.963858565275436    -3.94616917569124    0.076658564107279    59.9159743519722     
1.39659228221475     0.077153510840891    60.0321855510366     0.963781216629262    -3.97667405942956    0.963781216629262    -3.97667405942956    0.077153510840891    60.0321855510366     
1.40748362296226     0.077652659749351    60.1475030546667     0.963703163424817    -4.0074125735791     0.963703163424817    -4.0074125735791     0.077652659749351    60.1475030546667     
1.41845989995407     0.078156040627915    60.2619244696209     0.963624396770572    -4.03838646446294    0.963624396770572    -4.03838646446294    0.078156040627915    60.2619244696209     
1.42952177556645     0.078663683453551    60.3754474626944     0.963544907648939    -4.06959749054479    0.963544907648939    -4.06959749054479    0.078663683453551    60.3754474626944     
1.44066991734121     0.079175618385899    60.488069759738      0.963464686914508    -4.10104742249301    0.963464686914508    -4.10104742249301    0.079175618385899    60.488069759738      
1.45190499802601     0.079691875768215    60.5997891446708     0.963383725292212    -4.13273804324417    0.963383725292212    -4.13273804324417    0.079691875768215    60.5997891446708     
1.46322769561491     0.080212486128304    60.7106034584894     0.963302013375503    -4.16467114806686    0.963302013375503    -4.16467114806686    0.080212486128304    60.7106034584894     
1.47463869338933     0.080737480179447    60.8205105982726     0.963219541624475    -4.19684854462496    0.963219541624475    -4.19684854462496    0.080737480179447    60.8205105982726     
1.48613867995927     0.08126688882131     60.9295085161828     0.963136300364003    -4.22927205304088    0.963136300364003    -4.22927205304088    0.08126688882131     60.9295085161828     
1.49772834930487     0.081800743140842    61.0375952184644     0.963052279781829    -4.26194350595863    0.963052279781829    -4.26194350595863    0.081800743140842    61.0375952184644     
1.50940840081826     0.082339074413159    61.1447687644404     0.962967469926616    -4.2948647486063     0.962967469926616    -4.2948647486063     0.082339074413159    61.1447687644404     
1.52117953934581     0.082881914102416    61.2510272655059     0.962881860705981    -4.32803763885876    0.962881860705981    -4.32803763885876    0.082881914102416    61.2510272655059     
1.53304247523063     0.083429293862666    61.3563688841211     0.962795441884568    -4.36146404729983    0.962795441884568    -4.36146404729983    0.083429293862666    61.3563688841211     
1.54499792435545     0.083981245538693    61.4607918328028     0.962708203081939    -4.39514585728399    0.962708203081939    -4.39514585728399    0.083981245538693    61.4607918328028     
1.55704660818583     0.084537801166849    61.5642943731161     0.962620133770651    -4.4290849649982     0.962620133770651    -4.4290849649982     0.084537801166849    61.5642943731161     
1.56918925381366     0.085098992975855    61.6668748146649     0.96253122327411     -4.46328327952313    0.96253122327411     -4.46328327952313    0.085098992975855    61.6668748146649     
1.58142659400109     0.085664853387598    61.7685315140838     0.962441460764512    -4.49774272289383    0.962441460764512    -4.49774272289383    0.085664853387598    61.7685315140838     
1.59375936722473     0.086235415017903    61.8692628740302     0.962350835260747    -4.53246523016061    0.962350835260747    -4.53246523016061    0.086235415017903    61.8692628740302     
1.60618831772017     0.086810710677292    61.9690673421776     0.962259335626219    -4.56745274944877    0.962259335626219    -4.56745274944877    0.086810710677292    61.9690673421776     
1.61871419552698     0.087390773371722    62.0679434102113     0.962166950566711    -4.60270724201867    0.962166950566711    -4.60270724201867    0.087390773371722    62.0679434102113     
1.63133775653388     0.087975636303306    62.1658896128245     0.962073668628196    -4.63823068232507    0.962073668628196    -4.63823068232507    0.087975636303306    62.1658896128245     
1.64405976252442     0.088565332871004    62.2629045267187     0.961979478194561    -4.67402505807536    0.961979478194561    -4.67402505807536    0.088565332871004    62.2629045267187     
1.65688098122293     0.089159896671311    62.3589867696054     0.961884367485417    -4.71009237028871    0.961884367485417    -4.71009237028871    0.089159896671311    62.3589867696054     
1.66980218634082     0.089759361498905    62.4541349992117     0.961788324553791    -4.74643463335324    0.961788324553791    -4.74643463335324    0.089759361498905    62.4541349992117     
1.68282415762332     0.090363761347284    62.5483479122891     0.961691337283815    -4.7830538750837     0.961691337283815    -4.7830538750837     0.090363761347284    62.5483479122891     
1.69594768089651     0.090973130409383    62.6416242436259     0.961593393388423    -4.81995213677823    0.961593393388423    -4.81995213677823    0.090973130409383    62.6416242436259     
1.70917354811475     0.091587503078147    62.7339627650649     0.961494480406926    -4.85713147327411    0.961494480406926    -4.85713147327411    0.091587503078147    62.7339627650649     
1.72250255740844     0.092206913947109    62.8253622845239     0.961394585702694    -4.89459395300385    0.961394585702694    -4.89459395300385    0.092206913947109    62.8253622845239     
1.73593551313223     0.092831397810921    62.9158216450219     0.961293696460678    -4.93234165804997    0.961293696460678    -4.93234165804997    0.092831397810921    62.9158216450219     
1.74947322591354     0.093460989665866    63.005339723711      0.96119179968498     -4.97037668419896    0.96119179968498     -4.97037668419896    0.093460989665866    63.005339723711      
1.76311651270147     0.094095724710343    63.0939154309127     0.961088882196374    -5.00870114099526    0.961088882196374    -5.00870114099526    0.094095724710343    63.0939154309127     
1.7768661968161      0.094735638345327    63.1815477091599     0.960984930629782    -5.04731715179394    0.960984930629782    -5.04731715179394    0.094735638345327    63.1815477091599     
1.79072310799819     0.095380766174793    63.2682355322461     0.960879931431751    -5.08622685381274    0.960879931431751    -5.08622685381274    0.095380766174793    63.2682355322461     
1.80468808245925     0.096031144006122    63.3539779042793     0.960773870857863    -5.12543239818359    0.960773870857863    -5.12543239818359    0.096031144006122    63.3539779042793     
1.81876196293198     0.096686807850468    63.4387738587432     0.96066673497015     -5.16493595000314    0.96066673497015     -5.16493595000314    0.096686807850468    63.4387738587432     
1.83294559872114     0.097347793923097    63.5226224575654     0.960558509634469    -5.20473968838229    0.960558509634469    -5.20473968838229    0.097347793923097    63.5226224575654     
1.84723984575483     0.098014138643694    63.6055227901919     0.960449180517787    -5.24484580649514    0.960449180517787    -5.24484580649514    0.098014138643694    63.6055227901919     
1.86164556663607     0.098685878636633    63.6874739726693     0.960338733085565    -5.28525651162678    0.960338733085565    -5.28525651162678    0.098685878636633    63.6874739726693     
1.87616363069494     0.099363050731228    63.7684751467342     0.960227152598964    -5.32597402522052    0.960227152598964    -5.32597402522052    0.099363050731228    63.7684751467342     
1.89079491404098     0.100045691961929    63.8485254789108     0.960114424112125    -5.36700058292374    0.960114424112125    -5.36700058292374    0.100045691961929    63.8485254789108     
1.90554029961608     0.1007338395685      63.9276241596153     0.960000532469384    -5.40833843463295    0.960000532469384    -5.40833843463295    0.1007338395685      63.9276241596153     
1.92040067724777     0.101427530996146    64.0057704022699     0.959885462302421    -5.44998984453769    0.959885462302421    -5.44998984453769    0.101427530996146    64.0057704022699     
1.93537694370291     0.102126803895613    64.0829634424234     0.959769198027424    -5.49195709116344    0.959769198027424    -5.49195709116344    0.102126803895613    64.0829634424234     
1.95047000274181     0.102831696123246    64.1592025368815     0.959651723842224    -5.53424246741348    0.959651723842224    -5.53424246741348    0.102831696123246    64.1592025368815     
1.96568076517275     0.103542245741009    64.2344869628457     0.959533023723342    -5.57684828060943    0.959533023723342    -5.57684828060943    0.103542245741009    64.2344869628457     
1.98101014890696     0.10425849101646     64.3088160170601     0.959413081423066    -5.61977685253076    0.959413081423066    -5.61977685253076    0.10425849101646     64.3088160170601     
1.99645907901403     0.104980470422686    64.3821890149675     0.959291880466468    -5.66303051945274    0.959291880466468    -5.66303051945274    0.104980470422686    64.3821890149675     
2.0120284877777      0.1057082226382      64.4546052898761     0.959169404148354    -5.70661163218371    0.959169404148354    -5.70661163218371    0.1057082226382      64.4546052898761     
2.02771931475215     0.10644178654679     64.5260641921327     0.959045635530281    -5.7505225561004     0.959045635530281    -5.7505225561004     0.10644178654679     64.5260641921327     
2.04353250681865     0.107181201237319    64.596565088308      0.958920557437403    -5.79476567118223    0.958920557437403    -5.79476567118223    0.107181201237319    64.596565088308      
2.05946901824278     0.107926506003491    64.6661073603898     0.958794152455426    -5.83934337204428    0.958794152455426    -5.83934337204428    0.107926506003491    64.6661073603898     
2.07552981073194     0.108677740343555    64.7346904049869     0.958666402927408    -5.88425806796851    0.958666402927408    -5.88425806796851    0.108677740343555    64.7346904049869     
2.09171585349342     0.109434943959973    64.8023136325418     0.958537290950609    -5.92951218293376    0.958537290950609    -5.92951218293376    0.109434943959973    64.8023136325418     
2.1080281232929      0.110198156759025    64.8689764665544     0.958406798373248    -5.97510815564382    0.958406798373248    -5.97510815564382    0.110198156759025    64.8689764665544     
2.12446760451336     0.110967418850383    64.9346783428155     0.958274906791297    -6.02104843955476    0.958274906791297    -6.02104843955476    0.110967418850383    64.9346783428155     
2.1410352892145      0.111742770546613    64.9994187086495     0.958141597545183    -6.06733550289961    0.958141597545183    -6.06733550289961    0.111742770546613    64.9994187086495     
2.15773217719264     0.112524252362627    65.063197022169      0.958006851716437    -6.11397182871159    0.958006851716437    -6.11397182871159    0.112524252362627    65.063197022169      
2.17455927604098     0.113311905015097    65.1260127515387     0.957870650124399    -6.16095991484652    0.957870650124399    -6.16095991484652    0.113311905015097    65.1260127515387     
2.19151760121048     0.114105769421787    65.1878653742493     0.957732973322824    -6.20830227400204    0.957732973322824    -6.20830227400204    0.114105769421787    65.1878653742493     
2.20860817607109     0.114905886700853    65.2487543764042     0.957593801596436    -6.25600143373613    0.957593801596436    -6.25600143373613    0.114905886700853    65.2487543764042     
2.22583203197352     0.115712298170059    65.3086792520138     0.957453114957515    -6.30405993648299    0.957453114957515    -6.30405993648299    0.115712298170059    65.3086792520138     
2.24319020831149     0.116525045345962    65.3676395023033     0.957310893142403    -6.35248033956742    0.957310893142403    -6.35248033956742    0.116525045345962    65.3676395023033     
2.26068375258444     0.117344169943001    65.42563463503       0.957167115607964    -6.40126521521684    0.957167115607964    -6.40126521521684    0.117344169943001    65.42563463503       
2.27831372046075     0.118169713872558    65.4826641638105     0.957021761528074    -6.45041715057178    0.957021761528074    -6.45041715057178    0.118169713872558    65.4826641638105     
2.29608117584143     0.119001719241921    65.5387276074613     0.956874809790008    -6.49993874769343    0.956874809790008    -6.49993874769343    0.119001719241921    65.5387276074613     
2.31398719092434     0.119840228353212    65.5938244893482     0.956726238990832    -6.5498326235698     0.956726238990832    -6.5498326235698     0.119840228353212    65.5938244893482     
2.3320328462689      0.120685283702226    65.6479543367488     0.956576027433769    -6.60010141011949    0.956576027433769    -6.60010141011949    0.120685283702226    65.6479543367488     
2.35021923086127     0.121536927977203    65.7011166802235     0.956424153124485    -6.6507477541923     0.956424153124485    -6.6507477541923     0.121536927977203    65.7011166802235     
2.36854744218008     0.12239520405754     65.7533110530004     0.956270593767385    -6.70177431756862    0.956270593767385    -6.70177431756862    0.12239520405754     65.7533110530004     
2.38701858626266     0.123260155012424    65.8045369903706     0.956115326761872    -6.75318377695609    0.956115326761872    -6.75318377695609    0.123260155012424    65.8045369903706     
2.4056337777718      0.12413182409939     65.854794029094      0.955958329198552    -6.80497882398313    0.955958329198552    -6.80497882398313    0.12413182409939     65.854794029094      
2.42439414006298     0.125010254762799    65.9040817068162     0.955799577855447    -6.85716216519031    0.955799577855447    -6.85716216519031    0.125010254762799    65.9040817068162     
2.4433008052522      0.125895490632254    65.9523995614996     0.955639049194081    -6.90973652201983    0.955639049194081    -6.90973652201983    0.125895490632254    65.9523995614996     
2.46235491428426     0.126787575520917    65.9997471308625     0.95547671935568     -6.96270463080047    0.95547671935568     -6.96270463080047    0.126787575520917    65.9997471308625     
2.48155761700165     0.127686553423765    66.0461239518323     0.955312564157198    -7.016069242732      0.955312564157198    -7.016069242732      0.127686553423765    66.0461239518323     
2.50091007221389     0.128592468515744    66.0915295600076     0.955146559087431    -7.0698331238648     0.955146559087431    -7.0698331238648     0.128592468515744    66.0915295600076     
2.52041344776753     0.129505365149854    66.1359634891353     0.954978679302976    -7.12399905507779    0.954978679302976    -7.12399905507779    0.129505365149854    66.1359634891353     
2.54006892061656     0.130425287855137    66.1794252705965     0.954808899624272    -7.17856983205273    0.954808899624272    -7.17856983205273    0.130425287855137    66.1794252705965     
2.55987767689345     0.131352281334586    66.221914432905      0.95463719453155     -7.23354826524579    0.95463719453155     -7.23354826524579    0.131352281334586    66.221914432905      
2.57984091198076     0.132286390462959    66.2634305012181     0.954463538160761    -7.28893717985575    0.954463538160761    -7.28893717985575    0.132286390462959    66.2634305012181     
2.59995983058324     0.133227660284496    66.3039729968581     0.954287904299478    -7.34473941578902    0.954287904299478    -7.34473941578902    0.133227660284496    66.3039729968581     
2.62023564680056     0.134176136010551    66.3435414368461     0.95411026638278     -7.40095782762144    0.95411026638278     -7.40095782762144    0.134176136010551    66.3435414368461     
2.64066958420053     0.135131863017127    66.3821353334476     0.953930597489085    -7.45759528455652    0.953930597489085    -7.45759528455652    0.135131863017127    66.3821353334476     
2.661262875893       0.136094886842304    66.4197541937297     0.953748870335974    -7.51465467038057    0.953748870335974    -7.51465467038057    0.136094886842304    66.4197541937297     
2.68201676460422     0.137065253183581    66.4563975191312     0.953565057275967    -7.57213888341346    0.953565057275967    -7.57213888341346    0.137065253183581    66.4563975191312     
2.70293250275187     0.1380430078951      66.4920648050421     0.953379130292275    -7.63005083645681    0.953379130292275    -7.63005083645681    0.1380430078951      66.4920648050421     
2.7240113525206      0.139028196984784    66.5267555403982     0.953191060994581    -7.68839345673758    0.953191060994581    -7.68839345673758    0.139028196984784    66.5267555403982     
2.74525458593825     0.140020866611347    66.5604692072846     0.953000820614674    -7.74716968584811    0.953000820614674    -7.74716968584811    0.140020866611347    66.5604692072846     
2.76666348495256     0.141021063081219    66.593205280554      0.952808380002192    -7.80638247968241    0.952808380002192    -7.80638247968241    0.141021063081219    66.593205280554      
2.78823934150857     0.142028832845338    66.6249632274547     0.952613709620228    -7.86603480836813    0.952613709620228    -7.86603480836813    0.142028832845338    66.6249632274547     
2.80998345762656     0.143044222495851    66.6557425072716     0.952416779541015    -7.9261296561949     0.952416779541015    -7.9261296561949     0.143044222495851    66.6557425072716     
2.83189714548063     0.144067278762675    66.6855425709795     0.952217559441479    -7.98667002153756    0.952217559441479    -7.98667002153756    0.144067278762675    66.6855425709795     
2.8539817274779      0.145098048509969    66.7143628609084     0.952016018598857    -8.04765891677622    0.952016018598857    -8.04765891677622    0.145098048509969    66.7143628609084     
2.87623853633826     0.146136578732451    66.7422028104198     0.951812125886231    -8.10909936821092    0.951812125886231    -8.10909936821092    0.146136578732451    66.7422028104198     
2.89866891517487     0.147182916551639    66.7690618435972     0.951605849768127    -8.17099441597274    0.951605849768127    -8.17099441597274    0.147182916551639    66.7690618435972     
2.92127421757516     0.148237109211917    66.7949393749465     0.951397158295963    -8.23334711392915    0.951397158295963    -8.23334711392915    0.148237109211917    66.7949393749465     
2.94405580768251     0.149299204076516    66.8198348091105     0.951186019103607    -8.29616052958604    0.951186019103607    -8.29616052958604    0.149299204076516    66.8198348091105     
2.96701506027862     0.150369248623335    66.8437475405943     0.950972399402835    -8.35943774398346    0.950972399402835    -8.35943774398346    0.150369248623335    66.8437475405943     
2.99015336086641     0.151447290440652    66.8666769535041     0.950756265978799    -8.42318185158753    0.950756265978799    -8.42318185158753    0.151447290440652    66.8666769535041     
3.01347210575367     0.152533377222686    66.888622421297      0.950537585185485    -8.48739596017685    0.950537585185485    -8.48739596017685    0.152533377222686    66.888622421297      
3.03697270213733     0.153627556765032    66.9095833065444     0.950316322941151    -8.55208319072401    0.950316322941151    -8.55208319072401    0.153627556765032    66.9095833065444     
3.06065656818834     0.154729876959955    66.9295589607069     0.950092444723749    -8.61724667727167    0.950092444723749    -8.61724667727167    0.154729876959955    66.9295589607069     
3.08452513313728     0.155840385791526    66.9485487239219     0.94986591556632     -8.68288956680292    0.94986591556632     -8.68288956680292    0.155840385791526    66.9485487239219     
3.1085798373606      0.156959131330642    66.9665519248038     0.949636700052406    -8.74901501910715    0.949636700052406    -8.74901501910715    0.156959131330642    66.9665519248038     
3.13282213246753     0.158086161729878    66.9835678802562     0.94940476231146     -8.8156262066391     0.94940476231146     -8.8156262066391     0.158086161729878    66.9835678802562     
3.15725348138772     0.159221525218188    66.9995958952976     0.949170066014171    -8.88272631437337    0.949170066014171    -8.88272631437337    0.159221525218188    66.9995958952976     
3.18187535845946     0.16036527009547     67.0146352628977     0.948932574367905    -8.95031853965185    0.948932574367905    -8.95031853965185    0.16036527009547     67.0146352628977     
3.20668924951871     0.161517444726957    67.0286852638293     0.948692250112013    -9.0184060920263     0.948692250112013    -9.0184060920263     0.161517444726957    67.0286852638293     
3.23169665198873     0.162678097537466    67.0417451665293     0.948449055513254    -9.08699219309462    0.948449055513254    -9.08699219309462    0.162678097537466    67.0417451665293     
3.25689907497045     0.163847277005468    67.0538142269754     0.948202952361103    -9.15608007632976    0.948202952361103    -9.15608007632976    0.163847277005468    67.0538142269754     
3.28229803933354     0.165025031657019    67.0648916885741     0.947953901963164    -9.22567298690421    0.947953901963164    -9.22567298690421    0.165025031657019    67.0648916885741     
3.30789507780819     0.16621141005949     67.0749767820613     0.947701865140482    -9.29577418150618    0.947701865140482    -9.29577418150618    0.16621141005949     67.0749767820613     
3.3336917350776      0.167406460815169    67.0840687254166     0.947446802222956    -9.36638692815043    0.947446802222956    -9.36638692815043    0.167406460815169    67.0840687254166     
3.35968956787122     0.168610232554658    67.0921667237891     0.947188673044708    -9.43751450598221    0.947188673044708    -9.43751450598221    0.168610232554658    67.0921667237891     
3.38589014505864     0.169822773930109    67.0992699694384     0.946927436939423    -9.50916020507353    0.946927436939423    -9.50916020507353    0.169822773930109    67.0992699694384     
3.41229504774432     0.171044133608276    67.1053776416858     0.946663052735789    -9.581327326213      0.946663052735789    -9.581327326213      0.171044133608276    67.1053776416858     
3.43890586936297     0.172274360263393    67.1104889068814     0.946395478752849    -9.6540191806886     0.946395478752849    -9.6540191806886     0.172274360263393    67.1104889068814     
3.46572421577573     0.17351350256987     67.114602918381      0.946124672795452    -9.72723909006359    0.946124672795452    -9.72723909006359    0.17351350256987     67.114602918381      
3.49275170536706     0.174761609194792    67.1177188165395     0.945850592149695    -9.80099038594365    0.945850592149695    -9.80099038594365    0.174761609194792    67.1177188165395     
3.51998996914241     0.176018728790224    67.1198357287155     0.945573193578303    -9.87527640973756    0.945573193578303    -9.87527640973756    0.176018728790224    67.1198357287155     
3.54744065082664     0.177284909985353    67.1209527692887     0.945292433316191    -9.95010051241023    0.945292433316191    -9.95010051241023    0.177284909985353    67.1209527692887     
3.57510540696322     0.178560201378401    67.1210690396939     0.945008267065859    -10.0254660542272    0.945008267065859    -10.0254660542272    0.178560201378401    67.1210690396939     
3.6029859070142      0.179844651528353    67.1201836284637     0.944720649993001    -10.1013764044915    0.944720649993001    -10.1013764044915    0.179844651528353    67.1201836284637     
3.63108383346094     0.181138308946487    67.118295611288      0.944429536721996    -10.177834941273     0.944429536721996    -10.177834941273     0.181138308946487    67.118295611288      
3.65940088190564     0.182441222087694    67.1154040510868     0.944134881331479    -10.2548450511276    0.944134881331479    -10.2548450511276    0.182441222087694    67.1154040510868     
3.6879387611737      0.183753439341591    67.1115079980946     0.943836637350007    -10.3324101288108    0.943836637350007    -10.3324101288108    0.183753439341591    67.1115079980946     
3.7166991934168      0.185075009023423    67.1066064899611     0.943534757751649    -10.4105335769796    0.943534757751649    -10.4105335769796    0.185075009023423    67.1066064899611     
3.74568391421684     0.18640597936476     67.1006985518631     0.943229194951714    -10.4892188058883    0.943229194951714    -10.4892188058883    0.18640597936476     67.1006985518631     
3.77489467269066     0.187746398503957    67.0937831966327     0.942919900802464    -10.5684692330739    0.942919900802464    -10.5684692330739    0.187746398503957    67.0937831966327     
3.80433323159564     0.189096314476414    67.0858594248975     0.942606826588881    -10.6482882830324    0.942606826588881    -10.6482882830324    0.189096314476414    67.0858594248975     
3.83400136743601     0.190455775204619    67.0769262252355     0.942289923024539    -10.7286793868875    0.942289923024539    -10.7286793868875    0.190455775204619    67.0769262252355     
3.86390087057011     0.191824828487923    67.0669825743443     0.941969140247436    -10.8096459820469    0.941969140247436    -10.8096459820469    0.191824828487923    67.0669825743443     
3.89403354531841     0.193203521992149    67.0560274372244     0.941644427815959    -10.891191511853     0.941644427815959    -10.891191511853     0.193203521992149    67.0560274372244     
3.92440121007238     0.194591903238912    67.0440597673763     0.941315734704863    -10.9733194252205    0.941315734704863    -10.9733194252205    0.194591903238912    67.0440597673763     
3.95500569740424     0.195990019594744    67.0310785070118     0.940983009301367    -11.0560331762658    0.940983009301367    -11.0560331762658    0.195990019594744    67.0310785070118     
3.98584885417756     0.197397918259966    67.0170825872811     0.940646199401247    -11.1393362239267    0.940646199401247    -11.1393362239267    0.197397918259966    67.0170825872811     
4.01693254165867     0.198815646257308    67.0020709285125     0.940305252205047    -11.2232320315705    0.940305252205047    -11.2232320315705    0.198815646257308    67.0020709285125     
4.04825863562904     0.200243250420313    66.9860424404682     0.939960114314363    -11.3077240665932    0.939960114314363    -11.3077240665932    0.200243250420313    66.9860424404682     
4.0798290264984      0.201680777381476    66.9689960226138     0.939610731728199    -11.3928158000079    0.939610731728199    -11.3928158000079    0.201680777381476    66.9689960226138     
4.11164561941891     0.203128273560133    66.9509305644028     0.939257049839398    -11.4785107060215    0.939257049839398    -11.4785107060215    0.203128273560133    66.9509305644028     
4.14371033440006     0.204585785150109    66.9318449455769     0.938899013431169    -11.5648122616019    0.938899013431169    -11.5648122616019    0.204585785150109    66.9318449455769     
4.17602510642453     0.206053358107112    66.9117380364792     0.938536566673745    -11.6517239460344    0.938536566673745    -11.6517239460344    0.206053358107112    66.9117380364792     
4.20859188556502     0.207531038135848    66.8906086983849     0.938169653121043    -11.7392492404649    0.938169653121043    -11.7392492404649    0.207531038135848    66.8906086983849     
4.24141263710188     0.20901887067691     66.8684557838456     0.937798215707514    -11.827391627434     0.937798215707514    -11.827391627434     0.20901887067691     66.8684557838456     
4.27448934164173     0.210516900893381    66.8452781370485     0.937422196745107    -11.9161545903994    0.937422196745107    -11.9161545903994    0.210516900893381    66.8452781370485     
4.30782399523696     0.212025173657172    66.8210745941928     0.937041537920225    -12.0055416132446    0.937041537920225    -12.0055416132446    0.212025173657172    66.8210745941928     
4.3414186095062      0.213543733535111    66.7958439838795     0.936656180290973    -12.0955561797791    0.936656180290973    -12.0955561797791    0.213543733535111    66.7958439838795     
4.37527521175572     0.215072624774742    66.7695851275177     0.936266064284364    -12.1862017732232    0.936266064284364    -12.1862017732232    0.215072624774742    66.7695851275177     
4.40939584510174     0.216611891289857    66.7422968397469     0.935871129693761    -12.2774818756836    0.935871129693761    -12.2774818756836    0.216611891289857    66.7422968397469     
4.44378256859378     0.218161576645779    66.7139779288744     0.935471315676411    -12.3693999676149    0.935471315676411    -12.3693999676149    0.218161576645779    66.7139779288744     
4.47843745733885     0.219721724044311    66.6846271973281     0.935066560751132    -12.4619595272691    0.935066560751132    -12.4619595272691    0.219721724044311    66.6846271973281     
4.51336260262672     0.221292376308476    66.6542434421268     0.934656802796103    -12.5551640301336    0.934656802796103    -12.5551640301336    0.221292376308476    66.6542434421268     
4.5485601120561      0.222873575866912    66.6228254553648     0.934241979046851    -12.6490169483537    0.934241979046851    -12.6490169483537    0.222873575866912    66.6228254553648     
4.58403210966184     0.224465364738038    66.5903720247135     0.93382202609438     -12.7435217501456    0.93382202609438     -12.7435217501456    0.224465364738038    66.5903720247135     
4.61978073604308     0.2260677845139      66.5568819339393     0.933396879883476    -12.8386818991943    0.933396879883476    -12.8386818991943    0.2260677845139      66.5568819339393     
4.65580814849249     0.227680876343739    66.5223539634374     0.932966475711115    -12.9345008540381    0.932966475711115    -12.9345008540381    0.227680876343739    66.5223539634374     
4.69211652112636     0.229304680917281    66.4867868907824     0.932530748225124    -13.0309820674406    0.932530748225124    -13.0309820674406    0.229304680917281    66.4867868907824     
4.72870804501588     0.230939238447725    66.4501794912948     0.932089631422994    -13.1281289857488    0.932089631422994    -13.1281289857488    0.230939238447725    66.4501794912948     
4.76558492831933     0.232584588654449    66.4125305386247     0.931643058650858    -13.225945048238     0.931643058650858    -13.225945048238     0.232584588654449    66.4125305386247     
4.80274939641534     0.234240770745425    66.3738388053521     0.9311909626027      -13.3244336864419    0.9311909626027      -13.3244336864419    0.234240770745425    66.3738388053521     
4.84020369203716     0.235907823399319    66.3341030636036     0.93073327531971     -13.4235983234691    0.93073327531971     -13.4235983234691    0.235907823399319    66.3341030636036     
4.87795007540805     0.237585784747336    66.2933220856866     0.93026992818993     -13.5234423733062    0.93026992818993     -13.5234423733062    0.237585784747336    66.2933220856866     
4.91599082437764     0.239274692354727    66.251494644739      0.929800851948029    -13.6239692401058    0.929800851948029    -13.6239692401058    0.239274692354727    66.251494644739      
4.95432823455936     0.240974583202034    66.2086195153986     0.929325976675336    -13.7251823174601    0.929325976675336    -13.7251823174601    0.240974583202034    66.2086195153986     
4.99296461946907     0.242685493666017    66.1646954744864     0.928845231800122    -13.8270849876608    0.928845231800122    -13.8270849876608    0.242685493666017    66.1646954744864     
5.03190231066455     0.244407459500302    66.1197213017096     0.928358546098091    -13.9296806209433    0.928358546098091    -13.9296806209433    0.244407459500302    66.1197213017096     
5.0711436578863      0.246140515815705    66.0736957803805     0.92786584769309     -14.0329725747168    0.92786584769309     -14.0329725747168    0.246140515815705    66.0736957803805     
5.11069102919928     0.247884697060295    66.0266176981533     0.927367064058151    -14.1369641927797    0.927367064058151    -14.1369641927797    0.247884697060295    66.0266176981533     
5.15054681113583     0.249640036999126    65.9784858477781     0.926862122016703    -14.2416588045187    0.926862122016703    -14.2416588045187    0.249640036999126    65.9784858477781     
5.1907134088397      0.251406568693696    65.9292990278727     0.926350947744102    -14.3470597240943    0.926350947744102    -14.3470597240943    0.251406568693696    65.9292990278727     
5.23119324621118     0.253184324481096    65.879056043711      0.925833466769417    -14.4531702496101    0.925833466769417    -14.4531702496101    0.253184324481096    65.879056043711      
5.27198876605336     0.254973335952868    65.8277557080302     0.925309603977508    -14.5599936622672    0.925309603977508    -14.5599936622672    0.254973335952868    65.8277557080302     
5.31310243021958     0.256773633933579    65.7753968418543     0.924779283611402    -14.667533225503     0.924779283611402    -14.667533225503     0.256773633933579    65.7753968418543     
5.35453671976194     0.258585248459082    65.7219782753373     0.924242429274938    -14.7757921841145    0.924242429274938    -14.7757921841145    0.258585248459082    65.7219782753373     
5.39629413508108     0.260408208754497    65.6674988486221     0.923698963935736    -14.8847737633652    0.923698963935736    -14.8847737633652    0.260408208754497    65.6674988486221     
5.43837719607705     0.262242543211909    65.6119574127165     0.923148809928526    -14.9944811680784    0.923148809928526    -14.9944811680784    0.262242543211909    65.6119574127165     
5.48078844230132     0.264088279367755    65.5553528303918     0.922591888958686    -15.1049175817115    0.922591888958686    -15.1049175817115    0.264088279367755    65.5553528303918     
5.52353043311014     0.265945443879962    65.497683977092      0.92202812210628     -15.2160861654186    0.92202812210628     -15.2160861654186    0.265945443879962    65.497683977092      
5.56660574781889     0.267814062504756    65.4389497418671     0.92145742983026     -15.3279900570923    0.92145742983026     -15.3279900570923    0.267814062504756    65.4389497418671     
5.61001698585779     0.269694160073229    65.3791490283214     0.920879731973159    -15.440632370394     0.920879731973159    -15.440632370394     0.269694160073229    65.3791490283214     
5.65376676692873     0.271585760467607    65.3182807555791     0.92029494776607     -15.554016193765     0.92029494776607     -15.554016193765     0.271585760467607    65.3182807555791     
5.6978577311634      0.273488886597261    65.256343859269      0.919702995834014    -15.6681445894244    0.919702995834014    -15.6681445894244    0.273488886597261    65.256343859269      
5.74229253928255     0.275403560374416    65.1933372925275     0.91910379420169     -15.7830205923469    0.91910379420169     -15.7830205923469    0.275403560374416    65.1933372925275     
5.78707387275663     0.277329802689642    65.1292600270173     0.918497260299619    -15.8986472092299    0.918497260299619    -15.8986472092299    0.277329802689642    65.1292600270173     
5.83220443396754     0.27926763338703     65.0641110539664     0.917883310970627    -16.0150274174387    0.917883310970627    -16.0150274174387    0.27926763338703     65.0641110539664     
5.87768694637174     0.281217071239153    64.9978893852225     0.917261862476849    -16.1321641639406    0.917261862476849    -16.1321641639406    0.281217071239153    64.9978893852225     
5.92352415466461     0.28317813392174     64.9305940543272     0.91663283050701     -16.2500603642188    0.91663283050701     -16.2500603642188    0.28317813392174     64.9305940543272     
5.96971882494606     0.285150837988145    64.8622241176061     0.915996130184256    -16.3687189011742    0.915996130184256    -16.3687189011742    0.285150837988145    64.8622241176061     
6.01627374488746     0.287135198843518    64.7927786552777     0.915351676074307    -16.488142624007     0.915351676074307    -16.488142624007     0.287135198843518    64.7927786552777     
6.06319172389986     0.289131230718796    64.7222567725791     0.91469938219416     -16.6083343470856    0.91469938219416     -16.6083343470856    0.289131230718796    64.7222567725791     
6.11047559330355     0.291138946644431    64.6506576009097     0.914039162021154    -16.7292968487983    0.914039162021154    -16.7292968487983    0.291138946644431    64.6506576009097     
6.15812820649889     0.293158358423892    64.5779802989919     0.913370928502526    -16.8510328703874    0.913370928502526    -16.8510328703874    0.293158358423892    64.5779802989919     
6.20615243913853     0.295189476606993    64.5042240540482     0.912694594065503    -16.9735451147717    0.912694594065503    -16.9735451147717    0.295189476606993    64.5042240540482     
6.2545511893009      0.297232310462957    64.4293880829975     0.91201007062775     -17.0968362453484    0.91201007062775     -17.0968362453484    0.297232310462957    64.4293880829975     
6.30332737766517     0.299286867953322    64.3534716336659     0.911317269608416    -17.2209088847827    0.911317269608416    -17.2209088847827    0.299286867953322    64.3534716336659     
6.35248394768742     0.301353155704639    64.2764739860168     0.910616101939612    -17.3457656137802    0.910616101939612    -17.3457656137802    0.301353155704639    64.2764739860168     
6.40202386577833     0.303431178980995    64.1983944533947     0.909906478078448    -17.4714089698452    0.909906478078448    -17.4714089698452    0.303431178980995    64.1983944533947     
6.45195012148216     0.305520941656356    64.1192323837887     0.909188308019552    -17.5978414460224    0.909188308019552    -17.5978414460224    0.305520941656356    64.1192323837887     
6.50226572765716     0.307622446186742    64.0389871611103     0.908461501308121    -17.7250654896236    0.908461501308121    -17.7250654896236    0.307622446186742    64.0389871611103     
6.5529737206574      0.309735693582274    63.957658206487      0.907725967053515    -17.8530835009414    0.907725967053515    -17.8530835009414    0.309735693582274    63.957658206487      
6.60407716051599     0.311860683379057    63.8752449795733     0.906981613943419    -17.9818978319453    0.906981613943419    -17.9818978319453    0.311860683379057    63.8752449795733     
6.65557913112972     0.313997413610923    63.7917469798764     0.906228350258485    -18.111510784965     0.906228350258485    -18.111510784965     0.313997413610923    63.7917469798764     
6.70748274044522     0.316145880781088    63.7071637480979     0.905466083887632    -18.2419246113589    0.905466083887632    -18.2419246113589    0.316145880781088    63.7071637480979     
6.75979112064645     0.318306079833675    63.6214948674898     0.904694722343852    -18.373141510169     0.904694722343852    -18.373141510169     0.318306079833675    63.6214948674898     
6.81250742834376     0.320478004125154    63.5347399652252     0.903914172780611    -18.5051636267611    0.903914172780611    -18.5051636267611    0.320478004125154    63.5347399652252     
6.86563484476434     0.322661645395687    63.446898713786      0.903124342008838    -18.6379930514516    0.903124342008838    -18.6379930514516    0.322661645395687    63.446898713786      
6.91917657594425     0.324856993740429    63.3579708323616     0.902325136514525    -18.7716318181214    0.902325136514525    -18.7716318181214    0.324856993740429    63.3579708323616     
6.97313585292182     0.327064037580763    63.267956088263      0.901516462476926    -18.9060819028174    0.901516462476926    -18.9060819028174    0.327064037580763    63.267956088263      
7.02751593193269     0.329282763635478    63.1768542983513     0.900698225787335    -19.041345222339     0.900698225787335    -19.041345222339     0.329282763635478    63.1768542983513     
7.08232009460629     0.331513156891963    63.084665330478      0.899870332068529    -19.1774236328152    0.899870332068529    -19.1774236328152    0.331513156891963    63.084665330478      
7.13755164816388     0.333755200577357    62.9913891049392     0.899032686694811    -19.3143189282673    0.899032686694811    -19.3143189282673    0.333755200577357    62.9913891049392     
7.1932139256181      0.336008876129728    62.8970255959411     0.898185194812697    -19.4520328391618    0.898185194812697    -19.4520328391618    0.336008876129728    62.8970255959411     
7.24931028597416     0.338274163169271    62.8015748330786     0.897327761362244    -19.5905670309512    0.897327761362244    -19.5905670309512    0.338274163169271    62.8015748330786     
7.30584411443247     0.340551039469554    62.7050369028246     0.89646029109901     -19.729923102604     0.89646029109901     -19.729923102604     0.340551039469554    62.7050369028246     
7.362818822593       0.342839480928807    62.6074119500316     0.89558268861669     -19.8701025851246    0.89558268861669     -19.8701025851246    0.342839480928807    62.6074119500316     
7.42023784866111     0.345139461541316    62.508700179442      0.894694858370393    -20.0111069400634    0.894694858370393    -20.0111069400634    0.345139461541316    62.508700179442      
7.47810465765502     0.347450953368892    62.4089018572107     0.893796704700576    -20.1529375580175    0.893796704700576    -20.1529375580175    0.347450953368892    62.4089018572107     
7.53642274161498     0.349773926512482    62.3080173124351     0.892888131857703    -20.2955957571224    0.892888131857703    -20.2955957571224    0.349773926512482    62.3080173124351     
7.5951956198139      0.352108349083886    62.2060469386957     0.89196904402749     -20.4390827815355    0.89196904402749     -20.4390827815355    0.352108349083886    62.2060469386957     
7.65442683896984     0.354454187177662    62.1029911956049     0.891039345356896    -20.5833997999114    0.891039345356896    -20.5833997999114    0.354454187177662    62.1029911956049     
7.71411997345993     0.3568114048432      61.9988506103623     0.890098939980784    -20.7285479038714    0.890098939980784    -20.7285479038714    0.3568114048432      61.9988506103623     
7.77427862553614     0.359179964056992    61.8936257793192     0.889147732049254    -20.8745281064643    0.889147732049254    -20.8745281064643    0.359179964056992    61.8936257793192     
7.83490642554266     0.361559824695119    61.7873173695491     0.888185625755642    -21.0213413406222    0.888185625755642    -21.0213413406222    0.361559824695119    61.7873173695491     
7.89600703213492     0.363950944506013    61.6799261204223     0.88721252536528     -21.1689884576116    0.88721252536528     -21.1689884576116    0.363950944506013    61.6799261204223     
7.95758413250046     0.366353279083469    61.5714528451883     0.886228335244909    -21.3174702254794    0.886228335244909    -21.3174702254794    0.366353279083469    61.5714528451883     
8.01964144258137     0.368766781839933    61.4618984325621     0.88523295989274     -21.4667873274938    0.88523295989274     -21.4667873274938    0.368766781839933    61.4618984325621     
8.08218270729854     0.37119140398015     61.3512638483123     0.884226303969297    -21.6169403605839    0.884226303969297    -21.6169403605839    0.37119140398015     61.3512638483123     
8.14521170077772     0.373627094475116    61.2395501368556     0.883208272328913    -21.7679298337746    0.883208272328913    -21.7679298337746    0.373627094475116    61.2395501368556     
8.20873222657717     0.376073800036425    61.1267584228501     0.882178770051906    -21.9197561666222    0.882178770051906    -21.9197561666222    0.376073800036425    61.1267584228501     
8.27274811791726     0.378531465090987    61.0128899127928     0.881137702477492    -22.0724196876464    0.881137702477492    -22.0724196876464    0.378531465090987    61.0128899127928     
8.33726323791179     0.381000031756187    60.8979458966163     0.880084975237335    -22.2259206327643    0.880084975237335    -22.2259206327643    0.381000031756187    60.8979458966163     
8.40228147980107     0.383479439815481    60.781927749285      0.879020494289864    -22.3802591437239    0.879020494289864    -22.3802591437239    0.383479439815481    60.781927749285      
8.4678067671869      0.385969626694466    60.6648369323921     0.877944165955198    -22.5354352665394    0.877944165955198    -22.5354352665394    0.385969626694466    60.6648369323921     
8.53384305426935     0.388470527437441    60.5466749957522     0.876855896950802    -22.6914489499282    0.876855896950802    -22.6914489499282    0.388470527437441    60.5466749957522     
8.60039432608533     0.390982074684532    60.4274435789922     0.875755594427824    -22.8483000437538    0.875755594427824    -22.8483000437538    0.390982074684532    60.4274435789922     
8.66746459874913     0.393504198649333    60.3071444131386     0.874643166008083    -23.005988297469     0.874643166008083    -23.005988297469     0.393504198649333    60.3071444131386     
8.73505791969474     0.396036827097169    60.1857793221984     0.873518519821752    -23.1645133585679    0.873518519821752    -23.1645133585679    0.396036827097169    60.1857793221984     
8.80317836792013     0.398579885323945    60.0633502247374     0.872381564545662    -23.3238747710417    0.872381564545662    -23.3238747710417    0.398579885323945    60.0633502247374     
8.87183005423335     0.401133296135672    59.9398591354471     0.871232209442332    -23.4840719738432    0.871232209442332    -23.4840719738432    0.401133296135672    59.9398591354471     
8.94101712150067     0.403696979828639    59.8153081667076     0.870070364399561    -23.6451042993583    0.870070364399561    -23.6451042993583    0.403696979828639    59.8153081667076     
9.01074374489652     0.406270854170323    59.6896995301391     0.868895939970733    -23.8069709718888    0.868895939970733    -23.8069709718888    0.406270854170323    59.6896995301391     
9.08101413215548     0.408854834380988    59.5630355381458     0.867708847415679    -23.9696711061416    0.867708847415679    -23.9696711061416    0.408854834380988    59.5630355381458     
9.15183252382622     0.411448833116111    59.4353186054447     0.866508998742221    -24.1332037057348    0.866508998742221    -24.1332037057348    0.411448833116111    59.4353186054447     
9.22320319352734     0.414052760449554    59.3065512505863     0.865296306748278    -24.2975676617116    0.865296306748278    -24.2975676617116    0.414052760449554    59.3065512505863     
9.29513044820534     0.41666652385759     59.1767360974602     0.864070685064562    -24.46276175107      0.864070685064562    -24.46276175107      0.41666652385759     59.1767360974602     
9.36761862839445     0.419290028203793    59.0458758767841     0.8628320481979      -24.6287846353083    0.8628320481979      -24.6287846353083    0.419290028203793    59.0458758767841     
9.44067210847864     0.421923175724788    58.9139734275812     0.861580311575033    -24.7956348589831    0.861580311575033    -24.7956348589831    0.421923175724788    58.9139734275812     
9.51429529695556     0.424565866016978    58.7810316986357     0.860315391587061    -24.9633108482901    0.860315391587061    -24.9633108482901    0.424565866016978    58.7810316986357     
9.58849263670256     0.427217996024156    58.6470537499349     0.859037205634344    -25.131810909657     0.859037205634344    -25.131810909657     0.427217996024156    58.6470537499349     
9.66326860524483     0.42987946002617     58.5120427540876     0.857745672171938    -25.3011332283616    0.857745672171938    -25.3011332283616    0.42987946002617     58.5120427540876     
9.73862771502559     0.432550149628548    58.3760019977249     0.856440710755548    -25.471275867167     0.856440710755548    -25.471275867167     0.432550149628548    58.3760019977249     
9.8145745136784      0.43522995375322     58.2389348828762     0.85512224208792     -25.6422367649815    0.85512224208792     -25.6422367649815    0.43522995375322     58.2389348828762     
9.8911135843016      0.437918758630266    58.1008449283257     0.853790188065686    -25.8140137355399    0.853790188065686    -25.8140137355399    0.437918758630266    58.1008449283257     
9.96824954573486     0.44061644779084     57.9617357709387     0.852444471826713    -25.9866044661124    0.852444471826713    -25.9866044661124    0.44061644779084     57.9617357709387     
10.0459870528379     0.443322902061158    57.8216111669679     0.851085017797726    -26.1600065162356    0.851085017797726    -26.1600065162356    0.443322902061158    57.8216111669679     
10.1243307967715     0.446037999557735    57.6804749933277     0.849711751742462    -26.334217316476     0.849711751742462    -26.334217316476     0.446037999557735    57.6804749933277     
10.2032855052805     0.448761615683758    57.5383312488425     0.848324600810063    -26.5092341672167    0.848324600810063    -26.5092341672167    0.448761615683758    57.5383312488425     
10.2828559429789     0.451493623126739    57.3951840554647     0.846923493583889    -26.6850542374793    0.846923493583889    -26.6850542374793    0.451493623126739    57.3951840554647     
10.3630469116379     0.454233891857403    57.2510376594593     0.84550836013058     -26.8616745637742    0.84550836013058     -26.8616745637742    0.454233891857403    57.2510376594593     
10.4438632504752     0.456982289129866    57.105896432559      0.844079132049426    -27.0390920489836    0.844079132049426    -27.0390920489836    0.456982289129866    57.105896432559      
10.5253098364472     0.459738679483162    56.9597648730819     0.842635742521994    -27.2173034612822    0.842635742521994    -27.2173034612822    0.459738679483162    56.9597648730819     
10.6073915845434     0.462502924744078    56.8126476070163     0.84117812636192     -27.3963054330884    0.84117812636192     -27.3963054330884    0.462502924744078    56.8126476070163     
10.6901134480827     0.465274884031384    56.664549389067      0.839706220064956    -27.5760944600567    0.839706220064956    -27.5760944600567    0.465274884031384    56.664549389067      
10.7734804190128     0.468054413761469    56.515475103664      0.838219961859126    -27.7566669001062    0.838219961859126    -27.7566669001062    0.468054413761469    56.515475103664      
10.8574975282109     0.470841367655406    56.3654297659305     0.836719291755028    -27.9380189724903    0.836719291755028    -27.9380189724903    0.470841367655406    56.3654297659305     
10.9421698457876     0.47363559674745     56.2144185226114     0.83520415159621     -28.1201467569056    0.83520415159621     -28.1201467569056    0.47363559674745     56.2144185226114     
11.027502481393      0.476436949395037    56.0624466529584     0.833674485109568    -28.3030461926454    0.833674485109568    -28.3030461926454    0.476436949395037    56.0624466529584     
11.1135005845247     0.479245271290284    55.909519569571      0.832130237955859    -28.4867130777961    0.832130237955859    -28.4867130777961    0.479245271290284    55.909519569571      
11.2001693448387     0.482060405473011    55.7556428191916     0.830571357780051    -28.6711430684793    0.830571357780051    -28.6711430684793    0.482060405473011    55.7556428191916     
11.2875139924627     0.484882192345278    55.6008220834577     0.82899779426172     -28.8563316781384    0.82899779426172     -28.8563316781384    0.484882192345278    55.6008220834577     
11.3755397983115     0.487710469687574    55.4450631795996     0.827409499165307    -29.0422742768782    0.827409499165307    -29.0422742768782    0.487710469687574    55.4450631795996     
11.4642520744052     0.490545072676498    55.2883720610951     0.825806426390232    -29.2289660908481    0.825806426390232    -29.2289660908481    0.490545072676498    55.2883720610951     
11.5536561741899     0.493385833904108    55.1307548182699     0.824188532020816    -29.4164022016794    0.824188532020816    -29.4164022016794    0.493385833904108    55.1307548182699     
11.6437574928604     0.496232583398889    54.9722176788466     0.822555774376035    -29.6045775459745    0.822555774376035    -29.6045775459745    0.496232583398889    54.9722176788466     
11.7345614676861     0.499085148648319    54.8127670084416     0.820908114058915    -29.7934869148472    0.820908114058915    -29.7934869148472    0.499085148648319    54.8127670084416     
11.8260735783391     0.501943354623172    54.6524093110049     0.819245514005708    -29.9831249535212    0.819245514005708    -29.9831249535212    0.501943354623172    54.6524093110049     
11.9182993472245     0.504807023803398    54.4911512292076     0.817567939534662    -30.1734861609802    0.817567939534662    -30.1734861609802    0.504807023803398    54.4911512292076     
12.0112443398143     0.507675976205762    54.3289995447681     0.815875358394405    -30.3645648896789    0.815875358394405    -30.3645648896789    0.507675976205762    54.3289995447681     
12.1049141649826     0.510550029413143    54.1659611787224     0.814167740811886    -30.5563553453106    0.814167740811886    -30.5563553453106    0.510550029413143    54.1659611787224     
12.1993144753445     0.513428998605514    54.0020431916366     0.81244505953981     -30.7488515866329    0.81244505953981     -30.7488515866329    0.513428998605514    54.0020431916366     
12.2944509675971     0.516312696592691    53.8372527837532     0.810707289903577    -30.9420475253578    0.810707289903577    -30.9420475253578    0.516312696592691    53.8372527837532     
12.3903293828632     0.519200933848744    53.6715972950812     0.808954409847587    -31.1359369260996    0.808954409847587    -31.1359369260996    0.519200933848744    53.6715972950812     
12.4869555070378     0.522093518548174    53.5050842054191     0.807186399980939    -31.3305134063897    0.807186399980939    -31.3305134063897    0.522093518548174    53.5050842054191     
12.5843351711373     0.524990256603766    53.3377211343167     0.805403243622454    -31.5257704367509    0.805403243622454    -31.5257704367509    0.524990256603766    53.3377211343167     
12.6824742516515     0.527890951706209    53.1695158409708     0.803604926844948    -31.7217013408405    0.803604926844948    -31.7217013408405    0.527890951706209    53.1695158409708     
12.7813786708977     0.530795405365427    53.0004762240536     0.801791438518745    -31.9182992956577    0.801791438518745    -31.9182992956577    0.530795405365427    53.0004762240536     
12.8810543973787     0.533703416953642    52.8306103214748     0.799962770354363    -32.1155573318187    0.799962770354363    -32.1155573318187    0.533703416953642    52.8306103214748     
12.9815074461429     0.536614783750119    52.6599263100782     0.798118916944313    -32.313468333898     0.798118916944313    -32.313468333898     0.536614783750119    52.6599263100782     
13.0827438791468     0.539529300987691    52.488432505264      0.79625987580399     -32.5120250408418    0.79625987580399     -32.5120250408418    0.539529300987691    52.488432505264      
13.1847698056214     0.542446761900901    52.3161373605481     0.79438564741157     -32.7112200464459    0.79438564741157     -32.7112200464459    0.542446761900901    52.3161373605481     
13.2875913824403     0.54536695777593     52.1430494670449     0.792496235246897    -32.9110457999096    0.792496235246897    -32.9110457999096    0.54536695777593     52.1430494670449     
13.3912148144918     0.548289678002137    51.9691775528831     0.790591645829315    -33.1114946064563    0.790591645829315    -33.1114946064563    0.548289678002137    51.9691775528831     
13.495646355053      0.551214710125294    51.7945304825481     0.788671888754318    -33.3125586280272    0.788671888754318    -33.3125586280272    0.551214710125294    51.7945304825481     
13.6008923061674     0.554141839902493    51.619117256151      0.786736976729122    -33.514229884049     0.786736976729122    -33.514229884049     0.554141839902493    51.619117256151      
13.7069590190249     0.557070851358628    51.4429470086279     0.784786925606929    -33.7165002522701    0.784786925606929    -33.7165002522701    0.557070851358628    51.4429470086279     
13.8138528943451     0.560001526844578    51.2660290088608     0.782821754419993    -33.9193614696766    0.782821754419993    -33.9193614696766    0.560001526844578    51.2660290088608     
13.921580382764      0.562933647096888    51.0883726587297     0.780841485411326    -34.1228051334751    0.780841485411326    -34.1228051334751    0.562933647096888    51.0883726587297     
14.0301479852228     0.56586699129908     50.9099874920876     0.778846144065084    -34.3268227021537    0.778846144065084    -34.3268227021537    0.56586699129908     50.9099874920876     
14.1395622533603     0.568801337144502    50.7308831736591     0.776835759135513    -34.531405496619     0.776835759135513    -34.531405496619     0.568801337144502    50.7308831736591     
14.2498297899084     0.57173646090063     50.5510694978706     0.77481036267445     -34.7365447014015    0.77481036267445     -34.7365447014015    0.57173646090063     50.5510694978706     
14.3609572490904     0.574672137474949    50.3705563875967     0.772769990057361    -34.9422313659439    0.772769990057361    -34.9422313659439    0.574672137474949    50.3705563875967     
14.4729513370229     0.577608140482169    50.1893538928406     0.770714680007783    -35.1484564059566    0.770714680007783    -35.1484564059566    0.577608140482169    50.1893538928406     
14.5858188121199     0.580544242312969    50.0074721893301     0.768644474620231    -35.3552106048548    0.768644474620231    -35.3552106048548    0.580544242312969    50.0074721893301     
14.6995664855012     0.583480214204012    49.8249215770478     0.766559419381466    -35.5624846152658    0.766559419381466    -35.5624846152658    0.583480214204012    49.8249215770478     
14.814201221403      0.586415826309383    49.6417124786781     0.764459563190065    -35.770268960614     0.764459563190065    -35.770268960614     0.586415826309383    49.6417124786781     
14.9297299375925     0.589350847773272    49.4578554379843     0.762344958374352    -35.9785540367796    0.762344958374352    -35.9785540367796    0.589350847773272    49.4578554379843     
15.046159605785      0.592285046803925    49.2733611181098     0.760215660708522    -36.1873301138311    0.760215660708522    -36.1873301138311    0.592285046803925    49.2733611181098     
15.1634972520651     0.595218190748812    49.0882402998039     0.758071729427013    -36.3965873378336    0.758071729427013    -36.3965873378336    0.595218190748812    49.0882402998039     
15.28174995731       0.598150046170933    48.902503879576      0.755913227237072    -36.6063157327285    0.755913227237072    -36.6063157327285    0.598150046170933    48.902503879576      
15.4009248576176     0.601080378926276    48.7161628677737     0.753740220329448    -36.8165052022889    0.753740220329448    -36.8165052022889    0.601080378926276    48.7161628677737     
15.5210291447364     0.604008954242298    48.5292283865893     0.751552778387235    -37.0271455321467    0.751552778387235    -37.0271455321467    0.604008954242298    48.5292283865893     
15.6420700665        0.606935536797426    48.3417116679952     0.749350974592738    -37.2382263918902    0.749350974592738    -37.2382263918902    0.606935536797426    48.3417116679952     
15.7640549272644     0.609859890801531    48.1536240516057     0.747134885632486    -37.4497373372357    0.747134885632486    -37.4497373372357    0.609859890801531    48.1536240516057     
15.8869910883485     0.612781780077283    47.9649769824684     0.744904591700225    -37.6616678122684    0.744904591700225    -37.6616678122684    0.612781780077283    47.9649769824684     
16.0108859684788     0.615700968142331    47.7757820087882     0.742660176497888    -37.8740071517515    0.742660176497888    -37.8740071517515    0.615700968142331    47.7757820087882     
16.1357470442364     0.618617218292326    47.5860507795775     0.74040172723463     -38.0867445835082    0.74040172723463     -38.0867445835082    0.618617218292326    47.5860507795775     
16.261581850509      0.621530293684576    47.3957950422443     0.738129334623731    -38.2998692308659    0.738129334623731    -38.2998692308659    0.621530293684576    47.3957950422443     
16.3883979809451     0.624439957422459    47.205026640107      0.735843092877525    -38.5133701151732    0.735843092877525    -38.5133701151732    0.624439957422459    47.205026640107      
16.5162030884122     0.627345972640313    47.013757509851      0.733543099700192    -38.7272361583751    0.733543099700192    -38.7272361583751    0.627345972640313    47.013757509851      
16.6450048854589     0.630248102589004    46.8219996789119     0.731229456278476    -38.9414561856613    0.731229456278476    -38.9414561856613    0.630248102589004    46.8219996789119     
16.7748111447803     0.633146110721802    46.6297652628046     0.728902267270327    -39.1560189281687    0.728902267270327    -39.1560189281687    0.633146110721802    46.6297652628046     
16.9056296996868     0.636039760780774    46.4370664623836     0.726561640791376    -39.3709130257515    0.726561640791376    -39.3709130257515    0.636039760780774    46.4370664623836     
17.0374684445769     0.638928816883439    46.243915561047      0.724207688399349    -39.5861270298088    0.724207688399349    -39.5861270298088    0.638928816883439    46.243915561047      
17.1703353354138     0.641813043609694    46.0503249218808     0.721840525076276    -39.8016494061701    0.721840525076276    -39.8016494061701    0.641813043609694    46.0503249218808     
17.3042383902054     0.644692206088974    45.8563069847436     0.719460269208664    -40.0174685380417    0.719460269208664    -40.0174685380417    0.644692206088974    45.8563069847436     
17.439185689488      0.647566070087432    45.6618742633011     0.717067042565431    -40.2335727290015    0.717067042565431    -40.2335727290015    0.647566070087432    45.6618742633011     
17.5751853768141     0.650434402095279    45.4670393420006     0.714660970273789    -40.4499502060551    0.714660970273789    -40.4499502060551    0.650434402095279    45.4670393420006     
17.7122456592437     0.653296969414005    45.271814872999      0.712242180792953    -40.6665891227369    0.712242180792953    -40.6665891227369    0.653296969414005    45.271814872999      
17.8503748078399     0.656153540243558    45.076213573036      0.709810805885746    -40.883477562266     0.709810805885746    -40.883477562266     0.656153540243558    45.076213573036      
17.9895811581676     0.659003883769316    44.8802482202643     0.707366980588085    -41.1006035407462    0.707366980588085    -41.1006035407462    0.659003883769316    44.8802482202643     
18.1298731107965     0.661847770248838    44.6839316510278     0.704910843176346    -41.3179550104148    0.704910843176346    -41.3179550104148    0.661847770248838    44.6839316510278     
18.2712591318088     0.664684971098272    44.4872767566015     0.70244253513267     -41.5355198629331    0.70244253513267     -41.5355198629331    0.664684971098272    44.4872767566015     
18.4137477533089     0.667515258978406    44.2902964798838     0.699962201108173    -41.753285932721     0.699962201108173    -41.753285932721     0.667515258978406    44.2902964798838     
18.5573475739393     0.670338407880202    44.0930038120541     0.697469988884096    -41.9712410003282    0.697469988884096    -41.9712410003282    0.670338407880202    44.0930038120541     
18.7020672593991     0.673154193209823    43.8954117891896     0.694966049330932    -42.1893727958443    0.694966049330932    -42.1893727958443    0.673154193209823    43.8954117891896     
18.8479155429667     0.675962391873061    43.6975334888471     0.692450536365552    -42.4076690023456    0.692450536365552    -42.4076690023456    0.675962391873061    43.6975334888471     
18.9949012260274     0.678762782359039    43.4993820266122     0.689923606906304    -42.6261172593717    0.689923606906304    -42.6261172593717    0.678762782359039    43.4993820266122     
19.143033178604      0.681555144823184    43.3009705526182     0.687385420826197    -42.8447051664347    0.687385420826197    -42.8447051664347    0.681555144823184    43.3009705526182     
19.2923203398923     0.684339261169354    43.1023122480365     0.684836140904138    -43.0634202865544    0.684836140904138    -43.0634202865544    0.684339261169354    43.1023122480365     
19.4427717188005     0.68711491513109     42.9034203215388     0.682275932774279    -43.2822501498226    0.682275932774279    -43.2822501498226    0.68711491513109     42.9034203215388     
19.594396394493      0.689881892351854    42.704308005741      0.679704964873495    -43.5011822569859    0.679704964873495    -43.5011822569859    0.689881892351854    42.704308005741      
19.747203516938      0.692639980464289    42.5049885536188     0.677123408387066    -43.7202040830549    0.677123408387066    -43.7202040830549    0.692639980464289    42.5049885536188     
19.9012023074599     0.695388969168305    42.3054752349124     0.674531437192549    -43.9393030809246    0.674531437192549    -43.9393030809246    0.695388969168305    42.3054752349124     
20.0564020592957     0.698128650308036    42.1057813325103     0.671929227801919    -44.1584666850171    0.671929227801919    -44.1584666850171    0.698128650308036    42.1057813325103     
20.2128121381559     0.700858817947549    41.9059201388204     0.669316959302036    -44.3776823149337    0.669316959302036    -44.3776823149337    0.700858817947549    41.9059201388204     
20.3704419827895     0.703579268445238    41.705904952132      0.666694813293418    -44.596937379118     0.666694813293418    -44.596937379118     0.703579268445238    41.705904952132      
20.5293011055536     0.706289800526857    41.505749072968      0.664062973827467    -44.8162192785279    0.664062973827467    -44.8162192785279    0.706289800526857    41.505749072968      
20.6893990929878     0.708990215357115    41.3054658004333     0.661421627342105    -45.0355154103107    0.661421627342105    -45.0355154103107    0.708990215357115    41.3054658004333     
20.8507456063922     0.711680316609824    41.1050684285559     0.658770962595918    -45.2548131714854    0.658770962595918    -45.2548131714854    0.711680316609824    41.1050684285559     
21.0133503824108     0.714359910536422    40.9045702426347     0.656111170600869    -45.4740999626182    0.656111170600869    -45.4740999626182    0.714359910536422    40.9045702426347     
21.1772232336187     0.717028806032996    40.703984515581      0.6534424445536      -45.6933631915038    0.6534424445536      -45.6933631915038    0.717028806032996    40.703984515581      
21.3423740491148     0.719686814705545    40.5033245042728     0.650764979765431    -45.9125902768331    0.650764979765431    -45.9125902768331    0.719686814705545    40.5033245042728     
21.508812795118      0.722333750933625    40.3026034459101     0.648078973591049    -46.1317686518604    0.648078973591049    -46.1317686518604    0.722333750933625    40.3026034459101     
21.676549515569      0.724969431932158    40.1018345543854     0.64538462535601     -46.3508857680546    0.64538462535601     -46.3508857680546    0.724969431932158    40.1018345543854     
21.8455943327363     0.727593677811508    39.9010310166619     0.642682136283077    -46.5699290987419    0.642682136283077    -46.5699290987419    0.727593677811508    39.9010310166619     
22.0159574478269     0.730206311635651    39.7002059891703     0.639971709417464    -46.7888861427307    0.639971709417464    -46.7888861427307    0.730206311635651    39.7002059891703     
22.1876491416021     0.732807159478465    39.4993725942217     0.637253549551072    -47.0077444279187    0.637253549551072    -47.0077444279187    0.732807159478465    39.4993725942217     
22.3606797749979     0.735396050478084    39.2985439164422     0.634527863145742    -47.2264915148788    0.634527863145742    -47.2264915148788    0.735396050478084    39.2985439164422     
22.5350597897501     0.73797281688929     39.0977329992273     0.631794858255613    -47.445115000425     0.631794858255613    -47.445115000425     0.73797281688929     39.0977329992273     
22.7107997090244     0.740537294133858    38.8969528412244     0.629054744448678    -47.6636025211485    0.629054744448678    -47.6636025211485    0.740537294133858    38.8969528412244     
22.8879101380517     0.743089320848892    38.6962163928413     0.626307732727546    -47.8819417569288    0.626307732727546    -47.8819417569288    0.743089320848892    38.6962163928413     
23.0664017647679     0.745628738933055    38.4955365527848     0.623554035449534    -48.1001204344145    0.623554035449534    -48.1001204344145    0.745628738933055    38.4955365527848     
23.2462853604588     0.748155393590721    38.2949261646307     0.620793866246107    -48.3181263304701    0.620793866246107    -48.3181263304701    0.748155393590721    38.2949261646307     
23.4275717804102     0.750669133373937    38.0943980134323     0.618027439941815    -48.5359472755869    0.618027439941815    -48.5359472755869    0.750669133373937    38.0943980134323     
23.610271964563      0.753169810222312    37.8939648223595     0.615254972472665    -48.7535711572608    0.615254972472665    -48.7535711572608    0.753169810222312    37.8939648223595     
23.7943969381734     0.75565727950064     37.6936392493821     0.61247668080415     -48.9709859233259    0.61247668080415     -48.9709859233259    0.75565727950064     37.6936392493821     
23.9799578124782     0.758131400034391    37.4934338839925     0.609692782848914    -49.1881795852485    0.609692782848914    -49.1881795852485    0.758131400034391    37.4934338839925     
24.1669657853651     0.760592034142957    37.2933612439709     0.606903497384077    -49.405140221379     0.606903497384077    -49.405140221379     0.760592034142957    37.2933612439709     
24.3554321420489     0.763039047670658    37.0934337721985     0.604109043968484    -49.6218559801531    0.604109043968484    -49.6218559801531    0.763039047670658    37.0934337721985     
24.5453682557521     0.765472310015565    36.8936638335143     0.601309642859657    -49.8383150832519    0.601309642859657    -49.8383150832519    0.765472310015565    36.8936638335143     
24.7367855883915     0.767891694156002    36.6940637116254     0.598505514930823    -50.0545058287054    0.598505514930823    -50.0545058287054    0.767891694156002    36.6940637116254     
24.9296956912699     0.770297076674871    36.4946456060647     0.595696881587844    -50.2704165939498    0.595696881587844    -50.2704165939498    0.770297076674871    36.4946456060647     
25.1241102057727     0.772688337781646    36.295421629206      0.59288396468628     -50.4860358388263    0.59288396468628     -50.4860358388263    0.772688337781646    36.295421629206      
25.3200408640712     0.775065361332204    36.0964038033278     0.59006698644855     -50.7013521085311    0.59006698644855     -50.7013521085311    0.775065361332204    36.0964038033278     
25.5174994898299     0.777428034846299    35.8976040577411     0.587246169381312    -50.9163540365001    0.587246169381312    -50.9163540365001    0.777428034846299    35.8976040577411     
25.7164979989204     0.779776249522882    35.6990342259685     0.584421736193112    -51.1310303472435    0.584421736193112    -51.1310303472435    0.779776249522882    35.6990342259685     
25.9170484001403     0.782109900253113    35.5007060429877     0.581593909712402    -51.345369859113     0.581593909712402    -51.345369859113     0.782109900253113    35.5007060429877     
26.119162795938      0.784428885631188    35.3026311425325     0.578762912805873    -51.5593614870137    0.578762912805873    -51.5593614870137    0.784428885631188    35.3026311425325     
26.3228533831428     0.786733107962906    35.1048210544607     0.575928968297384    -51.7729942450467    0.575928968297384    -51.7729942450467    0.786733107962906    35.1048210544607     
26.5281324537015     0.789022473272071    34.9072872021806     0.573092298887296    -51.9862572490933    0.573092298887296    -51.9862572490933    0.789022473272071    34.9072872021806     
26.7350123954193     0.791296891304672    34.7100409001474     0.57025312707246     -52.1991397193286    0.57025312707246     -52.1991397193286    0.791296891304672    34.7100409001474     
26.9435056927083     0.79355627553093     34.5130933514221     0.567411675066844    -52.4116309826727    0.567411675066844    -52.4116309826727    0.79355627553093     34.5130933514221     
27.1536249273401     0.795800543145142    34.3164556453015     0.564568164722886    -52.6237204751688    0.564568164722886    -52.6237204751688    0.795800543145142    34.3164556453015     
27.3653827792055     0.79802961506347     34.1201387550132     0.56172281745355     -52.8353977442981    0.56172281745355     -52.8353977442981    0.79802961506347     34.1201387550132     
27.5787920270796     0.800243415919577    33.9241535354817     0.558875854155295    -53.0466524512199    0.558875854155295    -53.0466524512199    0.800243415919577    33.9241535354817     
27.7938655493929     0.802441874058208    33.7285107211648     0.556027495131845    -53.2574743729439    0.556027495131845    -53.2574743729439    0.802441874058208    33.7285107211648     
28.0106163250084     0.804624921526744    33.5332209239607     0.553177960018918    -53.4678534044295    0.553177960018918    -53.4678534044295    0.804624921526744    33.5332209239607     
28.2290574340052     0.806792494064717    33.3382946311869     0.550327467709961    -53.6777795606133    0.550327467709961    -53.6777795606133    0.806792494064717    33.3382946311869     
28.4492020584671     0.808944531091376    33.1437422036309     0.547476236282849    -53.8872429783629    0.547476236282849    -53.8872429783629    0.808944531091376    33.1437422036309     
28.671063483279      0.811080975691281    32.949573873676      0.544624482927723    -54.0962339183584    0.544624482927723    -54.0962339183584    0.811080975691281    32.949573873676      
28.8946550969277     0.813201774598017    32.7557997434971     0.54177242387594     -54.3047427668982    0.54177242387594     -54.3047427668982    0.813201774598017    32.7557997434971     
29.1199903923105     0.81530687817602     32.562429783334      0.538920274330149    -54.5127600376322    0.538920274330149    -54.5127600376322    0.81530687817602     32.562429783334      
29.3470829675493     0.817396240400586    32.369473829836      0.536068248395638    -54.720276373218     0.536068248395638    -54.720276373218     0.817396240400586    32.369473829836      
29.5759465268108     0.819469818836077    32.1769415844834     0.533216559012882    -54.9272825469038    0.533216559012882    -54.9272825469038    0.819469818836077    32.1769415844834     
29.8065948811341     0.821527574612403    31.984842612081      0.530365417891408    -55.1337694640354    0.530365417891408    -55.1337694640354    0.821527574612403    31.984842612081      
30.0390419492637     0.823569472399775    31.7931863393296     0.527515035444978    -55.3397281634863    0.527515035444978    -55.3397281634863    0.823569472399775    31.7931863393296     
30.2733017584897     0.825595480381828    31.6019820534689     0.524665620728119    -55.5451498190155    0.524665620728119    -55.5451498190155    0.825595480381828    31.6019820534689     
30.5093884454939     0.827605570227112    31.4112389009972     0.521817381374065    -55.7500257405475    0.521817381374065    -55.7500257405475    0.827605570227112    31.4112389009972     
30.7473162572035     0.829599717059006    31.220965886467      0.518970523534119    -55.9543473753753    0.518970523534119    -55.9543473753753    0.829599717059006    31.220965886467      
30.9870995516503     0.831577899424163    31.0311718713508     0.51612525181844     -56.1581063092932    0.51612525181844     -56.1581063092932    0.831577899424163    31.0311718713508     
31.2287527988376     0.833540099259426    30.8418655729866     0.513281769238347    -56.3612942676493    0.513281769238347    -56.3612942676493    0.833540099259426    30.8418655729866     
31.4722905816129     0.835486301857359    30.6530555635933     0.5104402771501      -56.5639031163265    0.5104402771501      -56.5639031163265    0.835486301857359    30.6530555635933     
31.7177275965485     0.837416495830401    30.4647502693614     0.507600975200216    -56.7659248626479    0.507600975200216    -56.7659248626479    0.837416495830401    30.4647502693614     
31.9650786548278     0.839330673073694    30.2769579696172     0.504764061272318    -56.9673516562077    0.504764061272318    -56.9673516562077    0.839330673073694    30.2769579696172     
32.2143586831396     0.841228828726649    30.0896867960586     0.50192973143557     -57.1681757896304    0.50192973143557     -57.1681757896304    0.841228828726649    30.0896867960586     
32.4655827245785     0.843110961133285    29.9029447320641     0.499098179894676    -57.368389699255     0.499098179894676    -57.368389699255     0.843110961133285    29.9029447320641     
32.718765939553      0.844977071801405    29.7167396120734     0.496269598941473    -57.5679859657475    0.496269598941473    -57.5679859657475    0.844977071801405    29.7167396120734     
32.9739236067001     0.846827165360667    29.5310791210377     0.493444178908147    -57.7669573146422    0.493444178908147    -57.7669573146422    0.846827165360667    29.5310791210377     
33.2310711238074     0.848661249519572    29.3459707939424     0.490622108122053    -57.9652966168105    0.490622108122053    -57.9652966168105    0.848661249519572    29.3459707939424     
33.4902240087424     0.850479335021463    29.1614220153961     0.487803572862174    -58.162996888862     0.487803572862174    -58.162996888862     0.850479335021463    29.1614220153961     
33.7513979003889     0.852281435599547    28.9774400192925     0.484988757317203    -58.3600512934719    0.484988757317203    -58.3600512934719    0.852281435599547    28.9774400192925     
34.0146085595906     0.854067567931024    28.7940318885355     0.482177843545277    -58.556453139644     0.482177843545277    -58.556453139644     0.854067567931024    28.7940318885355     
34.2798718701024     0.855837751590354    28.6112045548355     0.479371011435349    -58.7521958829022    0.479371011435349    -58.7521958829022    0.855837751590354    28.6112045548355     
34.5472038395488     0.85759200900173     28.4289647985678     0.476568438670206    -58.9472731254185    0.476568438670206    -58.9472731254185    0.85759200900173     28.4289647985678     
34.8166206003899     0.859330365390777    28.2473192486995     0.473770300691137    -59.1416786160716    0.473770300691137    -59.1416786160716    0.859330365390777    28.2473192486995     
35.0881384108951     0.861052848735581    28.0662743827778     0.470976770664222    -59.3354062504423    0.470976770664222    -59.3354062504423    0.861052848735581    28.0662743827778     
35.361773656124      0.862759489717059    27.8858365269819     0.468188019448298    -59.5284500707468    0.468188019448298    -59.5284500707468    0.862759489717059    27.8858365269819     
35.6375428489154     0.864450321668711    27.7060118562375     0.465404215564537    -59.7208042657027    0.465404215564537    -59.7208042657027    0.864450321668711    27.7060118562375     
35.9154626308834     0.866125380525849    27.5268063943911     0.462625525167645    -59.9124631703369    0.462625525167645    -59.9124631703369    0.866125380525849    27.5268063943911     
36.1955497734221     0.86778470477431     27.3482260144442     0.459852112018704    -60.103421265732     0.459852112018704    -60.103421265732     0.86778470477431     27.3482260144442     
36.4778211787176     0.869428335398726    27.1702764388457     0.457084137459611    -60.2936731787117    0.457084137459611    -60.2936731787117    0.869428335398726    27.1702764388457     
36.7622938807678     0.871056315830395    26.9929632398407     0.454321760389111    -60.4832136814713    0.454321760389111    -60.4832136814713    0.871056315830395    26.9929632398407     
37.0489850464102     0.872668691894767    26.816291839878      0.451565137240443    -60.672037691146     0.451565137240443    -60.672037691146     0.872668691894767    26.816291839878      
37.3379119763584     0.87426551175868     26.6402675120669     0.448814421960524    -60.8601402693305    0.448814421960524    -60.8601402693305    0.87426551175868     26.6402675120669     
37.6290921062456     0.875846825877256    26.4648953806939     0.446069765990727    -61.0475166215354    0.446069765990727    -61.0475166215354    0.875846825877256    26.4648953806939     
37.9225430076772     0.877412686940663    26.290180421785      0.443331318249171    -61.2341620965991    0.443331318249171    -61.2341620965991    0.877412686940663    26.290180421785      
38.2182823892909     0.878963149820614    26.1161274637246     0.440599225114565    -61.4200721860397    0.440599225114565    -61.4200721860397    0.878963149820614    26.1161274637246     
38.5163280978251     0.880498271516821    25.9427411879186     0.43787363041154     -61.6052425233632    0.43787363041154     -61.6052425233632    0.880498271516821    25.9427411879186     
38.8166981191966     0.882018111103295    25.7700261295094     0.435154675397474    -61.7896688833172    0.435154675397474    -61.7896688833172    0.882018111103295    25.7700261295094     
39.1194105795853     0.883522729674641    25.5979866781346     0.432442498750786    -61.9733471810994    0.432442498750786    -61.9733471810994    0.883522729674641    25.5979866781346     
39.4244837465286     0.885012190292312    25.4266270787344     0.429737236560676    -62.1562734715169    0.429737236560676    -62.1562734715169    0.885012190292312    25.4266270787344     
39.7319360300232     0.886486557930925    25.2559514323994     0.427039022318284    -62.3384439481038    0.427039022318284    -62.3384439481038    0.886486557930925    25.2559514323994     
40.0417859836366     0.887945899424644    25.0859636972624     0.424347986909257    -62.5198549421912    0.424347986909257    -62.5198549421912    0.887945899424644    25.0859636972624     
40.3540523056264     0.889390283413644    24.9166676894325     0.421664258607686    -62.7005029219365    0.421664258607686    -62.7005029219365    0.889390283413644    24.9166676894325     
40.6687538400686     0.890819780290749    24.7480670839677     0.418987963071398    -62.8803844913096    0.418987963071398    -62.8803844913096    0.890819780290749    24.7480670839677     
40.9859095779953     0.892234462148244    24.5801654158856     0.416319223338568    -63.059496389042     0.416319223338568    -63.059496389042     0.892234462148244    24.5801654158856     
41.3055386585402     0.893634402724888    24.4129660812121     0.413658159825652    -63.2378354875345    0.413658159825652    -63.2378354875345    0.893634402724888    24.4129660812121     
41.6276603700937     0.895019677353182    24.2464723380653     0.411004890326562    -63.415398791728     0.411004890326562    -63.415398791728     0.895019677353182    24.2464723380653     
41.9522941514669     0.896390362906923    24.0806873077732     0.408359530013109    -63.5921834379407    0.408359530013109    -63.5921834379407    0.896390362906923    24.0806873077732     
42.2794595930649     0.897746537749041    23.9156139760258     0.405722191436665    -63.7681866926667    0.405722191436665    -63.7681866926667    0.897746537749041    23.9156139760258     
42.6091764380687     0.899088281679813    23.7512551940559     0.403092984531007    -63.9434059513455    0.403092984531007    -63.9434059513455    0.899088281679813    23.7512551940559     
42.9414645836265     0.900415675885404    23.5876136798539     0.400472016616324    -64.1178387370955    0.400472016616324    -64.1178387370955    0.900415675885404    23.5876136798539     
43.276344082055      0.901728802886836    23.424692019407      0.397859392404366    -64.2914826994201    0.397859392404366    -64.2914826994201    0.901728802886836    23.424692019407      
43.6138351420489     0.903027746489348    23.2624926679698     0.395255214004689    -64.464335612883     0.395255214004689    -64.464335612883     0.903027746489348    23.2624926679698     
43.9539581299006     0.904312591732222    23.1010179513592     0.392659580931982    -64.6363953757537    0.392659580931982    -64.6363953757537    0.904312591732222    23.1010179513592     
44.2967335707295     0.905583424839074    22.9402700672726     0.390072590114424    -64.8076600086304    0.390072590114424    -64.8076600086304    0.905583424839074    22.9402700672726     
44.64218214972       0.906840333168626    22.7802510866342     0.387494335903084    -64.9781276530318    0.387494335903084    -64.9781276530318    0.906840333168626    22.7802510866342     
44.9903247133705     0.908083405166004    22.6209629549576     0.384924910082283    -65.1477965699699    0.384924910082283    -65.1477965699699    0.908083405166004    22.6209629549576     
45.3411822707509     0.909312730314572    22.4624074937342     0.382364401880907    -65.3166651384956    0.382364401880907    -65.3166651384956    0.909312730314572    22.4624074937342     
45.6947759947706     0.910528399088297    22.3045864018388     0.379812897984684    -65.484731854224     0.379812897984684    -65.484731854224     0.910528399088297    22.3045864018388     
46.0511272234561     0.911730502904717    22.1475012569547     0.377270482549305    -65.6519953278387    0.377270482549305    -65.6519953278387    0.911730502904717    22.1475012569547     
46.4102574612389     0.912919134078482    21.9911535170146     0.374737237214451    -65.8184542835774    0.374737237214451    -65.8184542835774    0.912919134078482    21.9911535170146     
46.7721883802529     0.914094385775489    21.8355445216603     0.37221324111864     -65.9841075576956    0.37221324111864     -65.9841075576956    0.914094385775489    21.8355445216603     
47.1369418216423     0.91525635196767     21.6806754937135     0.369698570914869    -66.1489540969184    0.369698570914869    -66.1489540969184    0.91525635196767     21.6806754937135     
47.5045397968801     0.916405127388383    21.526547540664      0.367193300787053    -66.3129929568704    0.367193300787053    -66.3129929568704    0.916405127388383    21.526547540664      
47.8750044890955     0.917540807488468    21.3731616561678     0.364697502467201    -66.4762233004945    0.364697502467201    -66.4762233004945    0.917540807488468    21.3731616561678     
48.2483582544136     0.91866348839296     21.2205187215579     0.3622112452533      -66.6386443964532    0.3622112452533      -66.6386443964532    0.91866348839296     21.2205187215579     
48.6246236233037     0.919773266858474    21.068619507365      0.359734596027899    -66.8002556175202    0.359734596027899    -66.8002556175202    0.919773266858474    21.068619507365      
49.0038233019391     0.920870240231272    20.9174646748475     0.357267619277348    -66.9610564389568    0.357267619277348    -66.9610564389568    0.920870240231272    20.9174646748475     
49.3859801735678     0.921954506406022    20.7670547775301     0.354810377111664    -67.1210464368788    0.354810377111664    -67.1210464368788    0.921954506406022    20.7670547775301     
49.7711172998927     0.923026163785255    20.6173902627483     0.352362929285003    -67.2802252866132    0.352362929285003    -67.2802252866132    0.923026163785255    20.6173902627483     
50.1592579224641     0.924085311239531    20.4684714732016     0.349925333216694    -67.4385927610431    0.349925333216694    -67.4385927610431    0.924085311239531    20.4684714732016     
50.5504254640813     0.92513204806832     20.3202986485086     0.347497644012838    -67.5961487289484    0.347497644012838    -67.5961487289484    0.92513204806832     20.3202986485086     
50.9446435302069     0.926166473961605    20.1728719267687     0.345079914488404    -67.7528931533357    0.345079914488404    -67.7528931533357    0.926166473961605    20.1728719267687     
51.3419359103908     0.927188688962202    20.0261913461265     0.342672195189833    -67.9088260897616    0.342672195189833    -67.9088260897616    0.927188688962202    20.0261913461265     
51.7423265797062     0.928198793428825    19.8802568463381     0.340274534418093    -68.0639476846526    0.340274534418093    -68.0639476846526    0.928198793428825    19.8802568463381     
52.1458397001959     0.929196887999866    19.7350682703391     0.337886978252181    -68.2182581736165    0.337886978252181    -68.2182581736165    0.929196887999866    19.7350682703391     
52.5524996223307     0.930183073557923    19.5906253658139     0.335509570573026    -68.371757879752     0.335509570573026    -68.371757879752     0.930183073557923    19.5906253658139     
52.9623308864791     0.931157451195065    19.4469277867632     0.3331423530878      -68.5244472119533    0.3331423530878      -68.5244472119533    0.931157451195065    19.4469277867632     
53.3753582243876     0.932120122178835    19.3039750950718     0.330785365354556    -68.6763266632131    0.330785365354556    -68.6763266632131    0.932120122178835    19.3039750950718     
53.7916065606737     0.933071187918985    19.1617667620749     0.328438644807249    -68.827396808921     0.328438644807249    -68.827396808921     0.933071187918985    19.1617667620749     
54.2111010143298     0.934010749934966    19.02030217012       0.326102226781012    -68.9776583051631    0.326102226781012    -68.9776583051631    0.934010749934966    19.02030217012       
54.633866900239      0.934938909824144    18.8795806141273     0.323776144537785    -69.127111887018     0.323776144537785    -69.127111887018     0.934938909824144    18.8795806141273     
55.0599297307028     0.935855769230766    18.739601303144      0.321460429292154    -69.2757583668554    0.321460429292154    -69.2757583668554    0.935855769230766    18.739601303144      
55.4893152169807     0.936761429815649    18.6003633618973     0.319155110237474    -69.4235986326309    0.319155110237474    -69.4235986326309    0.936761429815649    18.6003633618973     
55.9220492708417     0.937655993226614    18.4618658323376     0.316860214572184    -69.5706336461853    0.316860214572184    -69.5706336461853    0.937655993226614    18.4618658323376     
56.3581580061282     0.938539561069647    18.3241076751785     0.314575767526348    -69.7168644415431    0.314575767526348    -69.7168644415431    0.938539561069647    18.3241076751785     
56.7976677403314     0.939412234880783    18.1870877714303     0.312301792388349    -69.862292123212     0.312301792388349    -69.862292123212     0.939412234880783    18.1870877714303     
57.24060499618       0.940274116098728    18.0508049239232     0.310038310531758    -70.0069178644878    0.310038310531758    -70.0069178644878    0.940274116098728    18.0508049239232     
57.6869965032403     0.941125306038178    17.915257858827      0.307785341442348    -70.150742905757     0.307785341442348    -70.150742905757     0.941125306038178    17.915257858827      
58.1368691995297     0.941965905863872    17.7804452271586     0.305542902745194    -70.2937685528064    0.305542902745194    -70.2937685528064    0.941965905863872    17.7804452271586     
58.5902502331418     0.942796016565352    17.6463656062817     0.30331101023191     -70.435996175135     0.30331101023191     -70.435996175135     0.942796016565352    17.6463656062817     
59.047166963885      0.943615738932407    17.5130175013986     0.301089677887948    -70.5774272042675    0.301089677887948    -70.5774272042675    0.943615738932407    17.5130175013986     
59.5076469649334     0.94442517353124     17.3803993470298     0.298878917919958    -70.718063132074     0.298878917919958    -70.718063132074     0.94442517353124     17.3803993470298     
59.9717180244909     0.945224420681313    17.248509508484      0.296678740783197    -70.8579055090937    0.296678740783197    -70.8579055090937    0.945224420681313    17.248509508484      
60.4394081474681     0.946013580432878    17.1173462833174     0.294489155208977    -70.9969559428619    0.294489155208977    -70.9969559428619    0.946013580432878    17.1173462833174     
60.9107455571721     0.946792752545179    16.9869079027821     0.292310168232109    -71.1352160962424    0.292310168232109    -71.1352160962424    0.946792752545179    16.9869079027821     
61.3857586970096     0.947562036465339    16.8571925332615     0.290141785218351    -71.2726876857645    0.290141785218351    -71.2726876857645    0.947562036465339    16.8571925332615     
61.8644762322039     0.948321531307893    16.7281982776947     0.287984009891839    -71.4093724799664    0.287984009891839    -71.4093724799664    0.948321531307893    16.7281982776947     
62.3469270515241     0.949071335834988    16.5999231769877     0.285836844362482    -71.5452722977412    0.285836844362482    -71.5452722977412    0.949071335834988    16.5999231769877     
62.8331402690289     0.949811548437211    16.4723652114135     0.283700289153307    -71.6803890066898    0.283700289153307    -71.6803890066898    0.949811548437211    16.4723652114135     
63.3231452258231     0.950542267115081    16.3455223019957     0.28157434322774     -71.8147245214805    0.28157434322774     -71.8147245214805    0.950542267115081    16.3455223019957     
63.8169714918286     0.951263589461143    16.2193923118824     0.279459004016825    -71.9482808022104    0.279459004016825    -71.9482808022104    0.951263589461143    16.2193923118824     
64.3146488675685     0.951975612642704    16.0939730477039     0.277354267446338    -72.0810598527763    0.277354267446338    -72.0810598527763    0.951975612642704    16.0939730477039     
64.8162073859659     0.95267843338516     15.9692622609173     0.275260127963805    -72.2130637192478    0.275260127963805    -72.2130637192478    0.95267843338516     15.9692622609173     
65.3216773141556     0.953372147955938    15.8452576491371     0.273176578565416    -72.3442944882482    0.273176578565416    -72.3442944882482    0.953372147955938    15.8452576491371     
65.8310891553115     0.954056852149037    15.7219568574497     0.271103610822809    -72.4747542853395    0.271103610822809    -72.4747542853395    0.954056852149037    15.7219568574497     
66.3444736504863     0.95473264127012     15.5993574797166     0.269041214909714    -72.6044452734123    0.269041214909714    -72.6044452734123    0.95473264127012     15.5993574797166     
66.8618617804675     0.955399610122227    15.477457059858      0.26698937962846     -72.7333696510833    0.26698937962846     -72.7333696510833    0.955399610122227    15.477457059858      
67.3832847676465     0.956057852992005    15.3562530931257     0.264948092436325    -72.8615296510945    0.264948092436325    -72.8615296510945    0.956057852992005    15.3562530931257     
67.908774077903      0.956707463636528    15.235743027358      0.262917339471717    -72.9889275387199    0.262917339471717    -72.9889275387199    0.956707463636528    15.235743027358      
68.4383614225036     0.957348535270636    15.1159242642203     0.260897105580186    -73.1155656101753    0.260897105580186    -73.1155656101753    0.957348535270636    15.1159242642203     
68.9720787600155     0.957981160554825    14.9967941604294     0.258887374340248    -73.2414461910346    0.258887374340248    -73.2414461910346    0.957981160554825    14.9967941604294     
69.5099582982353     0.958605431583652    14.878350028963      0.256888128089026    -73.3665716346473    0.256888128089026    -73.3665716346473    0.958605431583652    14.878350028963      
70.0520324961325     0.959221439874656    14.7605891402528     0.254899347947678    -73.4909443205632    0.254899347947678    -73.4909443205632    0.959221439874656    14.7605891402528     
70.598334065808      0.959829276357785    14.6435087233615     0.252921013846638    -73.614566652958     0.252921013846638    -73.614566652958     0.959829276357785    14.6435087233615     
71.1488959744687     0.960429031365316    14.5271059671443     0.250953104550624    -73.7374410590645    0.250953104550624    -73.7374410590645    0.960429031365316    14.5271059671443     
71.7037514464163     0.961020794622259    14.4113780213946     0.248995597683442    -73.8595699876047    0.248995597683442    -73.8595699876047    0.961020794622259    14.4113780213946     
72.2629339650529     0.961604655237234    14.2963219979718     0.247048469752548    -73.9809559072264    0.247048469752548    -73.9809559072264    0.961604655237234    14.2963219979718     
72.8264772749012     0.962180701693814    14.1819349719153     0.245111696173395    -74.1016013049405    0.245111696173395    -74.1016013049405    0.962180701693814    14.1819349719153     
73.3944153836407     0.962749021842318    14.068213982541      0.243185251293525    -74.2215086845604    0.243185251293525    -74.2215086845604    0.962749021842318    14.068213982541      
73.9667825641607     0.963309702892056    13.9551560345211     0.241269108416429    -74.340680565143     0.241269108416429    -74.340680565143     0.963309702892056    13.9551560345211     
74.5436133566274     0.963862831403994    13.8427580989483     0.239363239825157    -74.4591194794302    0.239363239825157    -74.4591194794302    0.963862831403994    13.8427580989483     
75.1249425705693     0.964408493283854    13.7310171143843     0.23746761680567     -74.5768279722897    0.23746761680567     -74.5768279722897    0.964408493283854    13.7310171143843     
75.7108052869773     0.964946773775632    13.6199299878903     0.235582209669939    -74.6938085991569    0.235582209669939    -74.6938085991569    0.964946773775632    13.6199299878903     
76.3012368604218     0.9654777574555      13.5094935960426     0.233706987778789    -74.8100639244749    0.233706987778789    -74.8100639244749    0.9654777574555      13.5094935960426     
76.8962729211862     0.966001528226124    13.3997047859321     0.231841919564462    -74.9255965201316    0.231841919564462    -74.9255965201316    0.966001528226124    13.3997047859321     
77.4959493774169     0.966518169311357    13.290560376146      0.229986972552934    -75.0404089638977    0.229986972552934    -75.0404089638977    0.966518169311357    13.290560376146      
78.1003024172907     0.967027763251305    13.1820571577346     0.228142113385941    -75.1545038378578    0.228142113385941    -75.1545038378578    0.967027763251305    13.1820571577346     
78.7093685111982     0.967530391897762    13.0741918951626     0.226307307842748    -75.26788372684      0.226307307842748    -75.26788372684      0.967530391897762    13.0741918951626     
79.3231844139446     0.968026136409999    12.9669613272421     0.22448252086163     -75.3805512168403    0.22448252086163     -75.3805512168403    0.968026136409999    12.9669613272421     
79.9417871669682     0.968515077250909    12.8603621680515     0.222667716561084    -75.4925088934416    0.222667716561084    -75.4925088934416    0.968515077250909    12.8603621680515     
80.5652141005749     0.968997294183466    12.7543911078372     0.220862858260751    -75.6037593402261    0.220862858260751    -75.6037593402261    0.968997294183466    12.7543911078372     
81.1935028361917     0.969472866267539    12.6490448139012     0.219067908502067    -75.7143051371799    0.219067908502067    -75.7143051371799    0.969472866267539    12.6490448139012     
81.8266912886369     0.969941871857012    12.5443199314698     0.217282829068629    -75.8241488590915    0.217282829068629    -75.8241488590915    0.969941871857012    12.5443199314698     
82.4648176684076     0.970404388597208    12.4402130845503     0.215507581006264    -75.9332930739378    0.215507581006264    -75.9332930739378    0.970404388597208    12.4402130845503     
83.1079204839861     0.970860493422631    12.3367208767686     0.213742124642833    -76.0417403412637    0.213742124642833    -76.0417403412637    0.970860493422631    12.3367208767686     
83.7560385441634     0.971310262554983    12.2338398921939     0.211986419607733    -76.1494932105466    0.211986419607733    -76.1494932105466    0.971310262554983    12.2338398921939     
84.4092109603814     0.971753771501476    12.1315666961466     0.210240424851121    -76.2565542195511    0.210240424851121    -76.2565542195511    0.971753771501476    12.1315666961466     
85.067477149093      0.972191095053418    12.0298978359908     0.208504098662847    -76.3629258926689    0.208504098662847    -76.3629258926689    0.972191095053418    12.0298978359908     
85.7308768341407     0.97262230728506     11.9288298419128     0.2067773986911      -76.4686107392438    0.2067773986911      -76.4686107392438    0.97262230728506     11.9288298419128     
86.399450049154      0.973047481552712    11.8283592276827     0.205060281960767    -76.5736112518814    0.205060281960767    -76.5736112518814    0.973047481552712    11.8283592276827     
87.0732371399648     0.973466690494094    11.728482491403      0.203352704891515    -76.6779299047392    0.203352704891515    -76.6779299047392    0.973466690494094    11.728482491403      
87.7522787670427     0.973880006027946    11.6291961162407     0.201654623315568    -76.7815691518006    0.201654623315568    -76.7815691518006    0.973880006027946    11.6291961162407     
88.4366159079485     0.974287499353864    11.5304965711455     0.199965992495214    -76.8845314251255    0.199965992495214    -76.8845314251255    0.974287499353864    11.5304965711455     
89.1262898598066     0.974689240952362    11.4323803115535     0.198286767140015    -76.9868191330816    0.198286767140015    -76.9868191330816    0.974689240952362    11.4323803115535     
89.821342241798      0.975085300585161    11.3348437800762     0.196616901423748    -77.0884346585497    0.196616901423748    -77.0884346585497    0.975085300585161    11.3348437800762     
90.5218149976707     0.975475747295676    11.2378834071748     0.194956349001042    -77.1893803571059    0.194956349001042    -77.1893803571059    0.975475747295676    11.2378834071748     
91.2277503982722     0.975860649409721    11.1414956118218     0.193305063023758    -77.2896585551746    0.193305063023758    -77.2896585551746    0.975860649409721    11.1414956118218     
91.9391910440992     0.97624007453641     11.0456768021462     0.191662996157061    -77.3892715481552    0.191662996157061    -77.3892715481552    0.97624007453641     11.0456768021462     
92.656179867869      0.976614089569232    10.9504233760675     0.190030100595231    -77.4882215985153    0.190030100595231    -77.4882215985153    0.976614089569232    10.9504233760675     
93.3787601371104     0.976982760687333    10.8557317219138     0.188406328077197    -77.5865109338534    0.188406328077197    -77.5865109338534    0.976982760687333    10.8557317219138     
94.106975456774      0.977346153356957    10.7615982190278     0.186791629901777    -77.6841417449251    0.186791629901777    -77.6841417449251    0.977346153356957    10.7615982190278     
94.8408697718646     0.977704332333062    10.6680192383586     0.18518595694267     -77.7811161836339    0.18518595694267     -77.7811161836339    0.977704332333062    10.6680192383586     
95.5804873700923     0.9780573616611      10.5749911430404     0.183589259663145    -77.8774363609809    0.183589259663145    -77.8774363609809    0.9780573616611      10.5749911430404     
96.3258728845457     0.97840530467895     10.4825102889585     0.182001488130487    -77.9731043449742    0.182001488130487    -77.9731043449742    0.97840530467895     10.4825102889585     
97.0770712963848     0.97874822401901     10.3905730253017     0.180422592030157    -78.0681221584938    0.180422592030157    -78.0681221584938    0.97874822401901     10.3905730253017     
97.8341279375557     0.97908618161042     10.2991756951025     0.17885252067969     -78.1624917771091    0.17885252067969     -78.1624917771091    0.97908618161042     10.2991756951025     
98.5970884935263     0.979419238681434    10.2083146357644     0.177291223042336    -78.256215126848     0.177291223042336    -78.256215126848     0.979419238681434    10.2083146357644     
99.3659990060432     0.979747455761917    10.117986179577      0.175738647740426    -78.3492940819122    0.175738647740426    -78.3492940819122    0.979747455761917    10.117986179577      
100.14090587591      0.980070892685979    10.0281866542185     0.174194743068488    -78.4417304623386    0.174194743068488    -78.4417304623386    0.980070892685979    10.0281866542185     
100.921855865787     0.980389608594712    9.9389123832461      0.172659457006104    -78.533526031601     0.172659457006104    -78.533526031601     0.980389608594712    9.9389123832461      
101.708896103015     0.98070366193906     9.85015968657483     0.17113273723051     -78.6246824941512    0.17113273723051     -78.6246824941512    0.98070366193906     9.85015968657483     
102.502074082456     0.981013110482789    9.76192488094399     0.169614531128949    -78.7152014928939    0.169614531128949    -78.7152014928939    0.981013110482789    9.76192488094399     
103.301437669364     0.981318011305563    9.67420428037292     0.168104785810767    -78.8050846065927    0.168104785810767    -78.8050846065927    0.981318011305563    9.67420428037292     
104.107035102266     0.981618420806122    9.58699419660405     0.166603448119274    -78.8943333472049    0.166603448119274    -78.8943333472049    0.981618420806122    9.58699419660405     
104.918914995884     0.981914394705552    9.50029093953571     0.16511046464335     -78.9829491571375    0.16511046464335     -78.9829491571375    0.981914394705552    9.50029093953571     
105.737126344056     0.982205988050644    9.41409081764306     0.16362578172881     -79.0709334064248    0.16362578172881     -79.0709334064248    0.982205988050644    9.41409081764306     
106.561718522705     0.98249325521734     9.32839013838858     0.162149345489545    -79.1582873898193    0.162149345489545    -79.1582873898193    0.98249325521734     9.32839013838858     
107.392741292808     0.982776249914258    9.24318520862192     0.160681101818416    -79.2450123237929    0.160681101818416    -79.2450123237929    0.982776249914258    9.24318520862192     
108.230244803406     0.983055025186292    9.15847233496798     0.159220996397911    -79.3311093434444    0.159220996397911    -79.3311093434444    0.983055025186292    9.15847233496798     
109.074279594626     0.98332963341828     9.07424782420619     0.157768974710589    -79.4165794993068    0.157768974710589    -79.4165794993068    0.98332963341828     9.07424782420619     
109.924896600736     0.983600126338747    8.99050798363795     0.156324982049285    -79.5014237540492    0.156324982049285    -79.5014237540492    0.983600126338747    8.99050798363795     
110.782147153213     0.983866555023704    8.90724912144494     0.154888963527097    -79.5856429790693    0.154888963527097    -79.5856429790693    0.983866555023704    8.90724912144494     
111.646082983842     0.984128969900504    8.82446754703679     0.153460864087148    -79.6692379509676    0.153460864087148    -79.6692379509676    0.984128969900504    8.82446754703679     
112.516756227842     0.984387420751754    8.74215957139011     0.152040628512145    -79.7522093479       0.152040628512145    -79.7522093479       0.984387420751754    8.74215957139011     
113.394219427007     0.984641956719286    8.6603215073756      0.1506282014337      -79.8345577458011    0.1506282014337      -79.8345577458011    0.984641956719286    8.6603215073756      
114.278525532879     0.98489262630816     8.57894967007819     0.14922352734147     -79.9162836144703    0.14922352734147     -79.9162836144703    0.98489262630816     8.57894967007819     
115.169727909945     0.985139477390718    8.49804037710638     0.147826550592065    -79.9973873135148    0.147826550592065    -79.9973873135148    0.985139477390718    8.49804037710638     
116.067880338852     0.985382557210682    8.41758994889244     0.146437215417764    -80.0778690881413    0.146437215417764    -80.0778690881413    0.985382557210682    8.41758994889244     
116.97303701966      0.985621912387274    8.33759470898461     0.14505546593503     -80.1577290647879    0.14505546593503     -80.1577290647879    0.985621912387274    8.33759470898461     
117.885252575106     0.985857588919384    8.25805098432898     0.143681246152827    -80.236967246588     0.143681246152827    -80.236967246588     0.985857588919384    8.25805098432898     
118.804582053903     0.986089632189759    8.1789551055437      0.142314499980735    -80.3155835086578    0.142314499980735    -80.3155835086578    0.986089632189759    8.1789551055437      
119.731080934064     0.986318086969215    8.10030340718444     0.140955171236882    -80.3935775931948    0.140955171236882    -80.3935775931948    0.986318086969215    8.10030340718444     
120.664805126247     0.986542997420884    8.02209222800133     0.139603203655696    -80.4709491043826    0.139603203655696    -80.4709491043826    0.986542997420884    8.02209222800133     
121.60581097713      0.986764407104467    7.94431791118742     0.138258540895453    -80.5476975030849    0.138258540895453    -80.5476975030849    0.986764407104467    7.94431791118742     
122.554155272809     0.986982358980512    7.86697680461958     0.13692112654566     -80.6238221013228    0.13692112654566     -80.6238221013228    0.986982358980512    7.86697680461958     
123.509895242231     0.987196895414707    7.79006526109119     0.135590904134254    -80.6993220565193    0.135590904134254    -80.6993220565193    0.987196895414707    7.79006526109119     
124.473088560641     0.98740805818218     7.71357963853665     0.13426781713463     -80.7741963655017    0.13426781713463     -80.7741963655017    0.98740805818218     7.71357963853665     
125.443793353065     0.987615888471809    7.63751630024896     0.132951808972497    -80.8484438582448    0.132951808972497    -80.8484438582448    0.987615888471809    7.63751630024896     
126.422068197819     0.987820426890542    7.5618716150893      0.131642823032566    -80.9220631913442    0.131642823032566    -80.9220631913442    0.987820426890542    7.5618716150893      
127.407972130041     0.988021713467718    7.48664195768934     0.130340802665078    -80.9950528412012    0.130340802665078    -80.9950528412012    0.988021713467718    7.48664195768934     
128.401564645257     0.988219787659382    7.41182370864655     0.129045691192165    -81.0674110969065    0.129045691192165    -81.0674110969065    0.988219787659382    7.41182370864655     
129.402905702968     0.988414688352618    7.33741325471177     0.127757431914065    -81.1391360528016    0.127757431914065    -81.1391360528016    0.988414688352618    7.33741325471177     
130.412055730271     0.988606453869855    7.26340698897071     0.12647596811517     -81.2102256007043    0.12647596811517     -81.2102256007043    0.988606453869855    7.26340698897071     
131.429075625504     0.988795121973188    7.18980131101847     0.125201243069939    -81.2806774217744    0.125201243069939    -81.2806774217744    0.988795121973188    7.18980131101847     
132.454026761921     0.988980729868678    7.11659262712628     0.123933200048656    -81.3504889780029    0.123933200048656    -81.3504889780029    0.988980729868678    7.11659262712628     
133.486970991396     0.989163314210647    7.04377735040376     0.122671782323048    -81.4196575032999    0.122671782323048    -81.4196575032999    0.989163314210647    7.04377735040376     
134.527970648156     0.989342911105963    6.97135190095242     0.121416933171761    -81.4881799941601    0.121416933171761    -81.4881799941601    0.989342911105963    6.97135190095242     
135.577088552542     0.989519556118311    6.89931270601517     0.120168595885716    -81.5560531998794    0.120168595885716    -81.5560531998794    0.989519556118311    6.89931270601517     
136.634388014801     0.989693284272441    6.82765620011767     0.11892671377331     -81.623273612297     0.11892671377331     -81.623273612297     0.989693284272441    6.82765620011767     
137.699932838904     0.989864130058408    6.75637882520562     0.117691230165509    -81.6898374550349    0.117691230165509    -81.6898374550349    0.989864130058408    6.75637882520562     
138.773787326399     0.990032127435794    6.68547703077403     0.116462088420811    -81.7557406722049    0.116462088420811    -81.7557406722049    0.990032127435794    6.68547703077403     
139.85601628029      0.9901973098379      6.61494727399288     0.115239231930086    -81.8209789165488    0.115239231930086    -81.8209789165488    0.9901973098379      6.61494727399288     
140.946685008948     0.990359710175919    6.54478601982541     0.114022604121308    -81.885547536982     0.114022604121308    -81.885547536982     0.990359710175919    6.54478601982541     
142.045859330053     0.990519360843093    6.4749897411422      0.112812148464169    -81.9494415654986    0.112812148464169    -81.9494415654986    0.990519360843093    6.4749897411422      
143.153605574564     0.990676293718833    6.4055549188288      0.111607808474589    -82.0126557034028    0.111607808474589    -82.0126557034028    0.990676293718833    6.4055549188288      
144.269990590721     0.990830540172824    6.33647804188908     0.110409527719119    -82.0751843068228    0.110409527719119    -82.0751843068228    0.990830540172824    6.33647804188908     
145.395081748086     0.990982131069086    6.26775560754256     0.109217249819254    -82.1370213714629    0.109217249819254    -82.1370213714629    0.990982131069086    6.26775560754256     
146.528946941597     0.991131096770025    6.19938412131721     0.108030918455636    -82.1981605165447    0.108030918455636    -82.1981605165447    0.991131096770025    6.19938412131721     
147.671654595675     0.991277467140435    6.13136009713742     0.106850477372184    -82.2585949678884    0.106850477372184    -82.2585949678884    0.991277467140435    6.13136009713742     
148.823273668351     0.991421271551483    6.06368005740656     0.105675870380124    -82.3183175400753    0.105675870380124    -82.3183175400753    0.991421271551483    6.06368005740656     
149.983873655421     0.991562538884647    5.99634053308598     0.104507041361954    -82.3773206176355    0.104507041361954    -82.3773206176355    0.991562538884647    5.99634053308598     
151.153524594649     0.991701297535632    5.92933806376766     0.10334393427531     -82.4355961351951    0.10334393427531     -82.4355961351951    0.991701297535632    5.92933806376766     
152.332297069989     0.99183757541824     5.8626691977447      0.102186493156791    -82.4931355565153    0.102186493156791    -82.4931355565153    0.99183757541824     5.8626691977447      
153.520262215843     0.991971399968214    5.79633049207482     0.101034662125685    -82.5499298523497    0.101034662125685    -82.5499298523497    0.991971399968214    5.79633049207482     
154.717491721356     0.992102798147028    5.73031851264238     0.099888385387667    -82.6059694770398    0.099888385387667    -82.6059694770398    0.992102798147028    5.73031851264238     
155.924057834742     0.992231796445664    5.66462983421384     0.098747607238419    -82.6612443437649    0.098747607238419    -82.6612443437649    0.992231796445664    5.66462983421384     
157.140033367643     0.992358420888321    5.59926104049064     0.097612272067211    -82.7157437983538    0.097612272067211    -82.7157437983538    0.992358420888321    5.59926104049064     
158.365491699524     0.9924826970361      5.53420872415778     0.096482324360442    -82.7694565915582    0.096482324360442    -82.7694565915582    0.9924826970361      5.53420872415778     
159.600506782101     0.992604649990653    5.46946948692798     0.095357708705134    -82.822370849683     0.095357708705134    -82.822370849683     0.992604649990653    5.46946948692798     
160.845153143802     0.992724304397769    5.40503993958307     0.094238369792404    -82.8744740434569    0.094238369792404    -82.8744740434569    0.992724304397769    5.40503993958307     
162.099505894267     0.992841684450935    5.34091670201116     0.093124252420916    -82.9257529550173    0.093124252420916    -82.9257529550173    0.992841684450935    5.34091670201116     
163.363640728878     0.992956813894854    5.27709640324012     0.092015301500314    -82.9761936428781    0.092015301500314    -82.9761936428781    0.992956813894854    5.27709640324012     
164.637633933329     0.993069716028898    5.2135756814682      0.090911462054641    -83.0257814047305    0.090911462054641    -83.0257814047305    0.993069716028898    5.2135756814682      
165.92156238823      0.993180413710545    5.15035118409066     0.08981267922577     -83.0745007379217    0.08981267922577     -83.0745007379217    0.993180413710545    5.15035118409066     
167.215503573744     0.993288929358745    5.0874195677236      0.08871889827684     -83.122335297438     0.08871889827684     -83.122335297438     0.993288929358745    5.0874195677236      
168.519535574264     0.993395284957253    5.02477749822437     0.087630064595709    -83.169267851208     0.087630064595709    -83.169267851208     0.993395284957253    5.02477749822437     
169.833737083125     0.993499502057917    4.96242165070885     0.086546123698434    -83.2152802325229    0.086546123698434    -83.2152802325229    0.993499502057917    4.96242165070885     
171.158187407354     0.993601601783903    4.90034870956616     0.085467021232797    -83.2603532893549    0.085467021232797    -83.2603532893549    0.993601601783903    4.90034870956616     
172.492966472453     0.993701604832892    4.83855536846976     0.084392702981876    -83.304466830335     0.084392702981876    -83.304466830335     0.993701604832892    4.83855536846976     
173.838154827225     0.993799531480214    4.77703833038663     0.083323114867681    -83.3475995671306    0.083323114867681    -83.3475995671306    0.993799531480214    4.77703833038663     
175.193833648633     0.993895401581935    4.71579430758279     0.08225820295486     -83.3897290529396    0.08225820295486     -83.3897290529396    0.993895401581935    4.71579430758279     
176.5600847467       0.993989234577902    4.65482002162679     0.0811979134545      -83.4308316167918    0.0811979134545      -83.4308316167918    0.993989234577902    4.65482002162679     
177.936990569447     0.99408104949473     4.59411220339054     0.080142192728035    -83.4708822933221    0.080142192728035    -83.4708822933221    0.99408104949473     4.59411220339054     
179.324634207864     0.994170864948737    4.53366759304747     0.079090987291263    -83.5098547476455    0.079090987291263    -83.5098547476455    0.994170864948737    4.53366759304747     
180.723099400929     0.994258699148842    4.4734829400684      0.07804424381851     -83.5477211949315    0.07804424381851     -83.5477211949315    0.994258699148842    4.4734829400684      
182.132470540656     0.994344569899391    4.41355500321539     0.077001909146955    -83.5844523142377    0.077001909146955    -83.5844523142377    0.994344569899391    4.41355500321539     
183.552832677197     0.994428494602947    4.35388055053236     0.075963930281112    -83.6200171561187    0.075963930281112    -83.6200171561187    0.994428494602947    4.35388055053236     
184.984271523964     0.994510490263025    4.29445635933533     0.074930254397545    -83.654383043479     0.074930254397545    -83.654383043479     0.994510490263025    4.29445635933533     
186.426873462808     0.99459057348677     4.23527921619833     0.073900828849768    -83.6875154650886    0.073900828849768    -83.6875154650886    0.99459057348677     4.23527921619833     
187.880725549227     0.994668760487583    4.17634591693945     0.072875601173434    -83.7193779611202    0.072875601173434    -83.7193779611202    0.994668760487583    4.17634591693945     
189.345915517627     0.994745067087702    4.11765326660346     0.071854519091779    -83.7499320000026    0.071854519091779    -83.7499320000026    0.994745067087702    4.11765326660346     
190.822531786607     0.99481950872072     4.05919807944321     0.070837530521386    -83.779136845814     0.070837530521386    -83.779136845814     0.99481950872072     4.05919807944321     
192.310663464303     0.99489210043405     4.00097717889928     0.069824583578298    -83.8069494153555    0.069824583578298    -83.8069494153555    0.99489210043405     4.00097717889928     
193.81040035376      0.99496285689135     3.94298739757766     0.068815626584517    -83.833324123961     0.068815626584517    -83.833324123961     0.99496285689135     3.94298739757766     
195.321832958354     0.995031792374874    3.88522557722607     0.067810608074932    -83.8582127189912    0.067810608074932    -83.8582127189912    0.995031792374874    3.88522557722607     
196.845052487251     0.995098920787782    3.82768856870841     0.066809476804716    -83.8815640998558    0.066809476804716    -83.8815640998558    0.995098920787782    3.82768856870841     
198.380150860914     0.995164255656397    3.77037323197798     0.06581218175726     -83.9033241232729    0.06581218175726     -83.9033241232729    0.995164255656397    3.77037323197798     
199.92722071665      0.995227810132394    3.71327643604919     0.064818672152687    -83.9234353923385    0.064818672152687    -83.9234353923385    0.995227810132394    3.71327643604919     
201.486355414196     0.995289596994952    3.65639505896798     0.063828897457019    -83.9418370278172    0.063828897457019    -83.9418370278172    0.995289596994952    3.65639505896798     
203.057649041359     0.995349628652835    3.5997259877807      0.062842807392055    -83.9584644198825    0.062842807392055    -83.9584644198825    0.995349628652835    3.5997259877807      
204.641196419689     0.995407917146434    3.54326611850215     0.061860351946055    -83.9732489583359    0.061860351946055    -83.9732489583359    0.995407917146434    3.54326611850215     
206.237093110203     0.995464474149738    3.48701235608225     0.060881481385314    -83.986117739099     0.060881481385314    -83.986117739099     0.995464474149738    3.48701235608225     
207.845435419152     0.99551931097226     3.43096161437149     0.059906146266704    -83.9969932445141    0.059906146266704    -83.9969932445141    0.99551931097226     3.43096161437149     
209.466320403833     0.995572438560908    3.37511081608591     0.058934297451335    -84.0057929946923    0.058934297451335    -84.0057929946923    0.995572438560908    3.37511081608591     
211.099845878445     0.995623867501793    3.31945689277029     0.057965886119409    -84.0124291668103    0.057965886119409    -84.0124291668103    0.995623867501793    3.31945689277029     
212.746110419992     0.995673608021988    3.26399678476137     0.057000863786448    -84.016808178873     0.057000863786448    -84.016808178873     0.995673608021988    3.26399678476137     
214.405213374231     0.995721669991232    3.20872744114943     0.056039182321022    -84.0188302340227    0.056039182321022    -84.0188302340227    0.995721669991232    3.20872744114943     
216.07725486167      0.995768062923575    3.15364581973972     0.05508079396417     -84.0183888209718    0.05508079396417     -84.0183888209718    0.995768062923575    3.15364581973972     
217.762335783607     0.995812795978965    3.0987488870129      0.054125651350708    -84.0153701655638    0.054125651350708    -84.0153701655638    0.995812795978965    3.0987488870129      
219.460557828219     0.995855877964788    3.04403361808487     0.053173707532636    -84.0096526278094    0.053173707532636    -84.0096526278094    0.995855877964788    3.04403361808487     
221.1720234767       0.995897317337345    2.98949699666609     0.052224916004915    -84.0011060379824    0.052224916004915    -84.0011060379824    0.995897317337345    2.98949699666609     
222.896836009445     0.995937122203277    2.93513601502036     0.0512792307339      -83.9895909644913    0.0512792307339      -83.9895909644913    0.995937122203277    2.93513601502036     
224.635099512284     0.995975300320928    2.88094767392325     0.050336606188744    -83.9749579052269    0.050336606188744    -83.9749579052269    0.995975300320928    2.88094767392325     
226.386918882757     0.996011859101664    2.8269289826199      0.049396997376163    -83.9570463929212    0.049396997376163    -83.9570463929212    0.996011859101664    2.8269289826199      
228.152399836454     0.996046805611124    2.77307695878291     0.048460359878994    -83.9356840036914    0.048460359878994    -83.9356840036914    0.996046805611124    2.77307695878291     
229.931648913385     0.996080146570422    2.71938862846944     0.047526649899014    -83.9106852563631    0.047526649899014    -83.9106852563631    0.996080146570422    2.71938862846944     
231.724773484416     0.996111888357296    2.66586102607856     0.04659582430462     -83.8818503883231    0.04659582430462     -83.8818503883231    0.996111888357296    2.66586102607856     
233.531881757745     0.996142037007185    2.61249119430832     0.045667840683994    -83.8489639914952    0.045667840683994    -83.8489639914952    0.996142037007185    2.61249119430832     
235.353082785432     0.996170598214281    2.55927618411253     0.044742657404524    -83.8117934894994    0.044742657404524    -83.8117934894994    0.996170598214281    2.55927618411253     
237.188486469983     0.996197577332491    2.50621305465788     0.04382023367934     -83.7700874340828    0.04382023367934     -83.7700874340828    0.996197577332491    2.50621305465788     
239.038203570977     0.996222979376364    2.45329887328079     0.042900529641989    -83.7235735953961    0.042900529641989    -83.7235735953961    0.996222979376364    2.45329887328079     
240.902345711755     0.996246809021964    2.40053071544467     0.041983506430424    -83.671956816539     0.041983506430424    -83.671956816539     0.996246809021964    2.40053071544467     
242.781025386155     0.996269070607671    2.3479056646968      0.041069126281679    -83.6149165978649    0.041069126281679    -83.6149165978649    0.996269070607671    2.3479056646968      
244.674355965296     0.996289768134946    2.29542081262617     0.040157352638857    -83.552104370673     0.040157352638857    -83.552104370673     0.996289768134946    2.29542081262617     
246.582451704425     0.996308905269029    2.24307325882088     0.039248150272317    -83.4831404128978    0.039248150272317    -83.4831404128978    0.996308905269029    2.24307325882088     
248.505427749809     0.996326485339578    2.19086011082645     0.038341485417305    -83.4076103510141    0.038341485417305    -83.4076103510141    0.996326485339578    2.19086011082645     
250.443400145686     0.996342511341269    2.13877848410408     0.037437325930668    -83.3250611822614    0.037437325930668    -83.3250611822614    0.996342511341269    2.13877848410408     
252.396485841266     0.996356985934327    2.08682550198962     0.036535641469794    -83.234996739096     0.036535641469794    -83.234996739096     0.996356985934327    2.08682550198962     
254.364802697787     0.996369911445008    2.03499829565306     0.035636403697534    -83.1368725029953    0.035636403697534    -83.1368725029953    0.996369911445008    2.03499829565306     
256.34846949563      0.996381289866018    1.98329400405829     0.034739586517559    -83.0300896567441    0.034739586517559    -83.0300896567441    0.996381289866018    1.98329400405829     
258.347605941487     0.996391122856893    1.93170977392397     0.033845166345564    -82.9139882423625    0.033845166345564    -82.9139882423625    0.996391122856893    1.93170977392397     
260.362332675583     0.996399411744312    1.88024275968464     0.032953122422766    -82.7878392648642    0.032953122422766    -82.7878392648642    0.996399411744312    1.88024275968464     
262.392771278959     0.996406157522356    1.82889012345293     0.032063437179581    -82.6508355488054    0.032063437179581    -82.6508355488054    0.996406157522356    1.82889012345293     
264.439044280804     0.996411360852716    1.7776490349822      0.03117609665902     -82.5020811134394    0.03117609665902     -82.5020811134394    0.996411360852716    1.7776490349822      
266.501275165855     0.99641502206485     1.72651667163047     0.030291091011482    -82.3405787811038    0.030291091011482    -82.3405787811038    0.99641502206485     1.72651667163047     
268.579588381844     0.996417141156082    1.67549021832493     0.029408415075304    -82.1652156694675    0.029408415075304    -82.1652156694675    0.996417141156082    1.67549021832493     
270.674109347012     0.996417717791643    1.62456686752768     0.028528069060767    -81.9747461378327    0.028528069060767    -81.9747461378327    0.996417717791643    1.62456686752768     
272.784964457675     0.996416751304665    1.57374381920229     0.02765005935956     -81.7677716560426    0.02765005935956     -81.7677716560426    0.996416751304665    1.57374381920229     
274.912281095852     0.996414240696123    1.52301828078169     0.026774399507166    -81.5427169353978    0.026774399507166    -81.5427169353978    0.996414240696123    1.52301828078169     
277.056187636951     0.996410184634714    1.47238746713704     0.025901111332647    -81.2978014959       0.025901111332647    -81.2978014959       0.996410184634714    1.47238746713704     
279.216813457519     0.996404581456691    1.42184860054806     0.025030226339431    -81.0310056318718    0.025030226339431    -81.0310056318718    0.996404581456691    1.42184860054806     
281.394288943045     0.996397429165645    1.37139891067424     0.024161787372551    -80.7400294633183    0.024161787372551    -80.7400294633183    0.996397429165645    1.37139891067424     
283.588745495834     0.996388725432227    1.32103563452792     0.023295850643395    -80.4222434026622    0.023295850643395    -80.4222434026622    0.996388725432227    1.32103563452792     
285.800315542931     0.996378467593824    1.27075601644849     0.022432488203636    -80.0746278974312    0.022432488203636    -80.0746278974312    0.996378467593824    1.27075601644849     
288.029132544115     0.996366652654179    1.22055730807798     0.021571790987576    -79.6936996902692    0.021571790987576    -79.6936996902692    0.996366652654179    1.22055730807798     
290.275330999953     0.996353277282962    1.1704367683384      0.020713872579172    -79.2754210144154    0.020713872579172    -79.2754210144154    0.996353277282962    1.1704367683384      
292.539046459916     0.996338337815285    1.12039166341061     0.019858873910364    -78.8150870405503    0.019858873910364    -78.8150870405503    0.996338337815285    1.12039166341061     
294.82041553056      0.996321830251172    1.07041926671483     0.019006969166282    -78.3071854044982    0.019006969166282    -78.3071854044982    0.996321830251172    1.07041926671483     
297.119575883768     0.996303750254971    1.02051685889272     0.018158373268363    -77.7452196267353    0.018158373268363    -77.7452196267353    0.996303750254971    1.02051685889272     
299.436666265059     0.996284093154715    0.970681727791854    0.017313351439836    -77.1214854749928    0.017313351439836    -77.1214854749928    0.996284093154715    0.970681727791854    
301.771826501959     0.996262853941444    0.920911168451233    0.01647223154647     -76.4267855252242    0.01647223154647     -76.4267855252242    0.996262853941444    0.920911168451233    
304.125197512442     0.996240027268456    0.871202483089266    0.015635420174451    -75.6500619279908    0.015635420174451    -75.6500619279908    0.996240027268456    0.871202483089266    
306.496921313434     0.996215607450531    0.82155298109358     0.014803423795258    -74.7779201070694    0.014803423795258    -74.7779201070694    0.996215607450531    0.82155298109358     
308.887141029379     0.996189588463085    0.771959979012987    0.013976876933086    -73.7940060134875    0.013976876933086    -73.7940060134875    0.996189588463085    0.771959979012987    
311.296000900879     0.99616196394129     0.722420800551334    0.013156580083143    -72.6781855982331    0.013156580083143    -72.6781855982331    0.99616196394129     0.722420800551334    
313.723646293399     0.996132727179132    0.672932776563928    0.012343551366053    -71.4054561265359    0.012343551366053    -71.4054561265359    0.996132727179132    0.672932776563928    
316.170223706036     0.996101871128432    0.623493245055804    0.011539097752334    -69.9444937236925    0.011539097752334    -69.9444937236925    0.996101871128432    0.623493245055804    
318.635880780366     0.996069388397813    0.574099551182693    0.010744914460617    -68.2557101117657    0.010744914460617    -68.2557101117657    0.996069388397813    0.574099551182693    
321.120766309346     0.996035271251616    0.524749047254151    0.009963225260698    -66.2886577459179    0.009963225260698    -66.2886577459179    0.996035271251616    0.524749047254151    
323.625030246297     0.995999511608771    0.475439092739272    0.009196982445164    -63.9786014317022    0.009196982445164    -63.9786014317022    0.995999511608771    0.475439092739272    
326.148823713954     0.995962101041631    0.426167054274931    0.008450153633021    -61.2421096682895    0.008450153633021    -61.2421096682895    0.995962101041631    0.426167054274931    
328.692299013584     0.995923030774739    0.376930305676632    0.007728132947057    -57.9717239649106    0.007728132947057    -57.9717239649106    0.995923030774739    0.376930305676632    
331.255609634176     0.995882291683566    0.327726227952091    0.007038322844708    -54.0304105496364    0.007038322844708    -54.0304105496364    0.995882291683566    0.327726227952091    
333.838910261705     0.995839874293194    0.27855220931744     0.006390926687355    -49.2481700125515    0.006390926687355    -49.2481700125515    0.995839874293194    0.27855220931744     
336.442356788468     0.995795768776966    0.229405645216579    0.005799933292458    -43.4269020456322    0.005799933292458    -43.4269020456322    0.995795768776966    0.229405645216579    
339.066106322488     0.995749964955066    0.180283938343028    0.005284077727347    -36.3663108548983    0.005284077727347    -36.3663108548983    0.995749964955066    0.180283938343028    
341.710317196997     0.995702452293088    0.131184498665197    0.004867099731079    -27.9306237035217    0.004867099731079    -27.9306237035217    0.995702452293088    0.131184498665197    
344.375148979991     0.99565321990053     0.082104743454348    0.004575921154268    -18.167693899037     0.004575921154268    -18.167693899037     0.99565321990053     0.082104743454348    
347.060762483859     0.995602256529275    0.03304209731607     0.004435229454088    -7.43802937851383    0.004435229454088    -7.43802937851383    0.995602256529275    0.03304209731607     
349.767319775087     0.995549550571998    -0.016006007775381   0.004459169589464    3.57580536638453     0.004459169589464    3.57580536638453     0.995549550571998    -0.016006007775381   
352.494984184037     0.995495090060559    -0.06504213243914    0.004645114169025    14.0804867381605     0.004645114169025    14.0804867381605     0.995495090060559    -0.06504213243914    
355.243920314807     0.995438862664337    -0.114068829846549   0.004974885312068    23.4756862193153     0.004974885312068    23.4756862193153     0.995438862664337    -0.114068829846549   
358.014294055161     0.995380855688529    -0.163088645676516   0.005422291873748    31.501762334765      0.005422291873748    31.501762334765      0.995380855688529    -0.163088645676516   
360.806272586539     0.995321056072416    -0.212104118067143   0.005960919048613    38.1792512130398     0.005960919048613    38.1792512130398     0.995321056072416    -0.212104118067143   
363.62002439415      0.995259450387577    -0.261117777563968   0.006568400944817    43.6728848335919     0.006568400944817    43.6728848335919     0.995259450387577    -0.261117777563968   
366.455719277135     0.995196024836072    -0.310132147064332   0.007227451348688    48.1869920132599     0.007227451348688    48.1869920132599     0.995196024836072    -0.310132147064332   
369.313528358815     0.995130765248588    -0.359149741757863   0.007925285586724    51.9128644189308     0.007925285586724    51.9128644189308     0.995130765248588    -0.359149741757863   
372.193624097022     0.995063657082549    -0.408173069063335   0.008652606939521    55.0108191254089     0.008652606939521    55.0108191254089     0.995063657082549    -0.408173069063335   
375.096180294498     0.994994685420178    -0.457204628561241   0.009402667084515    57.6087170767138     0.009402667084515    57.6087170767138     0.994994685420178    -0.457204628561241   
378.02137210939      0.994923834966549    -0.506246911922426   0.010170536597671    59.806397794927      0.010170536597671    59.806397794927      0.994923834966549    -0.506246911922426   
380.969376065815     0.994851090047574    -0.555302402832603   0.010952577466107    61.681306999461      0.010952577466107    61.681306999461      0.994851090047574    -0.555302402832603   
383.940370064519     0.994776434607979    -0.604373576912505   0.01174607248213     63.2935888371079     0.01174607248213     63.2935888371079     0.994776434607979    -0.604373576912505   
386.934533393608     0.994699852209241    -0.653462901633826   0.012548967046094    64.6901994840893     0.012548967046094    64.6901994840893     0.994699852209241    -0.653462901633826   
389.952046739367     0.994621326027493    -0.702572836230575   0.013359688916963    65.9080730753221     0.013359688916963    65.9080730753221     0.994621326027493    -0.702572836230575   
392.993092197165     0.994540838851392    -0.751705831605941   0.014177021427867    66.9765075259062     0.014177021427867    66.9765075259062     0.994540838851392    -0.751705831605941   
396.057853282446     0.994458373079974    -0.800864330234622   0.015000013380783    67.9189490214439     0.015000013380783    67.9189490214439     0.994458373079974    -0.800864330234622   
399.146514941798     0.994373910720468    -0.850050766060296   0.015827914258014    68.7543264019288     0.015827914258014    68.7543264019288     0.994373910720468    -0.850050766060296   
402.259263564121     0.994287433386077    -0.899267564388385   0.016660127069339    69.4980527491515     0.016660127069339    69.4980527491515     0.994287433386077    -0.899267564388385   
405.396286991867     0.994198922293756    -0.948517141773722   0.017496173617191    70.1627817250091     0.017496173617191    70.1627817250091     0.994198922293756    -0.948517141773722   
408.557774532382     0.994108358261943    -0.997801905903492   0.018335668606521    70.7589828677419     0.018335668606521    70.7589828677419     0.994108358261943    -0.997801905903492   
411.743916969327     0.994015721708276    -1.04712425547459    0.019178300127704    71.2953826294933     0.019178300127704    71.2953826294933     0.994015721708276    -1.04712425547459    
414.954906574191     0.993920992647284    -1.09648658006632    0.020023814784382    71.7793052275913     0.020023814784382    71.7793052275913     0.993920992647284    -1.09648658006632    
418.190937117895     0.993824150688067    -1.14589126000733    0.020872006244511    72.2169382003429     0.020872006244511    72.2169382003429     0.993824150688067    -1.14589126000733    
421.452203882485     0.993725175031941    -1.19534066623718    0.021722706341284    72.6135409440131     0.021722706341284    72.6135409440131     0.993725175031941    -1.19534066623718    
424.738903672915     0.99362404447008     -1.24483716016265    0.022575778092868    72.9736097360859     0.022575778092868    72.9736097360859     0.99362404447008     -1.24483716016265    
428.051234828925     0.993520737381126    -1.29438309350806    0.023431110180115    73.301009293996      0.023431110180115    73.301009293996      0.993520737381126    -1.29438309350806    
431.389397237011     0.993415231728804    -1.34398080815991    0.024288612542325    73.5990784018323     0.024288612542325    73.5990784018323     0.993415231728804    -1.34398080815991    
434.753592342484     0.993307505059503    -1.39363263600594    0.025148212837902    73.8707152931553     0.025148212837902    73.8707152931553     0.993307505059503    -1.39363263600594    
438.144023161631     0.993197534499855    -1.44334089876785    0.026009853579562    74.1184471171592     0.026009853579562    74.1184471171592     0.993197534499855    -1.44334089876785    
441.560894293962     0.993085296754309    -1.49310790782815    0.02687348979982     74.3444868041409     0.02687348979982     74.3444868041409     0.993085296754309    -1.49310790782815    
445.004411934559     0.992970768102683    -1.54293596405058    0.027739087136366    74.5507798893696     0.027739087136366    74.5507798893696     0.992970768102683    -1.54293596405058    
448.47478388652      0.992853924397724    -1.59282735759489    0.028606620252297    74.7390432839796     0.028606620252297    74.7390432839796     0.992853924397724    -1.59282735759489    
451.972219573494     0.992734741062649    -1.6427843677242     0.029476071525142    74.9107975485092     0.029476071525142    74.9107975485092     0.992734741062649    -1.6427843677242     
455.496930052328     0.992613193088699    -1.69280926260659    0.030347429953011    75.0673938937988     0.030347429953011    75.0673938937988     0.992613193088699    -1.69280926260659    
459.049128025795     0.992489255032675    -1.74290429910975    0.031220690237175    75.2100368794093     0.031220690237175    75.2100368794093     0.992489255032675    -1.74290429910975    
462.629027855433     0.992362901014486    -1.793071722589      0.032095852008833    75.3398035826221     0.032095852008833    75.3398035826221     0.992362901014486    -1.793071722589      
466.236845574481     0.992234104714703    -1.84331376666812    0.032972919174329    75.4576598575411     0.032972919174329    75.4576598575411     0.992234104714703    -1.84331376666812    
469.872798900916     0.992102839372106    -1.89363265301376    0.033851899358189    75.5644741834726     0.033851899358189    75.5644741834726     0.992102839372106    -1.89363265301376    
473.537107250593     0.991969077781249    -1.94403059110194    0.034732803427316    75.6610295069023     0.034732803427316    75.6610295069023     0.991969077781249    -1.94403059110194    
477.229991750481     0.99183279229003     -1.9945097779781     0.035615645082852    75.748033406197      0.035615645082852    75.748033406197      0.99183279229003     -1.9945097779781     
480.951675252012     0.991693954797278    -2.04507239800923    0.036500440508682    75.8261268482393     0.036500440508682    75.8261268482393     0.991693954797278    -2.04507239800923    
484.702382344525     0.991552536750347    -2.09572062262887    0.037387208067569    75.8958917582079     0.037387208067569    75.8958917582079     0.991552536750347    -2.09572062262887    
488.482339368826     0.991408509142734    -2.14645661007423    0.038275968037482    75.9578575850877     0.038275968037482    75.9578575850877     0.991408509142734    -2.14645661007423    
492.291774430837     0.991261842511714    -2.19728250511579    0.039166742381999    76.0125070142407     0.039166742381999    76.0125070142407     0.991261842511714    -2.19728250511579    
496.130917415372     0.991112506936       -2.24820043877897    0.040059554549671    76.0602809529861     0.040059554549671    76.0602809529861     0.991112506936       -2.24820043877897    
500                  0.990960472033418    -2.29921252805778    0.040954429298097    76.1015828944199     0.040954429298097    76.1015828944199     0.990960472033418    -2.29921252805778    
