# MHz S MA R 50      
!Freq                MagS11               AngS11               MagS21               AngS21               MagS12               AngS12               MagS22               AngS22               
1                    0.31683925835473     56.6648515381695     0.867270609048778    -17.7715033094222    0.867270609048778    -17.7715033094222    0.31683925835473     56.6648515381695     
1.00628294955873     0.318496086751449    56.6324094050031     0.866653736270396    -17.8738202767741    0.866653736270396    -17.8738202767741    0.318496086751449    56.6324094050031     
1.01260537457262     0.320160420665191    56.5991447347869     0.866031422487118    -17.9766410171025    0.866031422487118    -17.9766410171025    0.320160420665191    56.5991447347869     
1.01896752306396     0.321832257633077    56.5650575932047     0.865403624705842    -18.0799666336756    0.865403624705842    -18.0799666336756    0.321832257633077    56.5650575932047     
1.02536964461336     0.323511594567107    56.5301480684576     0.864770299811031    -18.1837982085564    0.864770299811031    -18.1837982085564    0.323511594567107    56.5301480684576     
1.03181199036952     0.325198427745201    56.4944162715872     0.864131404569873    -18.2881368021707    0.864131404569873    -18.2881368021707    0.325198427745201    56.4944162715872     
1.0382948130591      0.326892752802257    56.4578623368034     0.863486895637555    -18.3929834528731    0.863486895637555    -18.3929834528731    0.326892752802257    56.4578623368034     
1.04481836699664     0.328594564721151    56.4204864218161     0.862836729562669    -18.4983391765083    0.862836729562669    -18.4983391765083    0.328594564721151    56.4204864218161     
1.05138290809452     0.330303857823765    56.3822887081726     0.862180862792802    -18.6042049659706    0.862180862792802    -18.6042049659706    0.330303857823765    56.3822887081726     
1.05798869387299     0.332020625761982    56.3432694016004     0.861519251680264    -18.7105817907593    0.861519251680264    -18.7105817907593    0.332020625761982    56.3432694016004     
1.0646359834703      0.333744861508667    56.3034287323533     0.860851852487905    -18.8174705965312    0.860851852487905    -18.8174705965312    0.333744861508667    56.3034287323533     
1.07132503765286     0.335476557348663    56.2627669555628     0.860178621395154    -18.9248723046502    0.860178621395154    -18.9248723046502    0.335476557348663    56.2627669555628     
1.07805611882543     0.337215704869773    56.2212843515944     0.859499514504159    -19.0327878117343    0.859499514504159    -19.0327878117343    0.337215704869773    56.2212843515944     
1.0848294910415      0.338962294953739    56.1789812264075     0.85881448784609     -19.1412179891985    0.85881448784609     -19.1412179891985    0.338962294953739    56.1789812264075     
1.09164542001353     0.340716317767239    56.1358579119209     0.8581234973876      -19.2501636827963    0.8581234973876      -19.2501636827963    0.340716317767239    56.1358579119209     
1.0985041731235      0.342477762752882    56.0919147663811     0.857426499037406    -19.3596257121575    0.857426499037406    -19.3596257121575    0.342477762752882    56.0919147663811     
1.10540601943329     0.344246618620226    56.0471521747353     0.856723448653092    -19.4696048703245    0.856723448653092    -19.4696048703245    0.344246618620226    56.0471521747353     
1.11235122969531     0.346022873336785    56.00157054901       0.856014302047952    -19.5801019232838    0.856014302047952    -19.5801019232838    0.346022873336785    56.00157054901       
1.11934007636307     0.347806514119103    55.9551703286902     0.855299014998141    -19.6911176094988    0.855299014998141    -19.6911176094988    0.347806514119103    55.9551703286902     
1.12637283360193     0.349597527423793    55.9079519811055     0.854577543249816    -19.8026526394358    0.854577543249816    -19.8026526394358    0.349597527423793    55.9079519811055     
1.13344977729978     0.351395898938651    55.8599160018185     0.853849842526572    -19.9147076950912    0.853849842526572    -19.9147076950912    0.351395898938651    55.8599160018185     
1.14057118507791     0.353201613573763    55.8110629150179     0.853115868536944    -20.027283429515     0.853115868536944    -20.027283429515     0.353201613573763    55.8110629150179     
1.14773733630189     0.355014655452691    55.7613932739123     0.852375576982124    -20.1403804663329    0.852375576982124    -20.1403804663329    0.355014655452691    55.7613932739123     
1.15494851209255     0.356835007903643    55.7109076611317     0.851628923563808    -20.2539993992655    0.851628923563808    -20.2539993992655    0.356835007903643    55.7109076611317     
1.16220499533696     0.358662653450722    55.659606689128      0.850875863992191    -20.3681407916464    0.850875863992191    -20.3681407916464    0.358662653450722    55.659606689128      
1.16950707069957     0.360497573805233    55.6074910005816     0.850116353994172    -20.4828051759397    0.850116353994172    -20.4828051759397    0.360497573805233    55.6074910005816     
1.17685502463335     0.362339749856996    55.5545612688084     0.849350349321669    -20.5979930532529    0.849350349321669    -20.5979930532529    0.362339749856996    55.5545612688084     
1.18424914539106     0.364189161665751    55.5008181981734     0.848577805760117    -20.7137048928515    0.848577805760117    -20.7137048928515    0.364189161665751    55.5008181981734     
1.19168972303652     0.366045788452623    55.4462625245015     0.847798679137137    -20.8299411316706    0.847798679137137    -20.8299411316706    0.366045788452623    55.4462625245015     
1.19917704945602     0.367909608591622    55.3908950154971     0.847012925331323    -20.9467021738252    0.847012925331323    -20.9467021738252    0.367909608591622    55.3908950154971     
1.20671141836974     0.369780599601258    55.3347164711602     0.846220500281271    -21.063988390121     0.846220500281271    -21.063988390121     0.369780599601258    55.3347164711602     
1.2142931253433      0.371658738136183    55.2777277242089     0.845421359994684    -21.181800117562     0.845421359994684    -21.181800117562     0.371658738136183    55.2777277242089     
1.22192246779935     0.373543999978953    55.219929640502      0.844615460557704    -21.3001376588593    0.844615460557704    -21.3001376588593    0.373543999978953    55.219929640502      
1.22959974502921     0.375436360031844    55.1613231194643     0.843802758144352    -21.4190012819382    0.843802758144352    -21.4190012819382    0.375436360031844    55.1613231194643     
1.23732525820466     0.377335792308768    55.1019090945131     0.842983209026183    -21.5383912194449    0.842983209026183    -21.5383912194449    0.377335792308768    55.1019090945131     
1.2450993103897      0.3792422699273      55.0416885334863     0.842156769582076    -21.6583076682535    0.842156769582076    -21.6583076682535    0.3792422699273      55.0416885334863     
1.25292220655249     0.381155765100772    54.9806624390721     0.841323396308171    -21.7787507889726    0.841323396308171    -21.7787507889726    0.381155765100772    54.9806624390721     
1.26079425357728     0.383076249130491    54.918831849241      0.840483045827998    -21.8997207054505    0.840483045827998    -21.8997207054505    0.383076249130491    54.918831849241      
1.26871576027644     0.385003692398071    54.856197837676      0.839635674902746    -22.0212175042834    0.839635674902746    -22.0212175042834    0.385003692398071    54.856197837676      
1.27668703740263     0.386938064357873    54.7927615142064     0.838781240441708    -22.1432412343213    0.838781240441708    -22.1432412343213    0.386938064357873    54.7927615142064     
1.28470839766091     0.388879333529562    54.7285240252411     0.837919699512868    -22.265791906176     0.837919699512868    -22.265791906176     0.388879333529562    54.7285240252411     
1.29278015572109     0.390827467490784    54.6634865542032     0.837051009353634    -22.3888694917281    0.837051009353634    -22.3888694917281    0.390827467490784    54.6634865542032     
1.30090262823002     0.392782432870016    54.5976503219626     0.836175127381803    -22.5124739236379    0.836175127381803    -22.5124739236379    0.392782432870016    54.5976503219626     
1.30907613382401     0.394744195339491    54.5310165872718     0.835292011206564    -22.6366050948538    0.835292011206564    -22.6366050948538    0.394744195339491    54.5310165872718     
1.31730099314136     0.396712719608312    54.4635866471994     0.834401618639762    -22.7612628581242    0.834401618639762    -22.7612628581242    0.396712719608312    54.4635866471994     
1.32557752883494     0.398687969415695    54.3953618375644     0.833503907707258    -22.8864470255103    0.833503907707258    -22.8864470255103    0.398687969415695    54.3953618375644     
1.33390606558479     0.400669907524377    54.326343533369      0.83259883666046     -23.0121573679001    0.83259883666046     -23.0121573679001    0.400669907524377    54.326343533369      
1.34228693011095     0.402658495714181    54.2565331492311     0.831686363988003    -23.1383936145254    0.831686363988003    -23.1383936145254    0.402658495714181    54.2565331492311     
1.35072045118618     0.404653694775736    54.1859321398166     0.830766448427569    -23.2651554524792    0.830766448427569    -23.2651554524792    0.404653694775736    54.1859321398166     
1.35920695964893     0.40665546450438     54.1145420002693     0.82983904897788     -23.3924425262359    0.82983904897788     -23.3924425262359    0.40665546450438     54.1145420002693     
1.36774678841628     0.408663763694253    54.0423642666397     0.828904124910792    -23.5202544371756    0.828904124910792    -23.5202544371756    0.408663763694253    54.0423642666397     
1.37634027249702     0.410678550132546    53.9694005163129     0.827961635783581    -23.6485907431082    0.827961635783581    -23.6485907431082    0.410678550132546    53.9694005163129     
1.38498774900477     0.412699780593967    53.8956523684331     0.827011541451353    -23.7774509578032    0.827011541451353    -23.7774509578032    0.412699780593967    53.8956523684331     
1.39368955717122     0.414727410835384    53.8211214843286     0.826053802079563    -23.9068345505203    0.826053802079563    -23.9068345505203    0.414727410835384    53.8211214843286     
1.40244603835946     0.416761395590682    53.7458095679305     0.825088378156717    -24.0367409455447    0.825088378156717    -24.0367409455447    0.416761395590682    53.7458095679305     
1.41125753607732     0.418801688565825    53.6697183661934     0.824115230507174    -24.1671695217255    0.824115230507174    -24.1671695217255    0.418801688565825    53.6697183661934     
1.42012439599087     0.420848242434134    53.5928496695098     0.823134320304094    -24.2981196120184    0.823134320304094    -24.2981196120184    0.420848242434134    53.5928496695098     
1.429046965938       0.422901008831787    53.5152053121221     0.822145609082526    -24.4295905030316    0.822145609082526    -24.4295905030316    0.422901008831787    53.5152053121221     
1.43802559594205     0.424959938353531    53.4367871725334     0.821149058752579    -24.561581434576     0.821149058752579    -24.561581434576     0.424959938353531    53.4367871725334     
1.44706063822552     0.427024980548662    53.3575971739115     0.820144631612756    -24.6940915992213    0.820144631612756    -24.6940915992213    0.427024980548662    53.3575971739115     
1.45615244722391     0.429096083917209    53.2776372844915     0.819132290363412    -24.8271201418552    0.819132290363412    -24.8271201418552    0.429096083917209    53.2776372844915     
1.46530137959964     0.431173195906387    53.1969095179728     0.818111998120265    -24.9606661592485    0.818111998120265    -24.9606661592485    0.431173195906387    53.1969095179728     
1.47450779425601     0.433256262907274    53.1154159339136     0.817083718428096    -25.0947286996241    0.817083718428096    -25.0947286996241    0.433256262907274    53.1154159339136     
1.48377205235127     0.435345230251801    53.0331586381178     0.816047415274512    -25.2293067622351    0.816047415274512    -25.2293067622351    0.435345230251801    53.0331586381178     
1.49309451731285     0.437440042209934    52.9501397830206     0.81500305310381     -25.3643992969432    0.81500305310381     -25.3643992969432    0.437440042209934    52.9501397830206     
1.50247555485155     0.439540641987182    52.8663615680658     0.813950596830976    -25.5000052038077    0.813950596830976    -25.5000052038077    0.439540641987182    52.8663615680658     
1.51191553297591     0.441646971722366    52.7818262400796     0.812890011855719    -25.6361233326791    0.812890011855719    -25.6361233326791    0.441646971722366    52.7818262400796     
1.52141482200666     0.443758972485661    52.6965360936378     0.811821264076676    -25.7727524827985    0.811821264076676    -25.7727524827985    0.443758972485661    52.6965360936378     
1.53097379459123     0.445876584276932    52.6104934714275     0.81074431990563     -25.9098914024051    0.81074431990563     -25.9098914024051    0.445876584276932    52.6104934714275     
1.54059282571839     0.447999746024376    52.5237007646026     0.809659146281841    -26.0475387883499    0.809659146281841    -26.0475387883499    0.447999746024376    52.5237007646026     
1.55027229273292     0.45012839558345     52.4361604131316     0.808565710686473    -26.1856932857175    0.808565710686473    -26.1856932857175    0.45012839558345     52.4361604131316     
1.56001257535046     0.452262469736098    52.3478749061416     0.807463981157026    -26.3243534874531    0.807463981157026    -26.3243534874531    0.452262469736098    52.3478749061416     
1.56981405567237     0.454401904190342    52.2588467822494     0.806353926301943    -26.4635179340028    0.806353926301943    -26.4635179340028    0.454401904190342    52.2588467822494     
1.57967711820075     0.456546633580112    52.1690786298931     0.805235515315165    -26.6031851129549    0.805235515315165    -26.6031851129549    0.456546633580112    52.1690786298931     
1.58960214985348     0.458696591465453    52.07857308765       0.804108717990795    -26.7433534586946    0.804108717990795    -26.7433534586946    0.458696591465453    52.07857308765       
1.59958953997946     0.460851710333072    51.987332844548      0.802973504737831    -26.8840213520666    0.802973504737831    -26.8840213520666    0.460851710333072    51.987332844548      
1.60963968037383     0.463011921597174    51.8953606403697     0.801829846594906    -27.0251871200449    0.801829846594906    -27.0251871200449    0.463011921597174    51.8953606403697     
1.61975296529335     0.465177155600672    51.8026592659481     0.800677715245074    -27.1668490354135    0.800677715245074    -27.1668490354135    0.465177155600672    51.8026592659481     
1.62992979147189     0.467347341616736    51.7092315634522     0.799517083030646    -27.3090053164558    0.799517083030646    -27.3090053164558    0.467347341616736    51.7092315634522     
1.64017055813598     0.469522407850687    51.6150804266649     0.798347922968028    -27.4516541266539    0.798347922968028    -27.4516541266539    0.469522407850687    51.6150804266649     
1.65047566702047     0.471702281442256    51.5202088012501     0.797170208762587    -27.594793574398     0.797170208762587    -27.594793574398     0.471702281442256    51.5202088012501     
1.66084552238427     0.473886888468203    51.4246196850121     0.795983914823543    -27.7384217127065    0.795983914823543    -27.7384217127065    0.473886888468203    51.4246196850121     
1.67128053102626     0.476076153945291    51.3283161281429     0.794789016278854    -27.8825365389558    0.794789016278854    -27.8825365389558    0.476076153945291    51.3283161281429     
1.68178110230118     0.478270001833658    51.2313012334607     0.793585488990082    -28.0271359946217    0.793585488990082    -28.0271359946217    0.478270001833658    51.2313012334607     
1.69234764813577     0.480468355040537    51.1335781566369     0.7923733095673      -28.1722179650328    0.7923733095673      -28.1722179650328    0.480468355040537    51.1335781566369     
1.70298058304484     0.482671135424347    51.0351501064154     0.791152455383926    -28.3177802791311    0.791152455383926    -28.3177802791311    0.482671135424347    51.0351501064154     
1.71368032414761     0.484878263799231    50.9360203448146     0.789922904591567    -28.4638207092514    0.789922904591567    -28.4638207092514    0.484878263799231    50.9360203448146     
1.72444729118402     0.487089659939914    50.8361921873245     0.78868463613486     -28.6103369709064    0.78868463613486     -28.6103369709064    0.487089659939914    50.8361921873245     
1.73528190653122     0.489305242586976    50.7356690030888     0.787437629766194    -28.7573267225861    0.787437629766194    -28.7573267225861    0.489305242586976    50.7356690030888     
1.74618459522014     0.491524929452537    50.6344542150757     0.786181866060466    -28.9047875655709    0.786181866060466    -28.9047875655709    0.491524929452537    50.6344542150757     
1.75715578495214     0.493748637226334    50.5325513002368     0.784917326429756    -29.0527170437562    0.784917326429756    -29.0527170437562    0.493748637226334    50.5325513002368     
1.76819590611583     0.495976281582198    50.4299637896528     0.783643993137931    -29.2011126434901    0.783643993137931    -29.2011126434901    0.495976281582198    50.4299637896528     
1.77930539180391     0.498207777184923    50.3266952686684     0.782361849315174    -29.3499717934239    0.782361849315174    -29.3499717934239    0.498207777184923    50.3266952686684     
1.79048467783019     0.500443037697579    50.2227493770122     0.781070878972489    -29.4992918643775    0.781070878972489    -29.4992918643775    0.500443037697579    50.2227493770122     
1.80173420274668     0.502681975789225    50.1181298089034     0.779771067016037    -29.6490701692181    0.779771067016037    -29.6490701692181    0.502681975789225    50.1181298089034     
1.81305440786078     0.504924503143022    50.0128403131467     0.778462399261458    -29.7993039627522    0.778462399261458    -29.7993039627522    0.504924503143022    50.0128403131467     
1.8244457372526      0.507170530464773    49.9068846932121     0.777144862448047    -29.9499904416317    0.777144862448047    -29.9499904416317    0.507170530464773    49.9068846932121     
1.8359086377924      0.509419967491894    49.8002668073018     0.775818444252796    -30.1011267442759    0.775818444252796    -30.1011267442759    0.509419967491894    49.8002668073018     
1.84744355915809     0.511672723002804    49.6929905684002     0.774483133304401    -30.2527099508076    0.774483133304401    -30.2527099508076    0.511672723002804    49.6929905684002     
1.85905095385288     0.513928704826718    49.5850599443136     0.773138919197063    -30.4047370830036    0.773138919197063    -30.4047370830036    0.513928704826718    49.5850599443136     
1.87073127722305     0.516187819853905    49.4764789576916     0.771785792504154    -30.5572051042611    0.771785792504154    -30.5572051042611    0.516187819853905    49.4764789576916     
1.88248498747578     0.518449974046327    49.367251686035      0.770423744791813    -30.7101109195795    0.770423744791813    -30.7101109195795    0.518449974046327    49.367251686035      
1.89431254569716     0.52071507244874     49.2573822616891     0.769052768632281    -30.8634513755568    0.769052768632281    -30.8634513755568    0.52071507244874     49.2573822616891     
1.90621441587025     0.522983019200223    49.1468748718195     0.767672857617167    -31.0172232604045    0.767672857617167    -31.0172232604045    0.522983019200223    49.1468748718195     
1.91819106489329     0.525253717546107    49.0357337583749     0.766284006370484    -31.1714233039753    0.766284006370484    -31.1714233039753    0.525253717546107    49.0357337583749     
1.93024296259802     0.527527069850351    48.9239632180328     0.764886210561508    -31.3260481778086    0.764886210561508    -31.3260481778086    0.527527069850351    48.9239632180328     
1.94237058176812     0.529802977608376    48.8115676021281     0.763479466917484    -31.4810944951942    0.763479466917484    -31.4810944951942    0.529802977608376    48.8115676021281     
1.95457439815773     0.53208134146026     48.6985513165678     0.762063773236081    -31.6365588112487    0.762063773236081    -31.6365588112487    0.53208134146026     48.6985513165678     
1.96685489051015     0.534362061204439    48.5849188217265     0.76063912839769     -31.7924376230134    0.76063912839769     -31.7924376230134    0.534362061204439    48.5849188217265     
1.97921254057656     0.536645035811758    48.4706746323294     0.759205532377433    -31.9487273695642    0.759205532377433    -31.9487273695642    0.536645035811758    48.4706746323294     
1.99164783313501     0.538930163440026    48.3558233173127     0.757762986257044    -32.105424432144     0.757762986257044    -32.105424432144     0.538930163440026    48.3558233173127     
2.00416125600936     0.541217341448918    48.2403694996732     0.756311492236404    -32.2625251343078    0.756311492236404    -32.2625251343078    0.541217341448918    48.2403694996732     
2.01675330008843     0.543506466415373    48.1243178562952     0.754851053644922    -32.4200257420889    0.754851053644922    -32.4200257420889    0.543506466415373    48.1243178562952     
2.02942445934529     0.545797434149341    48.0076731177658     0.7533816749526      -32.5779224641794    0.7533816749526      -32.5779224641794    0.545797434149341    48.0076731177658     
2.04217523085661     0.548090139710012    47.8904400681672     0.751903361780854    -32.7362114521321    0.751903361780854    -32.7362114521321    0.548090139710012    47.8904400681672     
2.05500611482217     0.550384477422413    47.7726235448552     0.750416120913086    -32.8948888005774    0.750416120913086    -32.8948888005774    0.550384477422413    47.7726235448552     
2.06791761458449     0.552680340894446    47.6542284382188     0.748919960304931    -33.05395054746      0.748919960304931    -33.05395054746      0.552680340894446    47.6542284382188     
2.08091023664853     0.55497762303431     47.5352596914222     0.747414889094246    -33.2133926742921    0.747414889094246    -33.2133926742921    0.55497762303431     47.5352596914222     
2.09398449070164     0.557276216068355    47.4157223001283     0.745900917610759    -33.3732111064273    0.745900917610759    -33.3732111064273    0.557276216068355    47.4157223001283     
2.10714088963348     0.559576011559301    47.2956213122054     0.744378057385488    -33.5334017133497    0.744378057385488    -33.5334017133497    0.559576011559301    47.2956213122054     
2.12037994955619     0.561876900424905    47.1749618274142     0.742846321159731    -33.6939603089851    0.742846321159731    -33.6939603089851    0.561876900424905    47.1749618274142     
2.1337021898246      0.564178772956953    47.0537489970784     0.74130572289383     -33.8548826520271    0.74130572289383     -33.8548826520271    0.564178772956953    47.0537489970784     
2.14710813305662     0.566481518840698    46.9319880237357     0.739756277775556    -34.0161644462846    0.739756277775556    -34.0161644462846    0.566481518840698    46.9319880237357     
2.16059830515376     0.56878502717464     46.8096841607709     0.738198002228111    -34.1778013410456    0.738198002228111    -34.1778013410456    0.56878502717464     46.8096841607709     
2.17417323532172     0.571089186490704    46.6868427120311     0.736630913917893    -34.3397889314622    0.736630913917893    -34.3397889314622    0.571089186490704    46.6868427120311     
2.18783345609119     0.573393884774768    46.5634690314222     0.735055031761757    -34.5021227589517    0.735055031761757    -34.5021227589517    0.573393884774768    46.5634690314222     
2.20157950333871     0.575699009487576    46.4395685224852     0.733470375934029    -34.664798311619     0.733470375934029    -34.664798311619     0.575699009487576    46.4395685224852     
2.21541191630773     0.578004447585972    46.3151466379594     0.731876967873064    -34.8278110246945    0.731876967873064    -34.8278110246945    0.578004447585972    46.3151466379594     
2.2293312376297      0.580310085544532    46.1902088793194     0.730274830287474    -34.9911562809948    0.730274830287474    -34.9911562809948    0.580310085544532    46.1902088793194     
2.24333801334543     0.582615809377485    46.064760796301      0.728663987161926    -35.1548294113981    0.728663987161926    -35.1548294113981    0.582615809377485    46.064760796301      
2.25743279292647     0.584921504661014    45.9388079864033     0.727044463762555    -35.318825695342     0.727044463762555    -35.318825695342     0.584921504661014    45.9388079864033     
2.27161612929665     0.587227056555838    45.8123560943762     0.725416286641983    -35.483140361336     0.725416286641983    -35.483140361336     0.587227056555838    45.8123560943762     
2.28588857885382     0.589532349830154    45.6854108116865     0.723779483643909    -35.647768587497     0.723779483643909    -35.647768587497     0.589532349830154    45.6854108116865     
2.30025070149164     0.591837268882857    45.5579778759687     0.72213408390728     -35.812705502099     0.72213408390728     -35.812705502099     0.591837268882857    45.5579778759687     
2.31470306062154     0.59414169776708     45.4300630704538     0.720480117870037    -35.9779461841458    0.720480117870037    -35.9779461841458    0.59414169776708     45.4300630704538     
2.32924622319487     0.596445520213997    45.3016722233849     0.718817617272444    -36.1434856639572    0.718817617272444    -36.1434856639572    0.596445520213997    45.3016722233849     
2.34388075972507     0.598748619656949    45.1728112074089     0.717146615159955    -36.3093189237783    0.717146615159955    -36.3093189237783    0.598748619656949    45.1728112074089     
2.3586072443101      0.601050879255799    45.0434859389559     0.715467145885632    -36.4754408984035    0.715467145885632    -36.4754408984035    0.601050879255799    45.0434859389559     
2.37342625465496     0.603352181921574    44.913702377596      0.713779245112144    -36.6418464758205    0.713779245112144    -36.6418464758205    0.603352181921574    44.913702377596      
2.38833837209433     0.605652410341334    44.7834665253829     0.712082949813281    -36.8085304978708    0.712082949813281    -36.8085304978708    0.605652410341334    44.7834665253829     
2.40334418161538     0.60795144700333     44.6527844261738     0.710378298275005    -36.9754877609309    0.710378298275005    -36.9754877609309    0.60795144700333     44.6527844261738     
2.41844427188074     0.610249174222314    44.5216621649395     0.708665330096066    -37.1427130166067    0.708665330096066    -37.1427130166067    0.610249174222314    44.5216621649395     
2.43363923525156     0.612545474165148    44.3901058670499     0.70694408618811     -37.3102009724504    0.70694408618811     -37.3102009724504    0.612545474165148    44.3901058670499     
2.4489296678108      0.61484022887654     44.2581216975482     0.705214608775325    -37.4779462926897    0.705214608775325    -37.4779462926897    0.61484022887654     44.2581216975482     
2.46431616938654     0.617133320305069    44.1257158604025     0.703476941393614    -37.6459435989801    0.703476941393614    -37.6459435989801    0.617133320305069    44.1257158604025     
2.47979934357556     0.619424630329266    43.9928945977482     0.701731128889276    -37.8141874711663    0.701731128889276    -37.8141874711663    0.619424630329266    43.9928945977482     
2.49537979776702     0.621714040784013    43.8596641891043     0.699977217417204    -37.98267244807      0.699977217417204    -37.98267244807      0.621714040784013    43.8596641891043     
2.51105814316626     0.624001433486966    43.7260309505826     0.698215254438595    -38.1513930282844    0.698215254438595    -38.1513930282844    0.624001433486966    43.7260309505826     
2.52683499481882     0.626286690265213    43.5920012340743     0.696445288718153    -38.3203436709931    0.696445288718153    -38.3203436709931    0.626286690265213    43.5920012340743     
2.5427109716345      0.628569692982015    43.4575814264243     0.694667370320827    -38.4895187967991    0.694667370320827    -38.4895187967991    0.628569692982015    43.4575814264243     
2.55868669641171     0.630850323563697    43.3227779485877     0.692881550608       -38.6589127885739    0.692881550608       -38.6589127885739    0.630850323563697    43.3227779485877     
2.57476279586186     0.633128464026605    43.1875972547743     0.691087882233251    -38.828519992318     0.691087882233251    -38.828519992318     0.633128464026605    43.1875972547743     
2.59093990063396     0.635403996504232    43.0520458315722     0.689286419137534    -38.998334718042     0.689286419137534    -38.998334718042     0.635403996504232    43.0520458315722     
2.60721864533935     0.637676803274315    42.9161301970638     0.687477216543926    -39.1683512406563    0.687477216543926    -39.1683512406563    0.637676803274315    42.9161301970638     
2.6235996685766      0.639946766786094    42.7798568999221     0.685660330951824    -39.3385638008803    0.685660330951824    -39.3385638008803    0.639946766786094    42.7798568999221     
2.64008361295657     0.642213769687565    42.6432325184945     0.683835820130674    -39.5089666061635    0.683835820130674    -39.5089666061635    0.642213769687565    42.6432325184945     
2.65667112512761     0.644477694852811    42.5062636598727     0.682003743113152    -39.6795538316222    0.682003743113152    -39.6795538316222    0.644477694852811    42.5062636598727     
2.67336285580092     0.646738425409308    42.3689569589505     0.680164160187898    -39.8503196209877    0.680164160187898    -39.8503196209877    0.646738425409308    42.3689569589505     
2.69015945977611     0.648995844765269    42.2313190774678     0.678317132891709    -40.0212580875676    0.678317132891709    -40.0212580875676    0.648995844765269    42.2313190774678     
2.70706159596682     0.65124983663702     42.093356703037      0.676462724001216    -40.1923633152261    0.676462724001216    -40.1923633152261    0.65124983663702     42.093356703037      
2.72406992742666     0.65350028507627     41.9550765481674     0.674600997524114    -40.3636293593665    0.674600997524114    -40.3636293593665    0.65350028507627     41.9550765481674     
2.74118512137514     0.655747074497418    41.8164853492669     0.67273201868987     -40.5350502479349    0.67273201868987     -40.5350502479349    0.655747074497418    41.8164853492669     
2.75840784922388     0.657990089704794    41.6775898656386     0.670855853939881    -40.7066199824309    0.670855853939881    -40.7066199824309    0.657990089704794    41.6775898656386     
2.77573878660297     0.660229215919825    41.5383968784639     0.668972570917243    -40.8783325389317    0.668972570917243    -40.8783325389317    0.660229215919825    41.5383968784639     
2.79317861338741     0.662464338808132    41.3989131897748     0.667082238455927    -41.0501818691254    0.667082238455927    -41.0501818691254    0.662464338808132    41.3989131897748     
2.81072801372385     0.664695344506534    41.2591456214165     0.66518492656955     -41.222161901357     0.66518492656955     -41.222161901357     0.664695344506534    41.2591456214165     
2.82838767605739     0.66692211964995     41.1191010139992     0.663280706439583    -41.3942665416824    0.663280706439583    -41.3942665416824    0.66692211964995     41.1191010139992     
2.84615829315859     0.669144551398186    40.9787862258403     0.661369650403143    -41.5664896749342    0.661369650403143    -41.5664896749342    0.669144551398186    40.9787862258403     
2.86404056215067     0.671362527462564    40.8382081318981     0.659451831940298    -41.7388251657951    0.659451831940298    -41.7388251657951    0.671362527462564    40.8382081318981     
2.88203518453682     0.673575936132428    40.6973736226967     0.657527325660843    -41.9112668598809    0.657527325660843    -41.9112668598809    0.673575936132428    40.6973736226967     
2.90014286622776     0.675784666301464    40.5562896032426     0.655596207290709    -42.0838085848306    0.655596207290709    -42.0838085848306    0.675784666301464    40.5562896032426     
2.91836431756938     0.677988607493872    40.4149629919318     0.653658553657812    -42.2564441514078    0.653658553657812    -42.2564441514078    0.677988607493872    40.4149629919318     
2.93670025337067     0.680187649890296    40.2734007194537     0.651714442677524    -42.4291673546044    0.651714442677524    -42.4291673546044    0.680187649890296    40.2734007194537     
2.95515139293171     0.682381684353608    40.1316097276833     0.649763953337631    -42.6019719747557    0.649763953337631    -42.6019719747557    0.682381684353608    40.1316097276833     
2.97371846007191     0.684570602454424    39.9895969685707     0.647807165682916    -42.7748517786601    0.647807165682916    -42.7748517786601    0.684570602454424    39.9895969685707     
2.99240218315841     0.686754296496413    39.8473694030222     0.645844160799237    -42.9478005207043    0.645844160799237    -42.9478005207043    0.686754296496413    39.8473694030222     
3.01120329513464     0.688932659541345    39.7049339997783     0.643875020797232    -43.1208119439956    0.643875020797232    -43.1208119439956    0.688932659541345    39.7049339997783     
3.03012253354905     0.691105585433881    39.5622977342845     0.641899828795576    -43.2938797814968    0.641899828795576    -43.2938797814968    0.691105585433881    39.5622977342845     
3.04916064058411     0.693272968826091    39.4194675875595     0.639918668903817    -43.4669977571691    0.639918668903817    -43.4669977571691    0.693272968826091    39.4194675875595     
3.06831836308537     0.69543470520168     39.2764505450582     0.63793162620484     -43.6401595871147    0.63793162620484     -43.6401595871147    0.69543470520168     39.2764505450582     
3.08759645259077     0.697590690899909    39.1332535955332     0.635938786736898    -43.813358980726     0.635938786736898    -43.813358980726     0.697590690899909    39.1332535955332     
3.10699566536011     0.699740823139225    38.9898837298898     0.633940237475271    -43.9865896418378    0.633940237475271    -43.9865896418378    0.699740823139225    38.9898837298898     
3.12651676240477     0.701885000040532    38.8463479400423     0.631936066313554    -44.1598452698803    0.631936066313554    -44.1598452698803    0.701885000040532    38.8463479400423     
3.14616050951748     0.70402312065015     38.7026532177667     0.629926362044569    -44.3331195610347    0.629926362044569    -44.3331195610347    0.70402312065015     38.7026532177667     
3.16592767730245     0.706155084962394    38.5588065535525     0.627911214340897    -44.5064062093897    0.627911214340897    -44.5064062093897    0.706155084962394    38.5588065535525     
3.18581904120554     0.708280793941827    38.4148149354532     0.625890713735093    -44.6796989081011    0.625890713735093    -44.6796989081011    0.708280793941827    38.4148149354532     
3.20583538154468     0.710400149545125    38.2706853479352     0.623864951599545    -44.8529913505502    0.623864951599545    -44.8529913505502    0.710400149545125    38.2706853479352     
3.22597748354052     0.712513054742515    38.1264247707322     0.621834020126       -45.0262772314996    0.621834020126       -45.0262772314996    0.712513054742515    38.1264247707322     
3.2462461373472      0.714619413538898    37.9820401776917     0.619798012304777    -45.1995502482548    0.619798012304777    -45.1995502482548    0.714619413538898    37.9820401776917     
3.26664213808338     0.716719130994492    37.8375385356302     0.617757021903658    -45.372804101818     0.617757021903658    -45.372804101818     0.716719130994492    37.8375385356302     
3.28716628586339     0.718812113245086    37.6929268031873     0.615711143446521    -45.5460324980437    0.615711143446521    -45.5460324980437    0.718812113245086    37.6929268031873     
3.30781938582863     0.720898267521879    37.5482119296806     0.61366047219163     -45.7192291487923    0.61366047219163     -45.7192291487923    0.720898267521879    37.5482119296806     
3.32860224817918     0.722977502170846    37.4034008539662     0.611605104109695    -45.8923877730791    0.611605104109695    -45.8923877730791    0.722977502170846    37.4034008539662     
3.34951568820557     0.725049726671698    37.2585005032998     0.609545135861669    -46.0655020982219    0.609545135861669    -46.0655020982219    0.725049726671698    37.2585005032998     
3.37056052632075     0.727114851656346    37.1135177922039     0.60748066477624     -46.2385658609836    0.60748066477624     -46.2385658609836    0.727114851656346    37.1135177922039     
3.39173758809227     0.729172788926935    36.9684596213365     0.605411788827176    -46.411572808712     0.605411788827176    -46.411572808712     0.729172788926935    36.9684596213365     
3.4130477042747      0.731223451473379    36.823332876368      0.603338606610355    -46.5845167004733    0.603338606610355    -46.5845167004733    0.731223451473379    36.823332876368      
3.43449171084221     0.733266753490415    36.6781444268605     0.601261217320634    -46.7573913081808    0.601261217320634    -46.7573913081808    0.733266753490415    36.6781444268605     
3.45607044902131     0.735302610394206    36.532901125153      0.599179720728494    -46.9301904177198    0.599179720728494    -46.9301904177198    0.735302610394206    36.532901125153      
3.47778476532393     0.737330938838383    36.3876098052552     0.597094217156517    -47.1029078300631    0.597094217156517    -47.1029078300631    0.737330938838383    36.3876098052552     
3.49963551158058     0.739351656729637    36.2422772817458     0.595004807455651    -47.2755373623821    0.595004807455651    -47.2755373623821    0.739351656729637    36.2422772817458     
3.52162354497379     0.741364683242779    36.0969103486779     0.592911592981361    -47.4480728491502    0.592911592981361    -47.4480728491502    0.741364683242779    36.0969103486779     
3.5437497280717      0.743369938835285    35.9515157784937     0.590814675569572    -47.6205081432387    0.590814675569572    -47.6205081432387    0.743369938835285    35.9515157784937     
3.56601492886194     0.745367345261322    35.8061003209459     0.588714157512532    -47.7928371170033    0.588714157512532    -47.7928371170033    0.745367345261322    35.8061003209459     
3.58842002078566     0.747356825585253    35.6606707020275     0.586610141534502    -47.9650536633653    0.586610141534502    -47.9650536633653    0.747356825585253    35.6606707020275     
3.6109658827718      0.749338304194584    35.5152336229129     0.584502730767368    -48.1371516968791    0.584502730767368    -48.1371516968791    0.749338304194584    35.5152336229129     
3.63365339927156     0.751311706812411    35.3697957589047     0.582392028726146    -48.3091251547947    0.582392028726146    -48.3091251547947    0.751311706812411    35.3697957589047     
3.65648346029309     0.753276960509291    35.2243637583945     0.580278139284385    -48.4809679981068    0.580278139284385    -48.4809679981068    0.753276960509291    35.2243637583945     
3.67945696143645     0.755233993714608    35.0789442418301     0.578161166649512    -48.6526742125972    0.578161166649512    -48.6526742125972    0.755233993714608    35.0789442418301     
3.70257480392867     0.757182736227348    34.9335438006964     0.576041215338139    -48.8242378098634    0.576041215338139    -48.8242378098634    0.757182736227348    34.9335438006964     
3.72583789465919     0.759123119226338    34.7881689965074     0.573918390151276    -48.9956528283352    0.573918390151276    -48.9956528283352    0.759123119226338    34.7881689965074     
3.74924714621534     0.76105507527997     34.6428263598055     0.571792796149557    -49.166913334286     0.571792796149557    -49.166913334286     0.76105507527997     34.6428263598055     
3.77280347691823     0.762978538355299    34.4975223891794     0.569664538628415    -49.3380134228236    0.569664538628415    -49.3380134228236    0.762978538355299    34.4975223891794     
3.79650781085871     0.764893443826633    34.3522635502904     0.567533723093276    -49.5089472188747    0.567533723093276    -49.5089472188747    0.764893443826633    34.3522635502904     
3.82036107793366     0.766799728483576    34.2070562749087     0.565400455234739    -49.6797088781557    0.565400455234739    -49.6797088781557    0.766799728483576    34.2070562749087     
3.84436421388246     0.768697330538448    34.061906959971      0.563264840903784    -49.8502925881271    0.563264840903784    -49.8502925881271    0.768697330538448    34.061906959971      
3.86851816032368     0.770586189633226    33.9168219666418     0.56112698608701     -50.0206925689402    0.56112698608701     -50.0206925689402    0.770586189633226    33.9168219666418     
3.89282386479203     0.772466246845849    33.7718076193973     0.558986996881931    -50.1909030743631    0.558986996881931    -50.1909030743631    0.772466246845849    33.7718076193973     
3.91728228077554     0.774337444696032    33.626870205116      0.556844979472294    -50.3609183926994    0.556844979472294    -50.3609183926994    0.774337444696032    33.626870205116      
3.94189436775296     0.776199727150472    33.4820159721884     0.554701040103524    -50.5307328476876    0.554701040103524    -50.5307328476876    0.776199727150472    33.4820159721884     
3.9666610912314      0.778053039627507    33.3372511296412     0.552555285058187    -50.7003407993875    0.552555285058187    -50.7003407993875    0.778053039627507    33.3372511296412     
3.99158342278419     0.779897329001252    33.1925818462728     0.550407820631599    -50.8697366450527    0.550407820631599    -50.8697366450527    0.779897329001252    33.1925818462728     
4.01666234008901     0.781732543605122    33.0480142498093     0.548258753107507    -51.0389148199846    0.548258753107507    -51.0389148199846    0.781732543605122    33.0480142498093     
4.04189882696624     0.78355863323487     32.9035544260718     0.546108188733917    -51.2078697983746    0.546108188733917    -51.2078697983746    0.78355863323487     32.9035544260718     
4.06729387341757     0.785375549151012    32.7592084181617     0.543956233699025    -51.3765960941277    0.543956233699025    -51.3765960941277    0.785375549151012    32.7592084181617     
4.09284847566479     0.787183244080756    32.6149822256624     0.541802994107309    -51.5450882616706    0.541802994107309    -51.5450882616706    0.787183244080756    32.6149822256624     
4.11856363618892     0.788981672219363    32.4708818038556     0.539648575955775    -51.7133408967439    0.539648575955775    -51.7133408967439    0.788981672219363    32.4708818038556     
4.14444036376952     0.790770789230957    32.3269130629572     0.537493085110347    -51.8813486371764    0.537493085110347    -51.8813486371764    0.790770789230957    32.3269130629572     
4.17047967352425     0.792550552248856    32.1830818673649     0.535336627282441    -52.0491061636459    0.535336627282441    -52.0491061636459    0.792550552248856    32.1830818673649     
4.19668258694872     0.794320919875304    32.0393940349289     0.533179308005757    -52.2166082004186    0.533179308005757    -52.2166082004186    0.794320919875304    32.0393940349289     
4.22305013195652     0.7960818521807      31.8958553362365     0.531021232613211    -52.3838495160719    0.531021232613211    -52.3838495160719    0.7960818521807      31.8958553362365     
4.2495833429196      0.797833310702352    31.7524714939127     0.528862506214112    -52.5508249242051    0.528862506214112    -52.5508249242051    0.797833310702352    31.7524714939127     
4.27628326070879     0.799575258442634    31.609248181943      0.526703233671554    -52.7175292841242    0.526703233671554    -52.7175292841242    0.799575258442634    31.609248181943      
4.30315093273467     0.801307659866713    31.4661910250084     0.524543519580013    -52.8839575015162    0.524543519580013    -52.8839575015162    0.801307659866713    31.4661910250084     
4.33018741298865     0.803030480899709    31.3233055978432     0.522383468243216    -53.0501045291008    0.522383468243216    -53.0501045291008    0.803030480899709    31.3233055978432     
4.35739376208431     0.804743688923399    31.1805974246081     0.520223183652203    -53.2159653672654    0.520223183652203    -53.2159653672654    0.804743688923399    31.1805974246081     
4.38477104729901     0.80644725277242     31.0380719782804     0.518062769463704    -53.3815350646847    0.518062769463704    -53.3815350646847    0.80644725277242     31.0380719782804     
4.41232034261578     0.808141142729972    30.8957346800669     0.51590232897873     -53.5468087189161    0.51590232897873     -53.5468087189161    0.808141142729972    30.8957346800669     
4.44004272876539     0.809825330523065    30.75359089883       0.513741965121472    -53.7117814769822    0.513741965121472    -53.7117814769822    0.809825330523065    30.75359089883       
4.46793929326884     0.811499789317284    30.6116459505353     0.511581780418447    -53.8764485359325    0.511581780418447    -53.8764485359325    0.811499789317284    30.6116459505353     
4.49601113047992     0.813164493711102    30.4699050977172     0.509421876977965    -54.0408051433864    0.509421876977965    -54.0408051433864    0.813164493711102    30.4699050977172     
4.52425934162822     0.814819419729727    30.3283735489625     0.507262356469865    -54.2048465980579    0.507262356469865    -54.2048465980579    0.814819419729727    30.3283735489625     
4.55268503486229     0.816464544818514    30.1870564584126     0.505103320105573    -54.3685682502622    0.505103320105573    -54.3685682502622    0.816464544818514    30.1870564584126     
4.58128932529312     0.818099847835929    30.0459589252856     0.50294486861845     -54.5319655024024    0.50294486861845     -54.5319655024024    0.818099847835929    30.0459589252856     
4.61007333503789     0.819725309046094    29.9050859934154     0.500787102244489    -54.6950338094385    0.500787102244489    -54.6950338094385    0.819725309046094    29.9050859934154     
4.63903819326398     0.821340910110899    29.7644426508107     0.498630120703301    -54.8577686793368    0.498630120703301    -54.8577686793368    0.821340910110899    29.7644426508107     
4.66818503623329     0.822946634081714    29.624033829232      0.496474023179456    -55.0201656735015    0.496474023179456    -55.0201656735015    0.822946634081714    29.624033829232      
4.69751500734676     0.824542465390698    29.4838644037875     0.494318908304134    -55.1822204071871    0.494318908304134    -55.1822204071871    0.824542465390698    29.4838644037875     
4.72702925718931     0.826128389841696    29.3439391925487     0.492164874137155    -55.3439285498908    0.492164874137155    -55.3439285498908    0.826128389841696    29.3439391925487     
4.75672894357487     0.827704394600779    29.2042629561822     0.49001201814932     -55.5052858257293    0.49001201814932     -55.5052858257293    0.827704394600779    29.2042629561822     
4.78661523159191     0.829270468186378    29.0648403976033     0.487860437205125    -55.6662880137926    0.487860437205125    -55.6662880137926    0.829270468186378    29.0648403976033     
4.81668929364906     0.830826600459084    28.9256761616453     0.485710227545821    -55.8269309484833    0.485710227545821    -55.8269309484833    0.830826600459084    28.9256761616453     
4.84695230952113     0.832372782611063    28.7867748347498     0.483561484772836    -55.9872105198342    0.483561484772836    -55.9872105198342    0.832372782611063    28.7867748347498     
4.87740546639543     0.833909007155154    28.6481409446727     0.481414303831572    -56.14712267381      0.481414303831572    -56.14712267381      0.833909007155154    28.6481409446727     
4.90804995891827     0.835435267913597    28.509778960211      0.479268778995557    -56.3066634125885    0.479268778995557    -56.3066634125885    0.835435267913597    28.509778960211      
4.93888698924189     0.836951560006459    28.3716932909479     0.477125003850984    -56.4658287948228    0.477125003850984    -56.4658287948228    0.836951560006459    28.3716932909479     
4.96991776707157     0.83845787983975     28.2338882870126     0.474983071281604    -56.6246149358898    0.474983071281604    -56.6246149358898    0.83845787983975     28.2338882870126     
5.00114350971312     0.839954225093202    28.0963682388628     0.472843073454025    -56.7830180081148    0.472843073454025    -56.7830180081148    0.839954225093202    28.0963682388628     
5.03256544212063     0.841440594707765    27.9591373770834     0.470705101803377    -56.9410342409805    0.470705101803377    -56.9410342409805    0.841440594707765    27.9591373770834     
5.06418479694448     0.842916988872846    27.8221998722007     0.468569247019352    -57.0986599213203    0.468569247019352    -57.0986599213203    0.842916988872846    27.8221998722007     
5.09600281457978     0.844383409013224    27.6855598345181     0.466435599032647    -57.2558913934899    0.466435599032647    -57.2558913934899    0.844383409013224    27.6855598345181     
5.12802074321494     0.845839857775729    27.549221313967      0.464304247001797    -57.4127250595227    0.464304247001797    -57.4127250595227    0.845839857775729    27.549221313967      
5.16023983888068     0.847286339015669    27.413188299975      0.462175279300364    -57.5691573792705    0.462175279300364    -57.5691573792705    0.847286339015669    27.413188299975      
5.19266136549933     0.848722857782986    27.2774647213539     0.460048783504563    -57.7251848705218    0.460048783504563    -57.7251848705218    0.848722857782986    27.2774647213539     
5.22528659493433     0.850149420308199    27.142054446201      0.457924846381246    -57.8808041091064    0.457924846381246    -57.8808041091064    0.850149420308199    27.142054446201      
5.25811680704022     0.851566033988129    27.0069612818201     0.455803553876283    -58.036011728983     0.455803553876283    -58.036011728983     0.851566033988129    27.0069612818201     
5.29115328971277     0.852972707371376    26.8721889746586     0.453684991103352    -58.1908044223078    0.453684991103352    -58.1908044223078    0.852972707371376    26.8721889746586     
5.32439733893955     0.854369450143626    26.7377412102607     0.451569242333098    -58.3451789394883    0.451569242333098    -58.3451789394883    0.854369450143626    26.7377412102607     
5.35785025885075     0.855756273112754    26.6036216132369     0.449456390982707    -58.4991320892207    0.449456390982707    -58.4991320892207    0.855756273112754    26.6036216132369     
5.39151336177034     0.857133188193724    26.4698337472509     0.447346519605848    -58.6526607385084    0.447346519605848    -58.6526607385084    0.857133188193724    26.4698337472509     
5.42538796826757     0.858500208393348    26.3363811150205     0.445239709883033    -58.8057618126692    0.445239709883033    -58.8057618126692    0.858500208393348    26.3363811150205     
5.45947540720874     0.859857347794857    26.2032671583359     0.443136042612342    -58.9584322953219    0.443136042612342    -58.9584322953219    0.859857347794857    26.2032671583359     
5.49377701580937     0.861204621542326    26.0704952580925     0.441035597700561    -59.1106692283598    0.441035597700561    -59.1106692283598    0.861204621542326    26.0704952580925     
5.52829413968661     0.862542045824951    25.9380687343401     0.438938454154688    -59.2624697119083    0.438938454154688    -59.2624697119083    0.862542045824951    25.9380687343401     
5.56302813291209     0.863869637861207    25.805990846345      0.436844690073832    -59.4138309042685    0.436844690073832    -59.4138309042685    0.863869637861207    25.805990846345      
5.59798035806498     0.865187415882849    25.6742647926708     0.434754382641513    -59.5647500218416    0.434754382641513    -59.5647500218416    0.865187415882849    25.6742647926708     
5.63315218628547     0.866495399118844    25.5428937112689     0.432667608118315    -59.7152243390449    0.432667608118315    -59.7152243390449    0.866495399118844    25.5428937112689     
5.66854499732856     0.867793607779149    25.411880679588      0.430584441834945    -59.8652511882077    0.430584441834945    -59.8652511882077    0.867793607779149    25.411880679588      
5.70416017961817     0.869082063038435    25.2812287146939     0.428504958185662    -60.0148279594565    0.428504958185662    -60.0148279594565    0.869082063038435    25.2812287146939     
5.73999913030164     0.870360787019689    25.1509407734067     0.42642923062207     -60.1639521005843    0.42642923062207     -60.1639521005843    0.870360787019689    25.1509407734067     
5.77606325530448     0.87162980277777     25.0210197524482     0.424357331647307    -60.3126211169072    0.424357331647307    -60.3126211169072    0.87162980277777     25.0210197524482     
5.8123539693856      0.872889134282866    24.8914684886056     0.42228933281059     -60.4608325711065    0.42228933281059     -60.4608325711065    0.872889134282866    24.8914684886056     
5.84887269619274     0.874138806403928    24.7622897589059     0.42022530470212     -60.6085840830595    0.42022530470212     -60.6085840830595    0.874138806403928    24.7622897589059     
5.88562086831836     0.875378844892007    24.6334862808055     0.418165316948366    -60.7558733296541    0.418165316948366    -60.7558733296541    0.875378844892007    24.6334862808055     
5.92259992735582     0.876609276363594    24.5050607123903     0.416109438207702    -60.902698044594     0.416109438207702    -60.902698044594     0.876609276363594    24.5050607123903     
5.95981132395594     0.877830128283891    24.3770156525898     0.4140577361664      -61.049056018189     0.4140577361664      -61.049056018189     0.877830128283891    24.3770156525898     
5.99725651788391     0.879041428950088    24.249353641401      0.412010277534972    -61.1949450971355    0.412010277534972    -61.1949450971355    0.879041428950088    24.249353641401      
6.03493697807655     0.880243207474589    24.1220771601279     0.409967128044869    -61.3403631842817    0.409967128044869    -61.3403631842817    0.880243207474589    24.1220771601279     
6.07285418269993     0.881435493768262    23.9951886316279     0.407928352445518    -61.4853082383849    0.407928352445518    -61.4853082383849    0.881435493768262    23.9951886316279     
6.11100961920736     0.882618318523659    23.8686904205737     0.405894014501708    -61.6297782738539    0.405894014501708    -61.6297782738539    0.882618318523659    23.8686904205737     
6.14940478439776     0.88379171319827     23.7425848337225     0.403864176991292    -61.7737713604838    0.403864176991292    -61.7737713604838    0.88379171319827     23.7425848337225     
6.18804118447435     0.884955709997767    23.6168741201989     0.401838901703248    -61.9172856231765    0.401838901703248    -61.9172856231765    0.884955709997767    23.6168741201989     
6.22692033510376     0.886110341859286    23.4915604717863     0.399818249436046    -62.0603192416539    0.399818249436046    -62.0603192416539    0.886110341859286    23.4915604717863     
6.26604376147545     0.887255642434723    23.3666460232301     0.397802279996346    -62.2028704501564    0.397802279996346    -62.2028704501564    0.887255642434723    23.3666460232301     
6.3054129983616      0.888391646074094    23.2421328525475     0.395791052198004    -62.3449375371381    0.395791052198004    -62.3449375371381    0.888391646074094    23.2421328525475     
6.34502959017728     0.889518387808892    23.1180229813527     0.393784623861413    -62.4865188449439    0.393784623861413    -62.4865188449439    0.889518387808892    23.1180229813527     
6.38489509104102     0.890635903335545    22.9943183751849     0.391783051813127    -62.6276127694848    0.391783051813127    -62.6276127694848    0.890635903335545    22.9943183751849     
6.42501106483582     0.891744228998894    22.8710209438499     0.38978639188579     -62.7682177598987    0.38978639188579     -62.7682177598987    0.891744228998894    22.8710209438499     
6.46537908527047     0.892843401775743    22.7481325417685     0.387794698918386    -62.9083323182053    0.387794698918386    -62.9083323182053    0.892843401775743    22.7481325417685     
6.5060007359413      0.89393345925849     22.6256549683343     0.38580802675675     -63.0479549989502    0.38580802675675     -63.0479549989502    0.89393345925849     22.6256549683343     
6.54687761039429     0.895014439638816    22.5035899682788     0.383826428254383    -63.1870844088423    0.383826428254383    -63.1870844088423    0.895014439638816    22.5035899682788     
6.58801131218758     0.896086381691461    22.3819392320457     0.38184995527355     -63.325719206382     0.38184995527355     -63.325719206382     0.896086381691461    22.3819392320457     
6.62940345495441     0.897149324758096    22.2607043961713     0.379878658686644    -63.4638581014821    0.379878658686644    -63.4638581014821    0.897149324758096    22.2607043961713     
6.67105566246636     0.898203308731266    22.1398870436743     0.377912588377826    -63.6014998550801    0.377912588377826    -63.6014998550801    0.898203308731266    22.1398870436743     
6.71296956869713     0.899248374038458    22.0194887044508     0.375951793244927    -63.7386432787454    0.375951793244927    -63.7386432787454    0.899248374038458    22.0194887044508     
6.75514681788655     0.900284561626244    21.8995108556772     0.373996321201619    -63.8752872342764    0.373996321201619    -63.8752872342764    0.900284561626244    21.8995108556772     
6.79758906460515     0.901311912944552    21.77995492222       0.372046219179823    -64.0114306332936    0.372046219179823    -64.0114306332936    0.901311912944552    21.77995492222       
6.84029797381905     0.902330469931036    21.6608222770512     0.370101533132378    -64.1470724368236    0.370101533132378    -64.1470724368236    0.902330469931036    21.6608222770512     
6.88327522095524     0.903340274995573    21.5421142416709     0.368162308035952    -64.2822116548789    0.368162308035952    -64.2822116548789    0.903340274995573    21.5421142416709     
6.92652249196737     0.904341371004876    21.4238320865337     0.366228587894176    -64.4168473460308    0.366228587894176    -64.4168473460308    0.904341371004876    21.4238320865337     
6.97004148340182     0.905333801267229    21.3059770314836     0.364300415741039    -64.5509786169756    0.364300415741039    -64.5509786169756    0.905333801267229    21.3059770314836     
7.0138339024643      0.906317609517369    21.1885502461907     0.36237783364446     -64.6846046220981    0.36237783364446     -64.6846046220981    0.906317609517369    21.1885502461907     
7.0579014670868      0.907292839901477    21.0715528505972     0.360460882710134    -64.8177245630253    0.360460882710134    -64.8177245630253    0.907292839901477    21.0715528505972     
7.102245905995       0.908259536962323    20.9549859153645     0.358549603085558    -64.9503376881795    0.358549603085558    -64.9503376881795    0.908259536962323    20.9549859153645     
7.14686895877607     0.909217745624554    20.8388504623266     0.356644033964264    -65.0824432923242    0.356644033964264    -65.0824432923242    0.909217745624554    20.8388504623266     
7.19177237594693     0.910167511180118    20.7231474649479     0.354744213590277    -65.2140407161055    0.354744213590277    -65.2140407161055    0.910167511180118    20.7231474649479     
7.23695791902288     0.911108879273837    20.607877848785      0.352850179262752    -65.3451293455902    0.352850179262752    -65.3451293455902    0.911108879273837    20.607877848785      
7.28242736058676     0.912041895889136    20.4930424919518     0.350961967340806    -65.4757086117984    0.350961967340806    -65.4757086117984    0.912041895889136    20.4930424919518     
7.32818248435845     0.912966607333927    20.3786422255886     0.349079613248531    -65.605777990234     0.349079613248531    -65.605777990234     0.912966607333927    20.3786422255886     
7.37422508526485     0.913883060226642    20.2646778343355     0.347203151480207    -65.7353370004092    0.347203151480207    -65.7353370004092    0.913883060226642    20.2646778343355     
7.4205569695103      0.914791301482434    20.1511500568073     0.345332615605657    -65.8643852053685    0.345332615605657    -65.8643852053685    0.914791301482434    20.1511500568073     
7.46717995464742     0.915691378299527    20.0380595860729     0.343468038275804    -65.9929222112059    0.343468038275804    -65.9929222112059    0.915691378299527    20.0380595860729     
7.51409586964844     0.916583338145762    19.9254070701359     0.341609451228359    -66.1209476665832    0.341609451228359    -66.1209476665832    0.916583338145762    19.9254070701359     
7.56130655497691     0.917467228745258    19.8131931124201     0.339756885293698    -66.2484612622418    0.339756885293698    -66.2484612622418    0.917467228745258    19.8131931124201     
7.60881386265994     0.918343098065298    19.7014182722539     0.337910370400864    -66.3754627305147    0.337910370400864    -66.3754627305147    0.918343098065298    19.7014182722539     
7.6566196563608      0.919210994303341    19.5900830653606     0.336069935583734    -66.5019518448338    0.336069935583734    -66.5019518448338    0.919210994303341    19.5900830653606     
7.70472581145211     0.920070965874233    19.4791879643473     0.334235608987321    -66.6279284192369    0.334235608987321    -66.6279284192369    0.920070965874233    19.4791879643473     
7.75313421508931     0.920923061397579    19.3687333991978     0.332407417874206    -66.7533923078722    0.332407417874206    -66.7533923078722    0.920923061397579    19.3687333991978     
7.80184676628479     0.921767329685295    19.258719757766      0.330585388631111    -66.8783434044998    0.330585388631111    -66.8783434044998    0.921767329685295    19.258719757766      
7.85086537598231     0.922603819729341    19.1491473862702     0.328769546775592    -67.0027816419946    0.328769546775592    -67.0027816419946    0.922603819729341    19.1491473862702     
7.900191967132       0.92343258068962     19.0400165897894     0.326959916962853    -67.1267069918434    0.326959916962853    -67.1267069918434    0.92343258068962     19.0400165897894     
7.94982847476578     0.924253661882067    18.9313276327608     0.325156522992676    -67.2501194636447    0.325156522992676    -67.2501194636447    0.924253661882067    18.9313276327608     
7.9997768460733      0.925067112766911    18.8230807394761     0.323359387816452    -67.3730191046058    0.323359387816452    -67.3730191046058    0.925067112766911    18.8230807394761     
8.05003904047828     0.925872982937132    18.7152760945804     0.321568533544339    -67.4954059990395    0.321568533544339    -67.4954059990395    0.925872982937132    18.7152760945804     
8.10061702971542     0.926671322107074    18.6079138435709     0.319783981452496    -67.6172802678588    0.319783981452496    -67.6172802678588    0.926671322107074    18.6079138435709     
8.15151279790772     0.927462180101264    18.5009940932953     0.318005751990423    -67.738642068073     0.318005751990423    -67.738642068073     0.927462180101264    18.5009940932953     
8.20272834164433     0.9282456068434      18.3945169124509     0.316233864788395    -67.8594915922816    0.316233864788395    -67.8594915922816    0.9282456068434      18.3945169124509     
8.25426567005885     0.929021652345535    18.2884823320826     0.314468338664975    -67.9798290681708    0.314468338664975    -67.9798290681708    0.929021652345535    18.2884823320826     
8.3061268049082      0.929790366697421    18.1828903460825     0.312709191634609    -68.0996547580049    0.312709191634609    -68.0996547580049    0.929790366697421    18.1828903460825     
8.35831378065187     0.930551800056069    18.0777409116862     0.310956440915298    -68.2189689581247    0.310956440915298    -68.2189689581247    0.930551800056069    18.0777409116862     
8.41082864453175     0.931306002635459    17.973033949972      0.309210102936349    -68.3377719984389    0.309210102936349    -68.3377719984389    0.931306002635459    17.973033949972      
8.46367345665247     0.932053024696464    17.8687693463556     0.307470193346176    -68.4560642419216    0.307470193346176    -68.4560642419216    0.932053024696464    17.8687693463556     
8.51685029006219     0.932792916536924    17.7649469510877     0.305736727020185    -68.5738460841074    0.305736727020185    -68.5738460841074    0.932792916536924    17.7649469510877     
8.57036123083392     0.933525728481942    17.6615665797474     0.3040097180687      -68.6911179525871    0.3040097180687      -68.6911179525871    0.933525728481942    17.6615665797474     
8.62420837814735     0.934251510874331    17.5586280137359     0.302289179844953    -68.8078803065066    0.302289179844953    -68.8078803065066    0.934251510874331    17.5586280137359     
8.67839384437124     0.934970314065255    17.4561310007689     0.300575124953125    -68.9241336360633    0.300575124953125    -68.9241336360633    0.934970314065255    17.4561310007689     
8.73291975514623     0.935682188405053    17.3540752553679     0.298867565256423    -69.0398784620061    0.298867565256423    -69.0398784620061    0.935682188405053    17.3540752553679     
8.78778824946826     0.936387184234246    17.2524604593482     0.297166511885214    -69.155115335136     0.297166511885214    -69.155115335136     0.936387184234246    17.2524604593482     
8.84300147977248     0.937085351874714    17.1512862623077     0.295471975245185    -69.2698448358067    0.295471975245185    -69.2698448358067    0.937085351874714    17.1512862623077     
8.89856161201767     0.937776741621072    17.0505522821114     0.293783965025541    -69.384067573429     0.293783965025541    -69.384067573429     0.937776741621072    17.0505522821114     
8.95447082577124     0.938461403732199    16.9502581053764     0.292102490207235    -69.4977841859734    0.292102490207235    -69.4977841859734    0.938461403732199    16.9502581053764     
9.01073131429469     0.939139388422968    16.850403287953      0.290427559071227    -69.6109953394781    0.290427559071227    -69.6109953394781    0.939139388422968    16.850403287953      
9.06734528462968     0.939810745856145    16.7509873554043     0.288759179206762    -69.7237017275554    0.288759179206762    -69.7237017275554    0.939810745856145    16.7509873554043     
9.12431495768461     0.940475526134457    16.6520098034838     0.287097357519666    -69.8359040709015    0.287097357519666    -69.8359040709015    0.940475526134457    16.6520098034838     
9.18164256832172     0.94113377929285     16.5534700986102     0.285442100240663    -69.9476031168085    0.285442100240663    -69.9476031168085    0.94113377929285     16.5534700986102     
9.23933036544478     0.941785555290906    16.4553676783405     0.283793412933709    -70.0587996386769    0.283793412933709    -70.0587996386769    0.941785555290906    16.4553676783405     
9.29738061208733     0.942430904005438    16.3577019518392     0.28215130050432     -70.1694944355315    0.28215130050432     -70.1694944355315    0.942430904005438    16.3577019518392     
9.3557955855014      0.943069875223269    16.2604723003465     0.280515767207924    -70.2796883315392    0.280515767207924    -70.2796883315392    0.943069875223269    16.2604723003465     
9.4145775772469      0.943702518634152    16.163678077643      0.278886816658205    -70.3893821755281    0.278886816658205    -70.3893821755281    0.943702518634152    16.163678077643      
9.47372889328151     0.944328883823894    16.0673186105104     0.277264451835454    -70.4985768405101    0.277264451835454    -70.4985768405101    0.944328883823894    16.0673186105104     
9.53325185405109     0.944949020267615    15.9713931991921     0.275648675094907    -70.6072732232051    0.275648675094907    -70.6072732232051    0.944949020267615    15.9713931991921     
9.59314879458077     0.945562977323199    15.8759011178478     0.274039488175089    -70.715472243568     0.274039488175089    -70.715472243568     0.945562977323199    15.8759011178478     
9.65342206456653     0.946170804224888    15.780841615008      0.272436892206151    -70.8231748443175    0.272436892206151    -70.8231748443175    0.946170804224888    15.780841615008      
9.71407402846734     0.946772550077057    15.6862139140223     0.270840887718176    -70.9303819904686    0.270840887718176    -70.9303819904686    0.946772550077057    15.6862139140223     
9.77510706559798     0.947368263848136    15.5920172135069     0.269251474649489    -71.037094668867     0.269251474649489    -71.037094668867     0.947368263848136    15.5920172135069     
9.83652357022233     0.947957994364701    15.4982506877881     0.267668652354957    -71.1433138877255    0.267668652354957    -71.1433138877255    0.947957994364701    15.4982506877881     
9.89832595164731     0.948541790305714    15.4049134873423     0.266092419614241    -71.2490406761647    0.266092419614241    -71.2490406761647    0.948541790305714    15.4049134873423     
9.96051663431739     0.949119700196934    15.3120047392323     0.264522774640054    -71.3542760837551    0.264522774640054    -71.3542760837551    0.949119700196934    15.3120047392323     
10.0230980579097     0.949691772405461    15.2195235475414     0.262959715086386    -71.4590211800624    0.262959715086386    -71.4590211800624    0.949691772405461    15.2195235475414     
10.0860726774298     0.950258055134454    15.1274689938027     0.261403238056697    -71.5632770541962    0.261403238056697    -71.5632770541962    0.950258055134454    15.1274689938027     
10.1494429633078     0.950818596417988    15.0358401374253     0.25985334011209     -71.6670448143606    0.25985334011209     -71.6670448143606    0.950818596417988    15.0358401374253     
10.2132114014954     0.951373444116058    14.9446360161173     0.258310017279449    -71.7703255874085    0.258310017279449    -71.7703255874085    0.951373444116058    14.9446360161173     
10.2773804935637     0.951922645909744    14.8538556463049     0.256773265059547    -71.8731205183984    0.256773265059547    -71.8731205183984    0.951922645909744    14.8538556463049     
10.3419527568006     0.952466249296504    14.7634980235478     0.255243078435111    -71.9754307701539    0.255243078435111    -71.9754307701539    0.952466249296504    14.7634980235478     
10.4069307243104     0.953004301585626    14.67356212295       0.253719451878861    -72.0772575228275    0.253719451878861    -72.0772575228275    0.953004301585626    14.67356212295       
10.4723169451124     0.953536849893811    14.5840468995696     0.252202379361513    -72.1786019734656    0.252202379361513    -72.1786019734656    0.953536849893811    14.5840468995696     
10.5381139842416     0.954063941140898    14.4949512888208     0.25069185435972     -72.2794653355779    0.25069185435972     -72.2794653355779    0.954063941140898    14.4949512888208     
10.6043244228488     0.954585622045737    14.4062742068758     0.249187869864       -72.3798488387093    0.249187869864       -72.3798488387093    0.954585622045737    14.4062742068758     
10.670950858302      0.955101939122177    14.3180145510604     0.247690418386595    -72.4797537280151    0.247690418386595    -72.4797537280151    0.955101939122177    14.3180145510604     
10.7379959042884     0.955612938675214    14.2301712002466     0.246199491969301    -72.5791812638387    0.246199491969301    -72.5791812638387    0.955612938675214    14.2301712002466     
10.8054621909169     0.956118666797248    14.1427430152417     0.244715082191246    -72.678132721293     0.244715082191246    -72.678132721293     0.956118666797248    14.1427430152417     
10.8733523648212     0.956619169364485    14.055728839173      0.243237180176615    -72.7766093898449    0.243237180176615    -72.7766093898449    0.956619169364485    14.055728839173      
10.9416690892637     0.957114492033462    13.9691274978674     0.241765776602332    -72.8746125729027    0.241765776602332    -72.8746125729027    0.957114492033462    13.9691274978674     
11.0104150442398     0.957604680237693    13.8829378002299     0.240300861705689    -72.9721435874057    0.240300861705689    -72.9721435874057    0.957604680237693    13.8829378002299     
11.0795929265835     0.958089779184456    13.7971585386149     0.238842425291915    -73.0692037634192    0.238842425291915    -73.0692037634192    0.958089779184456    13.7971585386149     
11.1492054500725     0.958569833851675    13.7117884891961     0.237390456741706    -73.1657944437295    0.237390456741706    -73.1657944437295    0.958569833851675    13.7117884891961     
11.2192553455352     0.959044888984956    13.62682641233       0.235944945018684    -73.2619169834452    0.235944945018684    -73.2619169834452    0.959044888984956    13.62682641233       
11.2897453609578     0.959514989094708    13.5422710529177     0.234505878676809    -73.3575727495986    0.234505878676809    -73.3575727495986    0.959514989094708    13.5422710529177     
11.3606782615916     0.959980178453407    13.4581211407608     0.233073245867737    -73.4527631207523    0.233073245867737    -73.4527631207523    0.959980178453407    13.4581211407608     
11.4320568300621     0.960440501092958    13.374375390914      0.231647034348103    -73.547489486608     0.231647034348103    -73.547489486608     0.960440501092958    13.374375390914      
11.503883866478      0.960896000802177    13.2910325040342     0.230227231486768    -73.6417532476178    0.230227231486768    -73.6417532476178    0.960896000802177    13.2910325040342     
11.5761621885405     0.96134672112438     13.2080911667241     0.228813824271987    -73.7355558145995    0.228813824271987    -73.7355558145995    0.96134672112438     13.2080911667241     
11.6488946316548     0.96179270535508     13.1255500518732     0.22740679931853     -73.8288986083544    0.22740679931853     -73.8288986083544    0.96179270535508     13.1255500518732     
11.7220840490405     0.962233996539801    13.0434078189931     0.226006142874723    -73.9217830592882    0.226006142874723    -73.9217830592882    0.962233996539801    13.0434078189931     
11.7957333118438     0.962670637471975    12.9616631145512     0.224611840829444    -74.0142106070338    0.224611840829444    -74.0142106070338    0.962670637471975    12.9616631145512     
11.8698453092504     0.963102670690966    12.8803145722969     0.223223878719051    -74.1061827000794    0.223223878719051    -74.1061827000794    0.963102670690966    12.8803145722969     
11.9444229485983     0.963530138480179    12.7993608135873     0.221842241734241    -74.1977007953962    0.221842241734241    -74.1977007953962    0.963530138480179    12.7993608135873     
12.0194691554925     0.963953082865272    12.7188004477061     0.220466914726844    -74.2887663580721    0.220466914726844    -74.2887663580721    0.963953082865272    12.7188004477061     
12.0949868739192     0.964371545612467    12.6386320721798     0.219097882216558    -74.3793808609457    0.219097882216558    -74.3793808609457    0.964371545612467    12.6386320721798     
12.1709790663616     0.964785568226952    12.5588542730895     0.217735128397618    -74.4695457842448    0.217735128397618    -74.4695457842448    0.964785568226952    12.5588542730895     
12.2474487139159     0.965195191951383    12.4794656253783     0.216378637145389    -74.5592626152263    0.216378637145389    -74.5592626152263    0.965195191951383    12.4794656253783     
12.3243988164086     0.965600457764467    12.4004646931557     0.2150283920229      -74.6485328478197    0.2150283920229      -74.6485328478197    0.965600457764467    12.4004646931557     
12.4018323925138     0.966001406379646    12.3218500299966     0.213684376287312    -74.7373579822727    0.213684376287312    -74.7373579822727    0.966001406379646    12.3218500299966     
12.4797524798718     0.966398078243861    12.2436201792372     0.212346572896317    -74.8257395247996    0.212346572896317    -74.8257395247996    0.966398078243861    12.2436201792372     
12.5581621352082     0.966790513536402    12.1657736742668     0.21101496451446     -74.9136789872319    0.21101496451446     -74.9136789872319    0.966790513536402    12.1657736742668     
12.6370644344541     0.967178752167846    12.0883090388148     0.209689533519407    -75.0011778866723    0.209689533519407    -75.0011778866723    0.967178752167846    12.0883090388148     
12.7164624728662     0.967562833779076    12.0112247872352     0.208370262008134    -75.0882377451491    0.208370262008134    -75.0882377451491    0.967562833779076    12.0112247872352     
12.7963593651488     0.967942797740377    11.9345194247855     0.207057131803052    -75.1748600892756    0.207057131803052    -75.1748600892756    0.967942797740377    11.9345194247855     
12.8767582455754     0.968318683150613    11.8581914479031     0.205750124458067    -75.2610464499096    0.205750124458067    -75.2610464499096    0.968318683150613    11.8581914479031     
12.9576622681123     0.968690528836485    11.7822393444763     0.20444922126455     -75.3467983618166    0.20444922126455     -75.3467983618166    0.968690528836485    11.7822393444763     
13.0390746065419     0.969058373351854    11.7066615941131     0.203154403257272    -75.4321173633335    0.203154403257272    -75.4321173633335    0.969058373351854    11.7066615941131     
13.1209984545874     0.969422254977151    11.6314566684046     0.201865651220235    -75.5170049960368    0.201865651220235    -75.5170049960368    0.969422254977151    11.6314566684046     
13.2034370260377     0.969782211718842    11.556623031185      0.200582945692463    -75.6014628044107    0.200582945692463    -75.6014628044107    0.969782211718842    11.556623031185      
13.2863935548742     0.970138281308984    11.4821591387883     0.199306266973694    -75.6854923355175    0.199306266973694    -75.6854923355175    0.970138281308984    11.4821591387883     
13.3698712953969     0.97049050120483     11.4080634403004     0.19803559513003     -75.7690951386715    0.19803559513003     -75.7690951386715    0.97049050120483     11.4080634403004     
13.4538735223526     0.970838908588509    11.3343343778079     0.196770909999501    -75.8522727651129    0.196770909999501    -75.8522727651129    0.970838908588509    11.3343343778079     
13.5384035310631     0.971183540366777    11.2609703866428     0.195512191197559    -75.9350267676835    0.195512191197559    -75.9350267676835    0.971183540366777    11.2609703866428     
13.6234646375546     0.971524433170817    11.1879698956239     0.194259418122516    -76.0173587005056    0.194259418122516    -76.0173587005056    0.971524433170817    11.1879698956239     
13.7090601786875     0.971861623356119    11.1153313272934     0.193012569960896    -76.0992701186615    0.193012569960896    -76.0992701186615    0.971861623356119    11.1153313272934     
13.7951935122878     0.972195147002405    11.0430530981515     0.191771625692729    -76.1807625778733    0.191771625692729    -76.1807625778733    0.972195147002405    11.0430530981515     
13.8818680172784     0.972525039913621    10.9711336188854     0.190536564096768    -76.261837634187     0.190536564096768    -76.261837634187     0.972525039913621    10.9711336188854     
13.9690870938119     0.972851337617982    10.8995712945962     0.189307363755647    -76.3424968436545    0.189307363755647    -76.3424968436545    0.972851337617982    10.8995712945962     
14.0568541634039     0.97317407536808     10.8283645250216     0.188084003060958    -76.4227417620202    0.188084003060958    -76.4227417620202    0.97317407536808     10.8283645250216     
14.145172669067      0.973493288141041    10.7575117047542     0.186866460218269    -76.5025739444057    0.186866460218269    -76.5025739444057    0.973493288141041    10.7575117047542     
14.2340460754463     0.973809010638731    10.6870112234579     0.185654713252069    -76.5819949449977    0.185654713252069    -76.5819949449977    0.973809010638731    10.6870112234579     
14.323477868955      0.974121277288024    10.6168614660793     0.184448740010643    -76.6610063167355    0.184448740010643    -76.6610063167355    0.974121277288024    10.6168614660793     
14.4134715579112     0.974430122241115    10.547060813056      0.183248518170889    -76.7396096110005    0.183248518170889    -76.7396096110005    0.974430122241115    10.547060813056      
14.5040306726758     0.974735579375874    10.4776076405221     0.18205402524305     -76.817806377305     0.18205402524305     -76.817806377305     0.974735579375874    10.4776076405221     
14.5951587657905     0.975037682296263    10.4085003205089     0.180865238575398    -76.895598162983     0.180865238575398    -76.895598162983     0.975037682296263    10.4085003205089     
14.6868594121176     0.975336464332787    10.3397372211433     0.179682135358832    -76.9729865128808    0.179682135358832    -76.9729865128808    0.975336464332787    10.3397372211433     
14.7791362089801     0.975631958542994    10.2713167068426     0.17850469263143     -77.0499729690473    0.17850469263143     -77.0499729690473    0.975631958542994    10.2713167068426     
14.8719927763028     0.975924197712017    10.2032371385053     0.177332887282915    -77.1265590704265    0.177332887282915    -77.1265590704265    0.975924197712017    10.2032371385053     
14.9654327567541     0.976213214353161    10.1354968736996     0.176166696059066    -77.2027463525482    0.176166696059066    -77.2027463525482    0.976213214353161    10.1354968736996     
15.0594598158894     0.976499040708528    10.0680942668469     0.175006095566058    -77.2785363472201    0.175006095566058    -77.2785363472201    0.976499040708528    10.0680942668469     
15.1540776422943     0.97678170874968     10.0010276694047     0.173851062274745    -77.3539305822182    0.173851062274745    -77.3539305822182    0.97678170874968     10.0010276694047     
15.24928994773       0.977061250178348    9.9342954300433      0.172701572524872    -77.4289305809792    0.172701572524872    -77.4289305809792    0.977061250178348    9.9342954300433      
15.345100467278      0.977337696427165    9.86789589482115     0.171557602529209    -77.5035378622906    0.171557602529209    -77.5035378622906    0.977337696427165    9.86789589482115     
15.4415129594876     0.977611078660452    9.80182740735694     0.170419128377661    -77.5777539399809    0.170419128377661    -77.5777539399809    0.977611078660452    9.80182740735694     
15.5385312065225     0.977881427775022    9.73608830899714     0.169286126041262    -77.6515803226099    0.169286126041262    -77.6515803226099    0.977881427775022    9.73608830899714     
15.6361590143099     0.978148774401031    9.67067693898254     0.168158571376148    -77.7250185131566    0.168158571376148    -77.7250185131566    0.978148774401031    9.67067693898254     
15.7344002126891     0.978413148902852    9.60559163460958     0.167036440127447    -77.7980700087083    0.167036440127447    -77.7980700087083    0.978413148902852    9.60559163460958     
15.8332586555623     0.978674581379985    9.54083073139029     0.165919707933108    -77.8707363001462    0.165919707933108    -77.8707363001462    0.978674581379985    9.54083073139029     
15.9327382210455     0.978933101667999    9.47639256320818     0.164808350327676    -77.9430188718319    0.164808350327676    -77.9430188718319    0.978933101667999    9.47639256320818     
16.0328428116208     0.979188739339499    9.41227546247142     0.163702342746001    -78.0149192012914    0.163702342746001    -78.0149192012914    0.979188739339499    9.41227546247142     
16.1335763542893     0.97944152370512     9.3484777602635      0.162601660526879    -78.0864387588971    0.162601660526879    -78.0864387588971    0.97944152370512     9.3484777602635      
16.2349428007253     0.97969148381456     9.28499778649029     0.161506278916646    -78.1575790075489    0.161506278916646    -78.1575790075489    0.97969148381456     9.28499778649029     
16.3369461274311     0.979938648457621    9.22183387002419     0.160416173072706    -78.2283414023539    0.160416173072706    -78.2283414023539    0.979938648457621    9.22183387002419     
16.4395903358935     0.980183046165289    9.15898433884681     0.159331318066999    -78.2987273903017    0.159331318066999    -78.2987273903017    0.980183046165289    9.15898433884681     
16.5428794527401     0.980424705210837    9.09644752018646     0.158251688889407    -78.36873840994      0.158251688889407    -78.36873840994      0.980424705210837    9.09644752018646     
16.6468175298978     0.980663653610942    9.03422174065498     0.157177260451106    -78.4383758910459    0.157177260451106    -78.4383758910459    0.980663653610942    9.03422174065498     
16.7514086447516     0.980899919126836    8.97230532638066     0.156108007587868    -78.5076412542959    0.156108007587868    -78.5076412542959    0.980899919126836    8.97230532638066     
16.8566569003042     0.981133529265468    8.91069660313877     0.155043905063288    -78.5765359109315    0.155043905063288    -78.5765359109315    0.981133529265468    8.91069660313877     
16.9625664253377     0.981364511280697    8.84939389647922     0.153984927571964    -78.645061262423     0.153984927571964    -78.645061262423     0.981364511280697    8.84939389647922     
17.0691413745747     0.981592892174495    8.78839553185186     0.15293104974263     -78.7132187001294    0.15293104974263     -78.7132187001294    0.981592892174495    8.78839553185186     
17.176385928842      0.981818698698177    8.72769983472911     0.151882246141211    -78.7810096049542    0.151882246141211    -78.7810096049542    0.981818698698177    8.72769983472911     
17.2843042952342     0.982041957353641    8.66730513072523     0.150838491273849    -78.8484353469993    0.150838491273849    -78.8484353469993    0.982041957353641    8.66730513072523     
17.3929007072789     0.982262694394632    8.60720974571428     0.149799759589845    -78.9154972852122    0.149799759589845    -78.9154972852122    0.982262694394632    8.60720974571428     
17.5021794251028     0.982480935828019    8.54741200594467     0.148766025484585    -78.9821967670313    0.148766025484585    -78.9821967670313    0.982480935828019    8.54741200594467     
17.6121447355986     0.982696707415088    8.48791023815125     0.147737263302372    -79.0485351280254    0.147737263302372    -79.0485351280254    0.982696707415088    8.48791023815125     
17.7228009525934     0.982910034672852    8.42870276966534     0.146713447339231    -79.1145136915287    0.146713447339231    -79.1145136915287    0.982910034672852    8.42870276966534     
17.834152417018      0.983120942875367    8.36978792852216     0.145694551845661    -79.180133768271     0.145694551845661    -79.180133768271     0.983120942875367    8.36978792852216     
17.9462034970768     0.983329457055074    8.31116404356511     0.144680551029318    -79.2453966560026    0.144680551029318    -79.2453966560026    0.983329457055074    8.31116404356511     
18.0589585884197     0.983535602004146    8.25282944454936     0.143671419057668    -79.3103036391125    0.143671419057668    -79.3103036391125    0.983535602004146    8.25282944454936     
18.172422114314      0.983739402275842    8.19478246224121     0.142667130060573    -79.3748559882427    0.142667130060573    -79.3748559882427    0.983739402275842    8.19478246224121     
18.2865985258182     0.983940882185883    8.13702142851633     0.141667658132835    -79.4390549598943    0.141667658132835    -79.4390549598943    0.983940882185883    8.13702142851633     
18.4014923019567     0.984140065813837    8.07954467645527     0.140672977336691    -79.5029017960287    0.140672977336691    -79.5029017960287    0.984140065813837    8.07954467645527     
18.5171079498952     0.984336977004501    8.022350540437       0.139683061704257    -79.5663977236602    0.139683061704257    -79.5663977236602    0.984336977004501    8.022350540437       
18.633450005118      0.984531639369307    7.96543735622963     0.138697885239922    -79.6295439544433    0.138697885239922    -79.6295439544433    0.984531639369307    7.96543735622963     
18.7505230316053     0.984724076287733    7.90880346107961     0.137717421922693    -79.6923416842512    0.137717421922693    -79.6923416842512    0.984724076287733    7.90880346107961     
18.8683316220127     0.984914310908714    7.85244719379841     0.136741645708506    -79.7547920927463    0.136741645708506    -79.7547920927463    0.984914310908714    7.85244719379841     
18.9868803978512     0.985102366152073    7.79636689484729     0.13577053053247     -79.8168963429432    0.13577053053247     -79.8168963429432    0.985102366152073    7.79636689484729     
19.1061740096686     0.985288264709947    7.74056090641954     0.134804050311081    -79.8786555807625    0.134804050311081    -79.8786555807625    0.985288264709947    7.74056090641954     
19.2262171372317     0.985472029048227    7.685027572521       0.13384217894438     -79.9400709345757    0.13384217894438     -79.9400709345757    0.985472029048227    7.685027572521       
19.3470144897101     0.985653681408003    7.62976523904839     0.132884890318077    -80.0011435147406    0.132884890318077    -80.0011435147406    0.985653681408003    7.62976523904839     
19.468570805861      0.985833243807004    7.57477225386592     0.131932158305618    -80.0618744131259    0.131932158305618    -80.0618744131259    0.985833243807004    7.57477225386592     
19.5908908542148     0.986010738041065    7.52004696687928     0.130983956770223    -80.1222647026276    0.130983956770223    -80.1222647026276    0.986010738041065    7.52004696687928     
19.7139794332624     0.986186185685566    7.46558773010826     0.130040259566857    -80.1823154366714    0.130040259566857    -80.1823154366714    0.986186185685566    7.46558773010826     
19.8378413716435     0.986359608096908    7.41139289775734     0.129101040544197    -80.2420276487069    0.129101040544197    -80.2420276487069    0.986359608096908    7.41139289775734     
19.9624815283357     0.98653102641397     7.35746082628376     0.12816627354651     -80.3014023516875    0.12816627354651     -80.3014023516875    0.98653102641397     7.35746082628376     
20.0879047928453     0.98670046155957     7.30378987446484     0.127235932415528    -80.3604405375394    0.127235932415528    -80.3604405375394    0.98670046155957     7.30378987446484     
20.2141160853993     0.986867934241944    7.25037840346234     0.12630999099226     -80.419143176617     0.12630999099226     -80.419143176617     0.986867934241944    7.25037840346234     
20.3411203571382     0.987033464956207    7.19722477688555     0.125388423118777    -80.4775112171451    0.125388423118777    -80.4775112171451    0.987033464956207    7.19722477688555     
20.4689225903102     0.987197073985829    7.14432736085275     0.124471202639941    -80.5355455846465    0.124471202639941    -80.5355455846465    0.987197073985829    7.14432736085275     
20.5975277984667     0.987358781404102    7.09168452405036     0.123558303405113    -80.5932471813558    0.123558303405113    -80.5932471813558    0.987358781404102    7.09168452405036     
20.726941026659      0.987518607075618    7.03929463779058     0.122649699269809    -80.6506168856174    0.122649699269809    -80.6506168856174    0.987518607075618    7.03929463779058     
20.8571673516363     0.987676570657737    6.98715607606789     0.121745364097322    -80.7076555512667    0.121745364097322    -80.7076555512667    0.987676570657737    6.98715607606789     
20.9882118820447     0.987832691602061    6.93526721561257     0.120845271760308    -80.7643640069964    0.120845271760308    -80.7643640069964    0.987832691602061    6.93526721561257     
21.1200797586275     0.987986989155902    6.88362643594407     0.119949396142334    -80.820743055704     0.119949396142334    -80.820743055704     0.987986989155902    6.88362643594407     
21.2527761544273     0.988139482363758    6.83223211942111     0.11905771113938     -80.8767934738214    0.11905771113938     -80.8767934738214    0.988139482363758    6.83223211942111     
21.3863062749886     0.988290190068772    6.78108265129219     0.118170190661326    -80.9325160106258    0.118170190661326    -80.9325160106258    0.988290190068772    6.78108265129219     
21.5206753585619     0.988439130914206    6.73017641974231     0.117286808633383    -80.9879113875315    0.117286808633383    -80.9879113875315    0.988439130914206    6.73017641974231     
21.6558886763096     0.988586323344904    6.6795118159397      0.116407538997492    -81.0429802973593    0.116407538997492    -81.0429802973593    0.988586323344904    6.6795118159397      
21.7919515325124     0.988731785608746    6.62908723408043     0.115532355713704    -81.0977234035866    0.115532355713704    -81.0977234035866    0.988731785608746    6.62908723408043     
21.9288692647775     0.988875535758117    6.57890107143156     0.114661232761503    -81.1521413395737    0.114661232761503    -81.1521413395737    0.988875535758117    6.57890107143156     
22.0666472442481     0.98901759165136     6.5289517283726      0.113794144141117    -81.2062347077673    0.113794144141117    -81.2062347077673    0.98901759165136     6.5289517283726      
22.205290875814      0.989157970954218    6.47923760843609     0.112931063874781    -81.2600040788796    0.112931063874781    -81.2600040788796    0.989157970954218    6.47923760843609     
22.3448055983237     0.989296691141296    6.42975711834598     0.112071966007967    -81.3134499910421    0.112071966007967    -81.3134499910421    0.989296691141296    6.42975711834598     
22.4851968847976     0.989433769497496    6.38050866805518     0.1112168246106      -81.3665729489327    0.1112168246106      -81.3665729489327    0.989433769497496    6.38050866805518     
22.6264702426429     0.989569223119458    6.33149067078143     0.110365613778216    -81.4193734228756    0.110365613778216    -81.4193734228756    0.989569223119458    6.33149067078143     
22.7686312138696     0.989703068916997    6.28270154304176     0.109518307633115    -81.4718518479121    0.109518307633115    -81.4718518479121    0.989703068916997    6.28270154304176     
22.9116853753077     0.989835323614531    6.23413970468579     0.10867488032546     -81.5240086228415    0.10867488032546     -81.5240086228415    0.989835323614531    6.23413970468579     
23.0556383388263     0.989966003752506    6.1858035789276      0.107835306034364    -81.5758441092307    0.107835306034364    -81.5758441092307    0.989966003752506    6.1858035789276      
23.2004957515535     0.990095125688816    6.1376915923763      0.106999558968939    -81.6273586303911    0.106999558968939    -81.6273586303911    0.990095125688816    6.1376915923763      
23.346263296098      0.990222705600217    6.08980217506513     0.106167613369312    -81.6785524703214    0.106167613369312    -81.6785524703214    0.990222705600217    6.08980217506513     
23.4929466907723     0.990348759483732    6.04213376047975     0.105339443507626    -81.7294258726147    0.105339443507626    -81.7294258726147    0.990348759483732    6.04213376047975     
23.6405516898163     0.990473303158054    5.99468478558485     0.104515023689       -81.7799790393291    0.104515023689       -81.7799790393291    0.990473303158054    5.99468478558485     
23.789084083624      0.990596352264947    5.94745369084952     0.103694328252459    -81.8302121298185    0.103694328252459    -81.8302121298185    0.990596352264947    5.94745369084952     
23.9385496989699     0.990717922270622    5.900438920272       0.102877331571858    -81.8801252595235    0.102877331571858    -81.8801252595235    0.990717922270622    5.900438920272       
24.0889543992377     0.990838028467132    5.85363892140237     0.10206400805675     -81.9297184987205    0.10206400805675     -81.9297184987205    0.990838028467132    5.85363892140237     
24.2403040846507     0.990956685973743    5.807052145365       0.101254332153252    -81.9789918712257    0.101254332153252    -81.9789918712257    0.990956685973743    5.807052145365       
24.3926046925028     0.991073909738293    5.76067704687881     0.100448278344868    -82.0279453530541    0.100448278344868    -82.0279453530541    0.991073909738293    5.76067704687881     
24.5458621973919     0.991189714538569    5.71451208427771     0.099645821153303    -82.0765788710291    0.099645821153303    -82.0765788710291    0.991189714538569    5.71451208427771     
24.7000826114537     0.991304114983646    5.6685557195285      0.098846935139232    -82.1248923013433    0.098846935139232    -82.1248923013433    0.991304114983646    5.6685557195285      
24.8552719845979     0.991417125515241    5.62280641824901     0.098051594903064    -82.1728854680652    0.098051594903064    -82.1728854680652    0.991417125515241    5.62280641824901     
25.0114364047457     0.991528760409046    5.57726264972413     0.097259775085672    -82.2205581415924    0.097259775085672    -82.2205581415924    0.991528760409046    5.57726264972413     
25.1685819980681     0.991639033776061    5.53192288692158     0.096471450369098    -82.267910037046     0.096471450369098    -82.267910037046     0.991639033776061    5.53192288692158     
25.3267149292268     0.991747959563913    5.48678560650602     0.095686595477239    -82.3149408126061    0.095686595477239    -82.3149408126061    0.991747959563913    5.48678560650602     
25.4858414016155     0.991855551558173    5.44184928885259     0.094905185176512    -82.3616500677841    0.094905185176512    -82.3616500677841    0.991855551558173    5.44184928885259     
25.6459676576037     0.991961823383656    5.39711241805906     0.094127194276487    -82.4080373416289    0.094127194276487    -82.4080373416289    0.991961823383656    5.39711241805906     
25.8070999787812     0.992066788505722    5.35257348195792     0.093352597630515    -82.4541021108647    0.093352597630515    -82.4541021108647    0.992066788505722    5.35257348195792     
25.969244686205      0.992170460231561    5.30823097212601     0.092581370136318    -82.499843787957     0.092581370136318    -82.499843787957     0.992170460231561    5.30823097212601     
26.1324081406468     0.992272851711475    5.26408338389434     0.09181348673656     -82.5452617191034    0.09181348673656     -82.5452617191034    0.992272851711475    5.26408338389434     
26.2965967428427     0.992373975940142    5.22012921635699     0.091048922419415    -82.5903551821445    0.091048922419415    -82.5903551821445    0.992373975940142    5.22012921635699     
26.4618169337442     0.992473845757888    5.1763669723784      0.090287652219093    -82.6351233843938    0.090287652219093    -82.6351233843938    0.992473845757888    5.1763669723784      
26.6280751947713     0.992572473851926    5.13279515860041     0.089529651216357    -82.6795654603795    0.089529651216357    -82.6795654603795    0.992572473851926    5.13279515860041     
26.7953780480662     0.992669872757609    5.08941228544805     0.088774894539022    -82.723680469497     0.088774894539022    -82.723680469497     0.992669872757609    5.08941228544805     
26.9637320567493     0.992766054859659    5.04621686713475     0.088023357362428    -82.7674673935654    0.088023357362428    -82.7674673935654    0.992766054859659    5.04621686713475     
27.133143825177      0.99286103239339     5.00320742166629     0.087275014909901    -82.810925134285     0.087275014909901    -82.810925134285     0.99286103239339     5.00320742166629     
27.3036199992004     0.992954817445925    4.96038247084479     0.086529842453202    -82.8540525105896    0.086529842453202    -82.8540525105896    0.992954817445925    4.96038247084479     
27.4751672664261     0.993047421957401    4.9177405402705      0.085787815312937    -82.8968482558898    0.085787815312937    -82.8968482558898    0.993047421957401    4.9177405402705      
27.6477923564788     0.993138857722164    4.87528015934425     0.085048908858974    -82.9393110152017    0.085048908858974    -82.9393110152017    0.993138857722164    4.87528015934425     
27.8215020412648     0.993229136389949    4.83299986126826     0.084313098510829    -82.981439342153     0.084313098510829    -82.981439342153     0.993229136389949    4.83299986126826     
27.9963031352382     0.993318269467067    4.79089818304629     0.083580359738043    -83.0232316958647    0.083580359738043    -83.0232316958647    0.993318269467067    4.79089818304629     
28.1722024956679     0.99340626831756     4.7489736654833      0.082850668060537    -83.064686437698     0.082850668060537    -83.064686437698     0.99340626831756     4.7489736654833      
28.3492070229065     0.993493144164361    4.70722485318422     0.082123999048958    -83.1058018278618    0.082123999048958    -83.1058018278618    0.993493144164361    4.70722485318422     
28.5273236606615     0.993578908090439    4.66565029455167     0.081400328325006    -83.1465760218738    0.081400328325006    -83.1465760218738    0.993578908090439    4.66565029455167     
28.706559396267      0.993663571039938    4.62424854178389     0.080679631561745    -83.1870070668657    0.080679631561745    -83.1870070668657    0.993663571039938    4.62424854178389     
28.8869212609585     0.993747143819299    4.58301815087091     0.079961884483912    -83.227092897727     0.079961884483912    -83.227092897727     0.993747143819299    4.58301815087091     
29.0684163301481     0.993829637098372    4.54195768159064     0.079247062868191    -83.2668313330777    0.079247062868191    -83.2668313330777    0.993829637098372    4.54195768159064     
29.2510517237026     0.993911061411528    4.50106569750429     0.078535142543498    -83.30622007106      0.078535142543498    -83.30622007106      0.993911061411528    4.50106569750429     
29.4348346062225     0.993991427158749    4.46034076595078     0.077826099391232    -83.3452566849423    0.077826099391232    -83.3452566849423    0.993991427158749    4.46034076595078     
29.619772187323      0.994070744606713    4.41978145804107     0.077119909345535    -83.3839386185215    0.077119909345535    -83.3839386185215    0.994070744606713    4.41978145804107     
29.8058717219171     0.994149023889872    4.37938634865134     0.076416548393518    -83.422263181317     0.076416548393518    -83.422263181317     0.994149023889872    4.37938634865134     
29.9931405104999     0.994226275011507    4.33915401641554     0.075715992575495    -83.4602275435428    0.075715992575495    -83.4602275435428    0.994226275011507    4.33915401641554     
30.1815858994353     0.994302507844789    4.29908304371802     0.075018217985195    -83.4978287308443    0.075018217985195    -83.4978287308443    0.994302507844789    4.29908304371802     
30.3712152812439     0.994377732133815    4.25917201668482     0.074323200769969    -83.5350636187913    0.074323200769969    -83.5350636187913    0.994377732133815    4.25917201668482     
30.5620360948934     0.994451957494646    4.21941952517451     0.073630917130987    -83.5719289271094    0.073630917130987    -83.5719289271094    0.994451957494646    4.21941952517451     
30.7540558260897     0.994525193416323    4.17982416276905     0.072941343323422    -83.6084212136369    0.072941343323422    -83.6084212136369    0.994525193416323    4.17982416276905     
30.9472820075714     0.994597449261883    4.14038452676323     0.072254455656631    -83.6445368679937    0.072254455656631    -83.6445368679937    0.994597449261883    4.14038452676323     
31.1417222194048     0.994668734269351    4.1010992181542      0.071570230494324    -83.6802721049416    0.071570230494324    -83.6802721049416    0.994668734269351    4.1010992181542      
31.3373840892813     0.994739057552739    4.06196684163022     0.07088864425473     -83.7156229574231    0.07088864425473     -83.7156229574231    0.994739057552739    4.06196684163022     
31.5342752928169     0.994808428103017    4.02298600555898     0.070209673410749    -83.7505852692571    0.070209673410749    -83.7505852692571    0.994808428103017    4.02298600555898     
31.7324035538528     0.994876854789085    3.98415532197535     0.069533294490109    -83.7851546874731    0.069533294490109    -83.7851546874731    0.994876854789085    3.98415532197535     
31.931776644759      0.99494434635873     3.94547340656849     0.068859484075501    -83.8193266542625    0.068859484075501    -83.8193266542625    0.99494434635873     3.94547340656849     
32.1324023867387     0.99501091143957     3.90693887866877     0.06818821880473     -83.8530963985245    0.06818821880473     -83.8530963985245    0.99501091143957     3.90693887866877     
32.3342886501354     0.995076558539992    3.86855036123426     0.067519475370844    -83.886458926982     0.067519475370844    -83.886458926982     0.995076558539992    3.86855036123426     
32.5374433547416     0.995141296050079    3.83030648083602     0.066853230522266    -83.9194090148438    0.066853230522266    -83.9194090148438    0.995141296050079    3.83030648083602     
32.7418744701096     0.995205132242519    3.79220586764396     0.066189461062929    -83.9519411959829    0.066189461062929    -83.9519411959829    0.995205132242519    3.79220586764396     
32.9475900158636     0.995268075273512    3.75424715541168     0.065528143852398    -83.9840497526036    0.065528143852398    -83.9840497526036    0.995268075273512    3.75424715541168     
33.154598062015      0.995330133183662    3.71642898146062     0.064869255806       -84.0157287043659    0.064869255806       -84.0157287043659    0.995330133183662    3.71642898146062     
33.3629067292786     0.995391313898862    3.67874998666471     0.064212773894948    -84.0469717969325    0.064212773894948    -84.0469717969325    0.995391313898862    3.67874998666471     
33.5725241893913     0.995451625231158    3.64120881543342     0.063558675146471    -84.0777724899035    0.063558675146471    -84.0777724899035    0.995451625231158    3.64120881543342     
33.7834586654326     0.995511074879618    3.60380411569526     0.062906936643935    -84.1081239441001    0.062906936643935    -84.1081239441001    0.995511074879618    3.60380411569526     
33.995718432147      0.995569670431172    3.56653453888079     0.062257535526985    -84.1380190081554    0.062257535526985    -84.1380190081554    0.995569670431172    3.56653453888079     
34.209311816269      0.995627419361458    3.5293987399048      0.061610448991669    -84.1674502043687    0.061610448991669    -84.1674502043687    0.995627419361458    3.5293987399048      
34.4242471968495     0.995684329035651    3.49239537714839     0.06096565429058     -84.1964097137757    0.06096565429058     -84.1964097137757    0.995684329035651    3.49239537714839     
34.6405330055846     0.995740406709273    3.4555231124408      0.060323128733001    -84.2248893603821    0.060323128733001    -84.2248893603821    0.995740406709273    3.4555231124408      
34.8581777271463     0.995795659529005    3.4187806110407      0.05968284968506     -84.2528805945076    0.05968284968506     -84.2528805945076    0.995795659529005    3.4187806110407      
35.0771898995152     0.99585009453348     3.38216654161716     0.05904479456988     -84.2803744751802    0.05904479456988     -84.2803744751802    0.99585009453348     3.38216654161716     
35.2975781143159     0.995903718654071    3.34567957623016     0.058408940867757    -84.3073616515161    0.058408940867757    -84.3073616515161    0.995903718654071    3.34567957623016     
35.5193510171535     0.995956538715662    3.3093183903111      0.057775266116335    -84.333832343019     0.057775266116335    -84.333832343019     0.995956538715662    3.3093183903111      
35.7425173079531     0.996008561437409    3.27308166264268     0.057143747910803    -84.3597763187218    0.057143747910803    -84.3597763187218    0.996008561437409    3.27308166264268     
35.9670857413011     0.996059793433501    3.23696807533835     0.056514363904094    -84.3851828750944    0.056514363904094    -84.3851828750944    0.996059793433501    3.23696807533835     
36.1930651267882     0.996110241213892    3.20097631382203     0.055887091807116    -84.4100408126279    0.055887091807116    -84.4100408126279    0.996110241213892    3.20097631382203     
36.4204643293557     0.996159911185039    3.16510506680686     0.055261909388992    -84.4343384110046    0.055261909388992    -84.4343384110046    0.996159911185039    3.16510506680686     
36.6492922696426     0.996208809650618    3.12935302627392     0.054638794477313    -84.4580634027524    0.054638794477313    -84.4580634027524    0.996208809650618    3.12935302627392     
36.879557924336      0.996256942812238    3.09371888745084     0.054017724958429    -84.4812029452748    0.054017724958429    -84.4812029452748    0.996256942812238    3.09371888745084     
37.1112703265229     0.996304316770133    3.05820134878983     0.053398678777752    -84.5037435911377    0.053398678777752    -84.5037435911377    0.996304316770133    3.05820134878983     
37.3444385660449     0.996350937523857    3.02279911194561     0.052781633940089    -84.5256712564872    0.052781633940089    -84.5256712564872    0.996350937523857    3.02279911194561     
37.5790717898545     0.99639681097296     2.98751088175305     0.052166568510011    -84.5469711874577    0.052166568510011    -84.5469711874577    0.99639681097296     2.98751088175305     
37.8151792023741     0.99644194291765     2.95233536620451     0.051553460612242    -84.5676279244211    0.051553460612242    -84.5676279244211    0.99644194291765     2.95233536620451     
38.052770065857      0.996486339059457    2.91727127642691     0.050942288432097    -84.5876252639137    0.050942288432097    -84.5876252639137    0.996486339059457    2.91727127642691     
38.2918537007508     0.996530005001869    2.88231732665863     0.05033303021595     -84.6069462180619    0.05033303021595     -84.6069462180619    0.996530005001869    2.88231732665863     
38.5324394860629     0.996572946250977    2.8474722342262      0.04972566427175     -84.6255729713149    0.04972566427175     -84.6255729713149    0.996572946250977    2.8474722342262      
38.7745368597287     0.996615168216092    2.81273471952054     0.049120168969578    -84.6434868342722    0.049120168969578    -84.6434868342722    0.996615168216092    2.81273471952054     
39.0181553189815     0.996656676210361    2.7781035059733      0.048516522742268    -84.6606681943774    0.048516522742268    -84.6606681943774    0.996656676210361    2.7781035059733      
39.2633044207254     0.996697475451372    2.74357732003264     0.047914704086064    -84.6770964632268    0.047914704086064    -84.6770964632268    0.996697475451372    2.74357732003264     
39.5099937819099     0.996737571061742    2.70915489113911     0.04731469156136     -84.6927500202185    0.04731469156136     -84.6927500202185    0.996737571061742    2.70915489113911     
39.7582330799075     0.996776968069702    2.67483495170115     0.046716463793491    -84.7076061522444    0.046716463793491    -84.7076061522444    0.996776968069702    2.67483495170115     
40.0080320528928     0.996815671409671    2.64061623707036     0.046119999473604    -84.7216409890945    0.046119999473604    -84.7216409890945    0.996815671409671    2.64061623707036     
40.2594005002252     0.99685368592281     2.60649748551671     0.04552527735961     -84.734829434217     0.04552527735961     -84.734829434217     0.99685368592281     2.60649748551671     
40.5123482828329     0.996891016357579    2.57247743820348     0.044932276277217    -84.7471450904388    0.044932276277217    -84.7471450904388    0.996891016357579    2.57247743820348     
40.7668853235997     0.996927667370271    2.53855483916204     0.044340975121068    -84.7585601802126    0.044340975121068    -84.7585601802126    0.996927667370271    2.53855483916204     
41.0230216077544     0.996963643525548    2.50472843526643     0.043751352855972    -84.7690454599191    0.043751352855972    -84.7690454599191    0.996963643525548    2.50472843526643     
41.2807671832627     0.996998949296954    2.47099697620788     0.04316338851826     -84.7785701276959    0.04316338851826     -84.7785701276959    0.996998949296954    2.47099697620788     
41.5401321612209     0.99703358906743     2.43735921446893     0.042577061217258    -84.7871017242206    0.042577061217258    -84.7871017242206    0.99703358906743     2.43735921446893     
41.8011267162528     0.997067567129802    2.40381390529772     0.041992350136898    -84.7946060258099    0.041992350136898    -84.7946060258099    0.997067567129802    2.40381390529772     
42.0637610869092     0.99710088768728     2.37035980668188     0.041409234537488    -84.8010469291329    0.041409234537488    -84.8010469291329    0.99710088768728     2.37035980668188     
42.3280455760687     0.997133554853927    2.33699567932231     0.040827693757629    -84.8063863267634    0.040827693757629    -84.8063863267634    0.997133554853927    2.33699567932231     
42.5939905513429     0.997165572655132    2.30372028660697     0.040247707216327    -84.8105839727084    0.040247707216327    -84.8105839727084    0.997165572655132    2.30372028660697     
42.861606445482      0.997196945028062    2.27053239458433     0.039669254415299    -84.8135973369627    0.039669254415299    -84.8135973369627    0.997196945028062    2.27053239458433     
43.1309037567852     0.99722767582211     2.23743077193687     0.039092314941493    -84.8153814480295    0.039092314941493    -84.8153814480295    0.99722767582211     2.23743077193687     
43.4018930495116     0.997257768799332    2.20441418995433     0.038516868469852    -84.815888722232     0.038516868469852    -84.815888722232     0.997257768799332    2.20441418995433     
43.6745849542951     0.997287227634869    2.17148142250701     0.037942894766337    -84.8150687785061    0.037942894766337    -84.8150687785061    0.997287227634869    2.17148142250701     
43.9489901685614     0.997316055917367    2.13863124601862     0.037370373691248    -84.8128682372144    0.037370373691248    -84.8128682372144    0.997316055917367    2.13863124601862     
44.2251194569477     0.997344257149382    2.10586243943953     0.03679928520286     -84.8092305013535    0.03679928520286     -84.8092305013535    0.997344257149382    2.10586243943953     
44.5029836517245     0.997371834747766    2.07317378421934     0.036229609361413    -84.8040955183309    0.036229609361413    -84.8040955183309    0.997371834747766    2.07317378421934     
44.7825936532214     0.997398792044064    2.04056406427998     0.035661326333504    -84.7973995202718    0.035661326333504    -84.7973995202718    0.997398792044064    2.04056406427998     
45.0639604302537     0.997425132284881    2.00803206598808     0.035094416396902    -84.7890747405683    0.035094416396902    -84.7890747405683    0.997425132284881    2.00803206598808     
45.3470950205536     0.997450858632248    1.97557657812777     0.034528859945854    -84.779049104098     0.034528859945854    -84.779049104098     0.997450858632248    1.97557657812777     
45.6320085312028     0.997475974163973    1.9431963918731      0.033964637496927    -84.767245888219     0.033964637496927    -84.767245888219     0.997475974163973    1.9431963918731      
45.9187121390679     0.997500481873992    1.91089030076053     0.033401729695441    -84.7535833512787    0.033401729695441    -84.7535833512787    0.997500481873992    1.91089030076053     
46.2072170912396     0.997524384672692    1.87865710066123     0.032840117322576    -84.7379743249509    0.032840117322576    -84.7379743249509    0.997524384672692    1.87865710066123     
46.4975347054732     0.997547685387245    1.84649558975349     0.032279781303218    -84.7203257662315    0.032279781303218    -84.7203257662315    0.997547685387245    1.84649558975349     
46.789676370633      0.997570386761914    1.81440456849485     0.031720702714631    -84.7005382643653    0.031720702714631    -84.7005382643653    0.997570386761914    1.81440456849485     
47.0836535471391     0.997592491458357    1.78238283959439     0.031162862796069    -84.6785054973323    0.031162862796069    -84.6785054973323    0.997592491458357    1.78238283959439     
47.3794777674165     0.997614002055927    1.75042920798472     0.03060624295942     -84.6541136317824    0.03060624295942     -84.6541136317824    0.997614002055927    1.75042920798472     
47.6771606363482     0.997634921051944    1.71854248079421     0.030050824801036    -84.6272406594419    0.030050824801036    -84.6272406594419    0.997634921051944    1.71854248079421     
47.9767138317299     0.997655250861975    1.68672146731901     0.029496590114876    -84.5977556620228    0.029496590114876    -84.5977556620228    0.997655250861975    1.68672146731901     
48.2781491047283     0.997674993820096    1.65496497899498     0.028943520907142    -84.5655179954982    0.028943520907142    -84.5655179954982    0.997674993820096    1.65496497899498     
48.5814782803423     0.99769415217914     1.62327182936966     0.028391599412601    -84.530376383256     0.028391599412601    -84.530376383256     0.99769415217914     1.62327182936966     
48.8867132578662     0.997712728110948    1.59164083407439     0.02784080811282     -84.4921679060542    0.02784080811282     -84.4921679060542    0.997712728110948    1.59164083407439     
49.1938660113576     0.997730723706593    1.560070810796       0.027291129756572    -84.4507168748422    0.027291129756572    -84.4507168748422    0.997730723706593    1.560070810796       
49.5029485901059     0.997748140976608    1.52856057924889     0.026742547382711    -84.4058335703244    0.026742547382711    -84.4058335703244    0.997748140976608    1.52856057924889     
49.813973119106      0.997764981851194    1.49710896114681     0.026195044345863    -84.3573128305611    0.026195044345863    -84.3573128305611    0.997764981851194    1.49710896114681     
50.1269517995333     0.997781248180428    1.4657147801748      0.025648604345352    -84.3049324648453    0.025648604345352    -84.3049324648453    0.997781248180428    1.4657147801748      
50.4418969092227     0.99779694173445     1.43437686196102     0.025103211457819    -84.2484514684718    0.025103211457819    -84.2484514684718    0.99779694173445     1.43437686196102     
50.7588208031501     0.99781206420365     1.40309403404868     0.024558850174091    -84.187608008691     0.024558850174091    -84.187608008691     0.99781206420365     1.40309403404868     
51.077735913917      0.997826617198837    1.37186512586784     0.024015505440968    -84.1221171469853    0.024015505440968    -84.1221171469853    0.997826617198837    1.37186512586784     
51.3986547522383     0.997840602251402    1.34068896870736     0.023473162708673    -84.0516682566118    0.023473162708673    -84.0516682566118    0.997840602251402    1.34068896870736     
51.7215899074333     0.997854020813471    1.30956439568676     0.02293180798489     -83.9759220869132    0.02293180798489     -83.9759220869132    0.997854020813471    1.30956439568676     
52.046554047919      0.99786687425805     1.27849024172815     0.022391427896463    -83.8945074168933    0.022391427896463    -83.8945074168933    0.99786687425805     1.27849024172815     
52.3735599217079     0.997879163879151    1.24746534352808     0.021852009760037    -83.8070172296448    0.021852009760037    -83.8070172296448    0.997879163879151    1.24746534352808     
52.7026203569072     0.997890890891922    1.21648853952966     0.02131354166318     -83.7130043259215    0.02131354166318     -83.7130043259215    0.997890890891922    1.21648853952966     
53.0337482622226     0.997902056432756    1.18555866989445     0.020776012557833    -83.6119762788861    0.020776012557833    -83.6119762788861    0.997902056432756    1.18555866989445     
53.3669566274646     0.997912661559391    1.1546745764744      0.020239412368299    -83.5033896120891    0.020239412368299    -83.5033896120891    0.997912661559391    1.1546745764744      
53.7022585240579     0.997922707251008    1.12383510278407     0.019703732116472    -83.386643058074     0.019703732116472    -83.386643058074     0.997922707251008    1.12383510278407     
54.0396671055545     0.99793219440831     1.09303909397265     0.019168964067573    -83.2610697244136    0.019168964067573    -83.2610697244136    0.99793219440831     1.09303909397265     
54.3791956081493     0.997941123853596    1.06228539679611     0.018635101900402    -83.1259279558478    0.018635101900402    -83.1259279558478    0.997941123853596    1.06228539679611     
54.7208573511997     0.997949496330824    1.03157285958938     0.018102140907008    -82.9803906333926    0.018102140907008    -82.9803906333926    0.997949496330824    1.03157285958938     
55.0646657377478     0.997957312505663    1.0009003322387      0.017570078227856    -82.8235325910426    0.017570078227856    -82.8235325910426    0.997957312505663    1.0009003322387      
55.4106342550465     0.997964572965536    0.970266666153857    0.017038913130026    -82.65431575431      0.017038913130026    -82.65431575431      0.997964572965536    0.970266666153857    
55.7587764750883     0.997971278219657    0.939670714240528    0.01650864733786     -82.4715715074175    0.01650864733786     -82.4715715074175    0.997971278219657    0.939670714240528    
56.1091060551378     0.997977428699045    0.909111330872841    0.015979285427896    -82.2739796708907    0.015979285427896    -82.2739796708907    0.997977428699045    0.909111330872841    
56.4616367382677     0.997983024756549    0.878587371865828    0.015450835303054    -82.0600433096465    0.015450835303054    -82.0600433096465    0.997983024756549    0.878587371865828    
56.8163823538977     0.99798806666684     0.848097694448048    0.014923308765158    -81.8280583812768    0.014923308765158    -81.8280583812768    0.99798806666684     0.848097694448048    
57.1733568183368     0.997992554626411    0.817641157234221    0.014396722210264    -81.5760769583189    0.014396722210264    -81.5760769583189    0.997992554626411    0.817641157234221    
57.5325741353297     0.997996488753559    0.787216620198175    0.013871097478444    -81.301862393676     0.013871097478444    -81.301862393676     0.997996488753559    0.787216620198175    
57.894048396606      0.997999869088357    0.756822944645484    0.013346462899287    -81.0028343124654    0.013346462899287    -81.0028343124654    0.997999869088357    0.756822944645484    
58.2577937824326     0.99800269559262     0.726458993186451    0.012822854587371    -80.6760006605195    0.012822854587371    -80.6760006605195    0.99800269559262     0.726458993186451    
58.6238245621706     0.998004968149854    0.696123629709368    0.012300318059727    -80.317873153997     0.012300318059727    -80.317873153997     0.998004968149854    0.696123629709368    
58.9921550948346     0.998006686565205    0.66581571935346     0.011778910271778    -79.9243612616388    0.011778910271778    -79.9243612616388    0.998006686565205    0.66581571935346     
59.3627998296563     0.998007850565388    0.635534128482301    0.011258702202498    -79.4906381735903    0.011258702202498    -79.4906381735903    0.998007850565388    0.635534128482301    
59.7357733066511     0.998008459798614    0.605277724657101    0.010739782167736    -79.0109698659206    0.010739782167736    -79.0109698659206    0.998008459798614    0.605277724657101    
60.1110901571886     0.998008513834501    0.575045376610254    0.010222260109787    -78.4784950567122    0.010222260109787    -78.4784950567122    0.998008513834501    0.575045376610254    
60.4887651045665     0.998008012163981    0.544835954218967    0.009706273211328    -77.8849391145239    0.009706273211328    -77.8849391145239    0.998008012163981    0.544835954218967    
60.8688129645885     0.998006954199189    0.514648328479006    0.009191993328963    -77.2202381339173    0.009191993328963    -77.2202381339173    0.998006954199189    0.514648328479006    
61.2512486461448     0.99800533927335     0.48448137147858     0.008679636961205    -76.4720393772843    0.008679636961205    -76.4720393772843    0.99800533927335     0.48448137147858     
61.6360871517979     0.998003166640652    0.454333956372369    0.008169478798527    -75.6250294590975    0.008169478798527    -75.6250294590975    0.998003166640652    0.454333956372369    
62.0233435783701     0.998000435476112    0.424204957355685    0.007661870416292    -74.6600194682562    0.007661870416292    -74.6600194682562    0.998000435476112    0.424204957355685    
62.4130331175369     0.997997144875423    0.394093249638782    0.007157266476065    -73.5526827190673    0.007157266476065    -73.5526827190673    0.997997144875423    0.394093249638782    
62.8051710564218     0.997993293854807    0.36399770942135     0.006656262085333    -72.2717898822387    0.006656262085333    -72.2717898822387    0.997993293854807    0.36399770942135     
63.1997727781968     0.997988881350842    0.333917213867077    0.006159647051474    -70.7767087557979    0.006159647051474    -70.7767087557979    0.997988881350842    0.333917213867077    
63.5968537626855     0.997983906220286    0.303850641078469    0.005668486207093    -69.01381933002      0.005668486207093    -69.01381933002      0.997983906220286    0.303850641078469    
63.9964295869705     0.997978367239896    0.273796870071776    0.005184240731105    -66.9113254102285    0.005184240731105    -66.9113254102285    0.997978367239896    0.273796870071776    
64.3985159260042     0.997972263106224    0.243754780752166    0.004708955031012    -64.3717203448375    0.004708955031012    -64.3717203448375    0.997972263106224    0.243754780752166    
64.8031285532245     0.997965592435418    0.213723253888931    0.004245549722471    -61.2609474293826    0.004245549722471    -61.2609474293826    0.997965592435418    0.213723253888931    
65.2102833411724     0.997958353762999    0.183701171091021    0.003798286354321    -57.3933774278147    0.003798286354321    -57.3933774278147    0.997958353762999    0.183701171091021    
65.6199962621155     0.997950545543641    0.153687414782694    0.003373502999832    -52.5131416301723    0.003373502999832    -52.5131416301723    0.997950545543641    0.153687414782694    
66.0322833886745     0.997942166150925    0.123680868179342    0.002980739679117    -46.2782394472044    0.002980739679117    -46.2782394472044    0.997942166150925    0.123680868179342    
66.4471608944534     0.997933213877106    0.093680415263648    0.002634275558       -38.2718178458082    0.002634275558       -38.2718178458082    0.997933213877106    0.093680415263648    
66.8646450546741     0.99792368693284     0.063684940761628    0.002354563511826    -28.1048671890033    0.002354563511826    -28.1048671890033    0.99792368693284     0.063684940761628    
67.2847522468151     0.997913583446931    0.03369333011933     0.00216753928249     -15.7081134156753    0.00216753928249     -15.7081134156753    0.997913583446931    0.03369333011933     
67.7074989512536     0.997902901466046    0.003704469479331    0.002098092893117    -1.7622116422949     0.002098092893117    -1.7622116422949     0.997902901466046    0.003704469479331    
68.1329017519121     0.997891638954428    -0.026282754342256   0.002157583655955    12.2489770939884     0.002157583655955    12.2489770939884     0.997891638954428    -0.026282754342256   
68.5609773369094     0.997879793793604    -0.056269453878742   0.002336177368109    24.8024421321267     0.002336177368109    24.8024421321267     0.997879793793604    -0.056269453878742   
68.9917424992145     0.997867363782069    -0.086256741035496   0.002609545096904    35.1469994016923     0.002609545096904    35.1469994016923     0.997867363782069    -0.086256741035496   
69.4252141373061     0.99785434663498     -0.116245727112325   0.002951493012044    43.3087486036858     0.002951493012044    43.3087486036858     0.99785434663498     -0.116245727112325   
69.8614092558349     0.997840739983813    -0.146237522825706   0.003341063217842    49.6652594488837     0.003341063217842    49.6652594488837     0.997840739983813    -0.146237522825706   
70.3003449662912     0.997826541376038    -0.176233238330686   0.003763536501048    54.6367300714995     0.003763536501048    54.6367300714995     0.997826541376038    -0.176233238330686   
70.7420384876757     0.997811748274766    -0.20623398324254    0.004209062525602    58.5720310789114     0.004209062525602    58.5720310789114     0.997811748274766    -0.20623398324254    
71.1865071471756     0.997796358058386    -0.236240866658256   0.004671099618646    61.733286550142      0.004671099618646    61.733286550142      0.997796358058386    -0.236240866658256   
71.6337683808436     0.997780368020204    -0.266254997177598   0.00514525496217     64.3108887196331     0.00514525496217     64.3108887196331     0.997780368020204    -0.266254997177598   
72.0838397342823     0.997763775368058    -0.296277482924039   0.005628522770304    66.4423085325653     0.005628522770304    66.4423085325653     0.997763775368058    -0.296277482924039   
72.5367388633324     0.997746577223931    -0.326309431565377   0.00611880244831     68.2274564264766     0.00611880244831     68.2274564264766     0.997746577223931    -0.326309431565377   
72.9924835347656     0.997728770623551    -0.356351950334033   0.006614594973088    69.7398213481976     0.006614594973088    69.7398213481976     0.997728770623551    -0.356351950334033   
73.451091626981      0.99771035251598     -0.386406146047053   0.007114809456758    71.0342255439351     0.007114809456758    71.0342255439351     0.99771035251598     -0.386406146047053   
73.9125811307071     0.997691319763198    -0.416473125125892   0.007618637757133    72.1521655724362     0.007618637757133    72.1521655724362     0.997691319763198    -0.416473125125892   
74.376970149707      0.997671669139666    -0.446553993615779   0.00812547158841     73.1255007394607     0.00812547158841     73.1255007394607     0.997671669139666    -0.446553993615779   
74.8442769014888     0.99765139733189     -0.476649857204918   0.008634846621692    73.9790233200386     0.008634846621692    73.9790233200386     0.99765139733189     -0.476649857204918   
75.3145197180206     0.997630500937965    -0.506761821243231   0.009146404048864    74.7322710378282     0.009146404048864    74.7322710378282     0.997630500937965    -0.506761821243231   
75.787717046449      0.997608976467122    -0.53689099076081    0.009659863663665    75.4008220236411     0.009659863663665    75.4008220236411     0.997608976467122    -0.53689099076081    
76.2638874498233     0.997586820339244    -0.567038470486153   0.01017500468155     75.9972324342397     0.01017500468155     75.9972324342397     0.997586820339244    -0.567038470486153   
76.7430496078232     0.997564028884396    -0.597205364863861   0.01069165185308     76.5317242799931     0.01069165185308     76.5317242799931     0.997564028884396    -0.597205364863861   
77.2252223174924     0.99754059834232     -0.627392778072181   0.011209665259649    77.0126964016212     0.011209665259649    77.0126964016212     0.99754059834232     -0.627392778072181   
77.710424493975      0.997516524861944    -0.657601814040116   0.011728932711477    77.447108640015      0.011728932711477    77.447108640015      0.997516524861944    -0.657601814040116   
78.1986751712582     0.997491804500858    -0.687833576464114   0.012249364011881    77.8407739539528     0.012249364011881    77.8407739539528     0.997491804500858    -0.687833576464114   
78.6899935029189     0.997466433224796    -0.718089168824492   0.012770886578444    78.1985829193095     0.012770886578444    78.1985829193095     0.997466433224796    -0.718089168824492   
79.1843987628746     0.997440406907101    -0.748369694401456   0.013293442063474    78.5246779946636     0.013293442063474    78.5246779946636     0.997440406907101    -0.748369694401456   
79.6819103461401     0.997413721328177    -0.778676256290693   0.013816983719145    78.8225900674868     0.013816983719145    78.8225900674868     0.997413721328177    -0.778676256290693   
80.1825477695883     0.997386372174937    -0.809009957418598   0.014341474323835    79.0953463899506     0.014341474323835    79.0953463899506     0.997386372174937    -0.809009957418598   
80.6863306727151     0.997358355040233    -0.839371900557172   0.014866884535745    79.3455566056715     0.014866884535745    79.3455566056715     0.997358355040233    -0.839371900557172   
81.1932788184109     0.997329665422286    -0.86976318833837    0.015393191575036    79.575481847503      0.015393191575036    79.575481847503      0.997329665422286    -0.86976318833837    
81.703412093735      0.997300298724091    -0.900184923268186   0.015920378160832    79.7870906430391     0.015920378160832    79.7870906430391     0.997300298724091    -0.900184923268186   
82.2167505106961     0.99727025025283     -0.930638207740161   0.01644843164764     79.9821044571283     0.01644843164764     79.9821044571283     0.99727025025283     -0.930638207740161   
82.7333142070377     0.997239515219253    -0.961124144048543   0.016977343319053    80.1620350321972     0.016977343319053    80.1620350321972     0.997239515219253    -0.961124144048543   
83.2531234470272     0.997208088737066    -0.991643834401275   0.017507107806438    80.3282151901603     0.017507107806438    80.3282151901603     0.997208088737066    -0.991643834401275   
83.7761986222517     0.997175965822303    -1.02219838093173    0.018037722607637    80.4818243869441     0.018037722607637    80.4818243869441     0.997175965822303    -1.02219838093173    
84.3025602524175     0.997143141392681    -1.05278888571098    0.018569187686246    80.6239100287733     0.018569187686246    80.6239100287733     0.997143141392681    -1.05278888571098    
84.8322289861553     0.997109610266958    -1.083416450759      0.019101505136218    80.7554053445559     0.019101505136218    80.7554053445559     0.997109610266958    -1.083416450759      
85.36522560183       0.997075367164266    -1.11408217805546    0.019634678899725    80.8771444437408     0.019634678899725    80.8771444437408     0.997075367164266    -1.11408217805546    
85.9015710083561     0.99704040670344     -1.14478716955017    0.020168714528717    80.9898750614696     0.020168714528717    80.9898750614696     0.99704040670344     -1.14478716955017    
86.4412862460173     0.997004723402343    -1.17553252717295    0.020703618982488    81.0942693935243     0.020703618982488    81.0942693935243     0.997004723402343    -1.17553252717295    
86.984392487293      0.996968311677167    -1.20631935284307    0.021239400455098    81.1909333457564     0.021239400455098    81.1909333457564     0.996968311677167    -1.20631935284307    
87.5309110376874     0.996931165841732    -1.23714874847796    0.021776068227632    81.2804144613235     0.021776068227632    81.2804144613235     0.996931165841732    -1.23714874847796    
88.080863336567      0.996893280106778    -1.2680218160017     0.022313632541259    81.3632087404027     0.022313632541259    81.3632087404027     0.996893280106778    -1.2680218160017     
88.6342709580001     0.996854648579235    -1.2989396573528     0.022852104487743    81.4397665282472     0.022852104487743    81.4397665282472     0.996854648579235    -1.2989396573528     
89.1911556116042     0.99681526526149     -1.32990337449144    0.023391495914687    81.5104976163367     0.023391495914687    81.5104976163367     0.99681526526149     -1.32990337449144    
89.7515391433969     0.996775124050646    -1.36091406940609    0.023931819343253    81.5757756763051     0.023931819343253    81.5757756763051     0.996775124050646    -1.36091406940609    
90.3154435366533     0.996734218737763    -1.39197284411983    0.024473087896482    81.6359421260193     0.024473087896482    81.6359421260193     0.996734218737763    -1.39197284411983    
90.8828909127685     0.996692543007095    -1.42308080069575    0.025015315236669    81.6913095106689     0.025015315236669    81.6913095106689     0.996692543007095    -1.42308080069575    
91.4539035321251     0.996650090435313    -1.45423904124204    0.025558515510473    81.7421644682213     0.025558515510473    81.7421644682213     0.996650090435313    -1.45423904124204    
92.0285037949666     0.996606854490714    -1.48544866791634    0.026102703300691    81.7887703375177     0.026102703300691    81.7887703375177     0.996606854490714    -1.48544866791634    
92.6067142422758     0.996562828532435    -1.51671078292942    0.026647893583755    81.8313694581505     0.026647893583755    81.8313694581505     0.996562828532435    -1.51671078292942    
93.1885575566598     0.996518005809632    -1.54802648854849    0.027194101692185    81.8701852037085     0.027194101692185    81.8701852037085     0.996518005809632    -1.54802648854849    
93.7740565632393     0.996472379460672    -1.57939688709956    0.027741343281339    81.9054237836929     0.027741343281339    81.9054237836929     0.996472379460672    -1.57939688709956    
94.3632342305437     0.996425942512302    -1.61082308096943    0.02828963429989     81.9372758441811     0.02828963429989     81.9372758441811     0.996425942512302    -1.61082308096943    
94.956113671413      0.996378687878808    -1.64230617260681    0.028838990963556    81.9659178929312     0.028838990963556    81.9659178929312     0.996378687878808    -1.64230617260681    
95.5527181439036     0.996330608361167    -1.67384726452302    0.029389429731677    81.9915135709491     0.029389429731677    81.9915135709491     0.996330608361167    -1.67384726452302    
96.1530710522013     0.99628169664619     -1.70544745929162    0.029940967286262    82.0142147894408     0.029940967286262    82.0142147894408     0.99628169664619     -1.70544745929162    
96.7571959475394     0.996231945305649    -1.73710785954781    0.030493620513249    82.0341627484624     0.030493620513249    82.0341627484624     0.996231945305649    -1.73710785954781    
97.365116529122      0.996181346795399    -1.76882956798679    0.031047406485655    82.0514888513579     0.031047406485655    82.0514888513579     0.996181346795399    -1.76882956798679    
97.9768566450546     0.996129893454487    -1.80061368736152    0.031602342448446    82.0663155271974     0.031602342448446    82.0663155271974     0.996129893454487    -1.80061368736152    
98.5924402932785     0.99607757750425     -1.83246132047974    0.032158445804889    82.0787569718178     0.032158445804889    82.0787569718178     0.99607757750425     -1.83246132047974    
99.2118916225134     0.99602439104741     -1.86437357020032    0.032715734104234    82.0889198167005     0.032715734104234    82.0889198167005     0.99602439104741     -1.86437357020032    
99.8352349332039     0.995970326067145    -1.89635153942862    0.033274225030572    82.0969037337397     0.033274225030572    82.0969037337397     0.995970326067145    -1.89635153942862    
100.462494678473     0.995915374426166    -1.9283963311114     0.033833936392733    82.1028019829493     0.033833936392733    82.1028019829493     0.995915374426166    -1.9283963311114     
101.093695465082     0.995859527865769    -1.96050904823067    0.034394886115124    82.1067019092833     0.034394886115124    82.1067019092833     0.995859527865769    -1.96050904823067    
101.728862054395     0.995802778004891    -1.99269079379689    0.034957092229383    82.1086853939941     0.034957092229383    82.1086853939941     0.995802778004891    -1.99269079379689    
102.36801936335      0.995745116339142    -2.02494267084135    0.03552057286678     82.1088292653035     0.03552057286678     82.1088292653035     0.995745116339142    -2.02494267084135    
103.011192465437     0.995686534239842    -2.05726578240757    0.036085346251279    82.1072056725973     0.036085346251279    82.1072056725973     0.995686534239842    -2.05726578240757    
103.658406591682     0.995627022953034    -2.08966123154213    0.036651430693197    82.103882427863      0.036651430693197    82.103882427863      0.995627022953034    -2.08966123154213    
104.309687131636     0.995566573598494    -2.12213012128436    0.037218844583381    82.0989233176644     0.037218844583381    82.0989233176644     0.995566573598494    -2.12213012128436    
104.965059634372     0.995505177168738    -2.15467355465539    0.037787606387881    82.0923883885748     0.037787606387881    82.0923883885748     0.995505177168738    -2.15467355465539    
105.624549809484     0.995442824528003    -2.18729263464606    0.038357734643034    82.0843342086633     0.038357734643034    82.0843342086633     0.995442824528003    -2.18729263464606    
106.2881835281       0.995379506411234    -2.21998846420422    0.038929247950949    82.0748141073417     0.038929247950949    82.0748141073417     0.995379506411234    -2.21998846420422    
106.955986823896     0.99531521342305     -2.25276214622087    0.039502164975327    82.0638783956339     0.039502164975327    82.0638783956339     0.99531521342305     -2.25276214622087    
107.627985894115     0.995249936036713    -2.28561478351546    0.040076504437607    82.0515745687025     0.040076504437607    82.0515745687025     0.995249936036713    -2.28561478351546    
108.304207100596     0.995183664593072    -2.3185474788203     0.04065228511338     82.0379474922789     0.04065228511338     82.0379474922789     0.995183664593072    -2.3185474788203     
108.984676970807     0.995116389299513    -2.35156133476382    0.041229525829077    82.0230395744659     0.041229525829077    82.0230395744659     0.995116389299513    -2.35156133476382    
109.669422198889     0.995048100228891    -2.38465745385303    0.041808245458868    82.0068909242364     0.041808245458868    82.0068909242364     0.995048100228891    -2.38465745385303    
110.3584696467       0.99497878731845     -2.41783693845495    0.042388462921786    81.9895394978117     0.042388462921786    81.9895394978117     0.99497878731845     -2.41783693845495    
111.051846344869     0.994908440368748    -2.45110089077677    0.042970197179029    81.9710212339871     0.042970197179029    81.9710212339871     0.994908440368748    -2.45110089077677    
111.749579493858     0.994837049042556    -2.48445041284548    0.043553467231441    81.9513701793657     0.043553467231441    81.9513701793657     0.994837049042556    -2.48445041284548    
112.451696465027     0.994764602863761    -2.51788660648591    0.044138292117138    81.9306186043672     0.044138292117138    81.9306186043672     0.994764602863761    -2.51788660648591    
113.158224801711     0.994691091216254    -2.55141057329792    0.044724690909282    81.9087971107944     0.044724690909282    81.9087971107944     0.994691091216254    -2.55141057329792    
113.869192220296     0.994616503342812    -2.58502341463273    0.045312682713979    81.8859347316645     0.045312682713979    81.8859347316645     0.994616503342812    -2.58502341463273    
114.584626611309     0.994540828343969    -2.61872623156765    0.04590228666829     81.8620590239474     0.04590228666829     81.8620590239474     0.994540828343969    -2.61872623156765    
115.304556040514     0.994464055176882    -2.65252012488014    0.046493521938343    81.8371961547908     0.046493521938343    81.8371961547908     0.994464055176882    -2.65252012488014    
116.029008750008     0.994386172654188    -2.68640619502045    0.047086407717548    81.8113709817599     0.047086407717548    81.8113709817599     0.994386172654188    -2.68640619502045    
116.758013159334     0.994307169442849    -2.72038554208312    0.047680963224883    81.7846071275711     0.047680963224883    81.7846071275711     0.994307169442849    -2.72038554208312    
117.491597866592     0.994227034062998    -2.7544592657775     0.048277207703269    81.7569270497536     0.048277207703269    81.7569270497536     0.994227034062998    -2.7544592657775     
118.229791649563     0.994145754886766    -2.7886284653968     0.048875160418       81.7283521056393     0.048875160418       81.7283521056393     0.994145754886766    -2.7886284653968     
118.972623466836     0.99406332013711     -2.82289423978599    0.049474840655249    81.6989026130391     0.049474840655249    81.6989026130391     0.99406332013711     -2.82289423978599    
119.720122458948     0.99397971788663     -2.85725768730865    0.050076267720615    81.6685979069377     0.050076267720615    81.6685979069377     0.99397971788663     -2.85725768730865    
120.472317949523     0.993894936056384    -2.89171990581222    0.050679460937729    81.6374563925086     0.050679460937729    81.6374563925086     0.993894936056384    -2.89171990581222    
121.229239446423     0.993808962414681    -2.92628199259227    0.0512844396469      81.6054955947246     0.0512844396469      81.6054955947246     0.993808962414681    -2.92628199259227    
121.990916642908     0.99372178457589     -2.96094504435519    0.0518912232038      81.5727322048154     0.0518912232038      81.5727322048154     0.99372178457589     -2.96094504435519    
122.757379418799     0.993633389999225    -2.99571015717986    0.052499830978182    81.539182123806      0.052499830978182    81.539182123806      0.993633389999225    -2.99571015717986    
123.52865784165      0.99354376598752     -3.03057842647766    0.053110282352634    81.5048605033456     0.053110282352634    81.5048605033456     0.99354376598752     -3.03057842647766    
124.304782167926     0.993452899686025    -3.06555094695127    0.053722596721348    81.4697817840229     0.053722596721348    81.4697817840229     0.993452899686025    -3.06555094695127    
125.085782844197     0.993360778081157    -3.10062881255216    0.054336793488925    81.4339597313468     0.054336793488925    81.4339597313468     0.993360778081157    -3.10062881255216    
125.871690508321     0.993267387999281    -3.13581311643629    0.054952892069187    81.397407469557      0.054952892069187    81.397407469557      0.993267387999281    -3.13581311643629    
126.662535990657     0.993172716105459    -3.17110495091899    0.055570911884016    81.3601375134143     0.055570911884016    81.3601375134143     0.993172716105459    -3.17110495091899    
127.458350315267     0.993076748902215    -3.20650540742767    0.056190872362195    81.3221617981138     0.056190872362195    81.3221617981138     0.993076748902215    -3.20650540742767    
128.259164701137     0.99297947272827     -3.24201557645365    0.056812792938272    81.283491707445      0.056812792938272    81.283491707445      0.99297947272827     -3.24201557645365    
129.065010563399     0.992880873757301    -3.27763654750207    0.057436693051417    81.2441381003214     0.057436693051417    81.2441381003214     0.992880873757301    -3.27763654750207    
129.875919514566     0.992780937996669    -3.31336940904051    0.058062592144303    81.2041113357866     0.058062592144303    81.2041113357866     0.992780937996669    -3.31336940904051    
130.69192336577      0.992679651286162    -3.34921524844582    0.05869050966197     81.1634212965998     0.05869050966197     81.1634212965998     0.992679651286162    -3.34921524844582    
131.513054128011     0.992576999296725    -3.38517515194965    0.059320465050708    81.1220774114928     0.059320465050708    81.1220774114928     0.992576999296725    -3.38517515194965    
132.339344013412     0.99247296752918     -3.42125020458223    0.059952477756933    81.0800886761865     0.059952477756933    81.0800886761865     0.99247296752918     -3.42125020458223    
133.170825436484     0.992367541312962    -3.4574414901144     0.060586567226053    81.0374636732474     0.060586567226053    81.0374636732474     0.992367541312962    -3.4574414901144     
134.007531015396     0.992260705804827    -3.49375009099822    0.061222752901344    80.9942105908561     0.061222752901344    80.9942105908561     0.992260705804827    -3.49375009099822    
134.849493573256     0.992152445987581    -3.53017708830565    0.061861054222808    80.9503372405606     0.061861054222808    80.9503372405606     0.992152445987581    -3.53017708830565    
135.696746139397     0.992042746668786    -3.5667235616658     0.062501490626033    80.9058510740747     0.062501490626033    80.9058510740747     0.992042746668786    -3.5667235616658     
136.549321950675     0.99193159247948     -3.60339058920029    0.063144081541038    80.8607591991839     0.063144081541038    80.8607591991839     0.99193159247948     -3.60339058920029    
137.40725445277      0.991818967872881    -3.64017924745667    0.063788846391111    80.8150683948128     0.063788846391111    80.8150683948128     0.991818967872881    -3.64017924745667    
138.2705773015       0.991704857123101    -3.67709061134046    0.064435804591632    80.7687851253048     0.064435804591632    80.7687851253048     0.991704857123101    -3.67709061134046    
139.139324364142     0.991589244323856    -3.71412575404507    0.065084975548891    80.7219155539643     0.065084975548891    80.7219155539643     0.991589244323856    -3.71412575404507    
140.013529720758     0.991472113387166    -3.75128574697998    0.065736378658884    80.6744655559031     0.065736378658884    80.6744655559031     0.991472113387166    -3.75128574697998    
140.893227665533     0.99135344804207     -3.78857165969698    0.066390033306096    80.626440730235      0.066390033306096    80.626440730235      0.99135344804207     -3.78857165969698    
141.778452708123     0.991233231833324    -3.82598455981474    0.067045958862274    80.5778464116558     0.067045958862274    80.5778464116558     0.991233231833324    -3.82598455981474    
142.669239575003     0.991111448120118    -3.86352551294114    0.067704174685174    80.5286876814459     0.067704174685174    80.5286876814459     0.991111448120118    -3.86352551294114    
143.565623210835     0.990988080074775    -3.90119558259389    0.068364700117297    80.4789693779281     0.068364700117297    80.4789693779281     0.990988080074775    -3.90119558259389    
144.467638779837     0.990863110681468    -3.93899583011902    0.069027554484599    80.4286961064136     0.069027554484599    80.4286961064136     0.990863110681468    -3.93899583011902    
145.375321667159     0.990736522734923    -3.97692731460756    0.069692757095191    80.3778722486645     0.069692757095191    80.3778722486645     0.990736522734923    -3.97692731460756    
146.288707480278     0.990608298839138    -4.0149910928099     0.070360327238008    80.3265019719008     0.070360327238008    80.3265019719008     0.990608298839138    -4.0149910928099     
147.207832050389     0.990478421406097    -4.05318821904829    0.071030284181457    80.2745892373776     0.071030284181457    80.2745892373776     0.990478421406097    -4.05318821904829    
148.132731433812     0.990346872654485    -4.09151974512729    0.071702647172058    80.2221378085572     0.071702647172058    80.2221378085572     0.990346872654485    -4.09151974512729    
149.063441913407     0.990213634608414    -4.12998672024193    0.072377435433035    80.1691512588974     0.072377435433035    80.1691512588974     0.990213634608414    -4.12998672024193    
150                  0.990078689096147    -4.16859019088376    0.073054668162909    80.1156329792793     0.073054668162909    80.1156329792793     0.990078689096147    -4.16859019088376    
