! Mini-Circuits								
! S2P DATA File Format								
! Type: BAND PASS FILTER								
! Model: RBP-188+								
! All S Parameters are in dB deg format								
! TEST CONDITIONS: INPUT POWER = 0 dBm @ Temperature = -40deg C								
! 500 Frequency points
!
# MHz S dB R 50
!Frequency     S11 dB   S11 DEG  S21 dB   S21 DEG  S12 dB   S12 DEG  S22 dB   S22 DEG  
   1.0000      0     -0.68     -86.52     177.93     -88.61     -9.93     0     -0.67     
   2.0000      0     -1.32     -94     -97.9     -89.31     -164.88     0     -1.31     
   3.0000      0     -1.97     -85.16     -123.64     -93.77     167.9     0     -1.96     
   4.0000      0     -2.62     -92.6     -111.19     -89.8     143.28     0     -2.62     
   5.0000      0     -3.29     -89.04     -154.6     -84.64     -23.21     0     -3.28     
   6.0000      0     -3.94     -92.16     -14.07     -87.35     -31.07     0     -3.94     
   7.0000      0     -4.59     -100.67     -108.92     -88.21     136.01     0     -4.59     
   8.0000      0     -5.25     -96.65     -59.93     -89.09     -13.32     0     -5.25     
   9.0000      0     -5.9     -88.3     -151.76     -91.32     -125.82     0     -5.91     
  10.0000      0     -6.57     -120.55     -104.82     -103.12     -7.19     0     -6.57     
  12.0000      0     -7.9     -100.01     26.52     -98.72     146.52     0     -7.89     
  14.0000      0     -9.22     -101.77     -7.21     -98.8     171.95     0     -9.21     
  16.0000      0     -10.55     -116.94     8.76     -106.27     -65.93     0     -10.54     
  18.0000      0     -11.89     -95.01     95.4     -109.01     146.95     0     -11.88     
  20.0000      0     -13.25     -107.4     144.35     -100.55     -26.95     0     -13.24     
  22.0000      0     -14.61     -105.07     20.42     -102.34     -132.59     -0.01     -14.6     
  24.0000      -0.01     -15.98     -92.05     -122.97     -88.2     108.11     -0.01     -15.97     
  26.0000      -0.01     -17.37     -98.47     105.9     -96.54     103.89     -0.01     -17.36     
  28.0000      -0.01     -18.77     -99.12     24.82     -98.79     86.03     -0.01     -18.75     
  30.0000      -0.01     -20.18     -97.81     64.58     -91.71     49.96     -0.01     -20.16     
  32.0000      -0.01     -21.61     -92.9     54.1     -95.2     77.65     -0.01     -21.59     
  34.0000      -0.01     -23.06     -90.06     64.03     -89.76     50.58     -0.01     -23.03     
  36.0000      -0.02     -24.52     -89.13     54.52     -87.25     60.04     -0.02     -24.49     
  38.0000      -0.02     -26     -84.06     56.99     -84.98     63.55     -0.02     -25.97     
  40.0000      -0.02     -27.51     -81.85     50.58     -82.4     55.61     -0.02     -27.48     
  42.0000      -0.02     -29.05     -79.13     56.45     -78.71     52.67     -0.02     -29.02     
  44.0000      -0.03     -30.61     -76.66     54.32     -76.56     54.6     -0.02     -30.59     
  46.0000      -0.03     -32.2     -74.11     52.24     -74.14     50.75     -0.03     -32.18     
  48.0000      -0.03     -33.82     -71.98     48.93     -71.87     50.15     -0.03     -33.8     
  50.0000      -0.04     -35.48     -69.65     47.89     -69.7     46.17     -0.03     -35.45     
  52.0000      -0.04     -37.17     -67.62     46.55     -67.65     45.09     -0.04     -37.14     
  54.0000      -0.04     -38.91     -65.55     44.71     -65.73     44.26     -0.04     -38.87     
  56.0000      -0.05     -40.68     -63.65     42.37     -63.58     42.5     -0.05     -40.64     
  58.0000      -0.06     -42.51     -61.61     40.93     -61.59     40.88     -0.05     -42.46     
  60.0000      -0.06     -44.38     -59.74     38.96     -59.69     38.84     -0.06     -44.31     
  62.0000      -0.07     -46.3     -57.79     37.08     -57.83     36.88     -0.06     -46.23     
  64.0000      -0.07     -48.29     -55.92     34.91     -55.9     34.97     -0.07     -48.2     
  66.0000      -0.08     -50.33     -54.1     32.74     -54.12     32.77     -0.08     -50.23     
  68.0000      -0.09     -52.43     -52.25     30.56     -52.29     30.63     -0.09     -52.34     
  70.0000      -0.1     -54.63     -50.48     28.36     -50.5     28.49     -0.1     -54.52     
  72.0000      -0.11     -56.89     -48.72     26.02     -48.71     25.99     -0.1     -56.77     
  74.0000      -0.12     -59.24     -46.96     23.55     -46.96     23.58     -0.11     -59.1     
  76.0000      -0.13     -61.68     -45.21     20.95     -45.21     21     -0.12     -61.54     
  78.0000      -0.14     -64.23     -43.46     18.34     -43.47     18.32     -0.14     -64.06     
  80.0000      -0.16     -66.89     -41.73     15.5     -41.72     15.5     -0.15     -66.71     
  82.0000      -0.17     -69.68     -39.99     12.53     -39.99     12.57     -0.17     -69.48     
  84.0000      -0.19     -72.6     -38.25     9.45     -38.25     9.47     -0.18     -72.38     
  86.0000      -0.21     -75.68     -36.51     6.17     -36.51     6.17     -0.2     -75.44     
  88.0000      -0.24     -78.93     -34.76     2.74     -34.76     2.76     -0.23     -78.66     
  90.0000      -0.27     -82.38     -33.01     -0.91     -33.01     -0.89     -0.26     -82.08     
  92.0000      -0.3     -86.04     -31.24     -4.77     -31.24     -4.79     -0.29     -85.71     
  94.0000      -0.34     -89.95     -29.46     -8.93     -29.46     -8.92     -0.32     -89.58     
  96.0000      -0.39     -94.14     -27.67     -13.38     -27.67     -13.37     -0.37     -93.72     
  98.0000      -0.44     -98.64     -25.86     -18.16     -25.86     -18.17     -0.42     -98.17     
 100.0000      -0.5     -103.52     -24.03     -23.34     -24.03     -23.33     -0.48     -102.99     
 102.0000      -0.58     -108.81     -22.18     -28.97     -22.18     -28.97     -0.56     -108.23     
 104.0000      -0.68     -114.59     -20.31     -35.12     -20.31     -35.11     -0.65     -113.95     
 106.0000      -0.8     -120.94     -18.43     -41.89     -18.43     -41.88     -0.77     -120.25     
 108.0000      -0.96     -127.95     -16.53     -49.36     -16.54     -49.35     -0.93     -127.2     
 110.0000      -1.17     -135.74     -14.64     -57.66     -14.64     -57.64     -1.14     -134.94     
 112.0000      -1.45     -144.42     -12.76     -66.91     -12.76     -66.88     -1.42     -143.59     
 114.0000      -1.84     -154.11     -10.92     -77.21     -10.92     -77.17     -1.8     -153.25     
 116.0000      -2.37     -164.89     -9.16     -88.64     -9.16     -88.62     -2.33     -164.05     
 118.0000      -3.09     -176.78     -7.53     -101.24     -7.53     -101.22     -3.07     -176     
 119.0000      -3.54     176.91     -6.77     -107.93     -6.77     -107.93     -3.53     177.61     
 120.0000      -4.06     170.37     -6.07     -114.85     -6.07     -114.84     -4.07     170.99     
 121.0000      -4.66     163.67     -5.42     -121.96     -5.42     -121.95     -4.68     164.15     
 122.0000      -5.34     156.85     -4.83     -129.2     -4.83     -129.19     -5.37     157.15     
 123.0000      -6.1     149.95     -4.31     -136.5     -4.31     -136.5     -6.15     150.03     
 124.0000      -6.94     143.05     -3.85     -143.83     -3.84     -143.83     -7.02     142.82     
 125.0000      -7.85     136.22     -3.45     -151.12     -3.44     -151.12     -7.98     135.56     
 126.0000      -8.84     129.45     -3.1     -158.32     -3.1     -158.32     -9.01     128.28     
 127.0000      -9.89     122.8     -2.81     -165.37     -2.81     -165.38     -10.12     120.97     
 128.0000      -10.99     116.32     -2.56     -172.27     -2.56     -172.28     -11.29     113.63     
 129.0000      -12.13     109.99     -2.36     -178.99     -2.36     -178.99     -12.51     106.21     
 130.0000      -13.3     103.81     -2.19     174.5     -2.19     174.5     -13.78     98.68     
 131.0000      -14.48     97.79     -2.05     168.18     -2.05     168.18     -15.07     90.94     
 132.0000      -15.65     91.86     -1.93     162.07     -1.93     162.07     -16.37     82.94     
 133.0000      -16.8     86.09     -1.83     156.14     -1.83     156.14     -17.66     74.58     
 134.0000      -17.91     80.34     -1.75     150.4     -1.75     150.41     -18.89     65.72     
 135.0000      -18.95     74.67     -1.67     144.83     -1.68     144.84     -20.04     56.5     
 136.0000      -19.91     69.07     -1.61     139.43     -1.62     139.44     -21.06     46.9     
 137.0000      -20.77     63.51     -1.56     134.17     -1.56     134.18     -21.94     37.02     
 138.0000      -21.52     58.06     -1.52     129.06     -1.52     129.07     -22.63     27.11     
 139.0000      -22.16     52.7     -1.48     124.07     -1.48     124.09     -23.15     17.5     
 140.0000      -22.69     47.42     -1.44     119.21     -1.45     119.22     -23.5     8.4     
 141.0000      -23.08     42.44     -1.41     114.46     -1.41     114.47     -23.71     -0.15     
 142.0000      -23.4     37.53     -1.39     109.81     -1.39     109.82     -23.81     -7.96     
 143.0000      -23.63     33.04     -1.36     105.25     -1.36     105.27     -23.85     -15.04     
 144.0000      -23.8     28.82     -1.34     100.8     -1.34     100.8     -23.86     -21.57     
 145.0000      -23.91     24.75     -1.32     96.41     -1.32     96.42     -23.86     -27.43     
 146.0000      -23.99     20.98     -1.3     92.11     -1.3     92.12     -23.86     -32.9     
 147.0000      -24.06     17.62     -1.28     87.88     -1.28     87.89     -23.86     -38.14     
 148.0000      -24.13     14.49     -1.26     83.73     -1.27     83.74     -23.91     -43.09     
 149.0000      -24.22     11.76     -1.25     79.63     -1.25     79.64     -23.99     -47.82     
 150.0000      -24.34     9.08     -1.24     75.6     -1.24     75.61     -24.12     -52.54     
 151.0000      -24.48     6.7     -1.22     71.62     -1.22     71.63     -24.28     -57.2     
 152.0000      -24.64     4.91     -1.21     67.7     -1.21     67.71     -24.51     -61.94     
 153.0000      -24.85     3.39     -1.2     63.82     -1.2     63.84     -24.79     -66.9     
 154.0000      -25.11     2.4     -1.19     60     -1.19     60.01     -25.14     -71.95     
 155.0000      -25.4     1.87     -1.18     56.22     -1.18     56.23     -25.55     -77.27     
 156.0000      -25.72     1.83     -1.17     52.48     -1.17     52.49     -26.06     -83.2     
 157.0000      -26.05     2.54     -1.16     48.78     -1.16     48.79     -26.63     -89.53     
 158.0000      -26.42     4     -1.15     45.12     -1.15     45.13     -27.29     -96.81     
 159.0000      -26.79     6.42     -1.14     41.5     -1.14     41.51     -28.02     -104.8     
 160.0000      -27.08     9.57     -1.13     37.91     -1.14     37.92     -28.79     -114.24     
 161.0000      -27.29     13.73     -1.13     34.35     -1.13     34.36     -29.54     -125.52     
 162.0000      -27.34     18.54     -1.12     30.83     -1.12     30.84     -30.18     -138.74     
 163.0000      -27.25     23.72     -1.12     27.34     -1.12     27.34     -30.58     -153.44     
 164.0000      -26.99     28.97     -1.11     23.87     -1.11     23.88     -30.63     -169.65     
 165.0000      -26.55     34.06     -1.11     20.44     -1.11     20.44     -30.18     174.17     
 166.0000      -25.95     38.3     -1.11     17.03     -1.11     17.03     -29.38     159.68     
 167.0000      -25.27     41.7     -1.1     13.65     -1.11     13.65     -28.36     147.16     
 168.0000      -24.58     44.6     -1.1     10.29     -1.1     10.3     -27.25     136.45     
 169.0000      -23.83     46.28     -1.1     6.96     -1.1     6.96     -26.16     127.46     
 170.0000      -23.08     47.48     -1.1     3.66     -1.1     3.66     -25.11     119.64     
 171.0000      -22.37     48.04     -1.1     0.38     -1.1     0.38     -24.12     112.92     
 172.0000      -21.69     48.12     -1.11     -2.88     -1.11     -2.88     -23.21     106.92     
 173.0000      -21.04     47.84     -1.11     -6.12     -1.11     -6.11     -22.38     101.46     
 174.0000      -20.45     47.07     -1.11     -9.33     -1.11     -9.33     -21.62     96.59     
 175.0000      -19.88     46.01     -1.12     -12.52     -1.12     -12.52     -20.92     91.96     
 176.0000      -19.36     44.78     -1.12     -15.68     -1.12     -15.69     -20.29     87.72     
 177.0000      -18.87     43.3     -1.13     -18.83     -1.13     -18.84     -19.71     83.64     
 178.0000      -18.42     41.73     -1.13     -21.96     -1.13     -21.97     -19.18     79.74     
 179.0000      -18.01     39.92     -1.14     -25.07     -1.14     -25.07     -18.71     76.06     
 180.0000      -17.64     38.06     -1.14     -28.16     -1.14     -28.16     -18.27     72.54     
 181.0000      -17.31     36.09     -1.15     -31.23     -1.15     -31.23     -17.88     69.09     
 182.0000      -17.01     33.98     -1.16     -34.28     -1.16     -34.29     -17.53     65.78     
 183.0000      -16.73     31.81     -1.16     -37.32     -1.16     -37.32     -17.22     62.54     
 184.0000      -16.5     29.61     -1.17     -40.34     -1.17     -40.35     -16.93     59.43     
 185.0000      -16.28     27.32     -1.17     -43.35     -1.17     -43.36     -16.69     56.37     
 186.0000      -16.1     24.97     -1.18     -46.35     -1.18     -46.35     -16.47     53.38     
 187.0000      -15.95     22.57     -1.18     -49.34     -1.18     -49.34     -16.3     50.49     
 188.0000      -15.83     20.12     -1.18     -52.31     -1.18     -52.31     -16.15     47.61     
 189.0000      -15.74     17.63     -1.19     -55.27     -1.19     -55.27     -16.02     44.83     
 190.0000      -15.67     15.09     -1.19     -58.23     -1.19     -58.23     -15.93     42.13     
 191.0000      -15.63     12.51     -1.19     -61.17     -1.19     -61.17     -15.86     39.44     
 192.0000      -15.62     9.88     -1.19     -64.11     -1.19     -64.11     -15.83     36.85     
 193.0000      -15.64     7.19     -1.19     -67.05     -1.19     -67.05     -15.82     34.28     
 194.0000      -15.68     4.5     -1.19     -69.98     -1.19     -69.98     -15.84     31.86     
 195.0000      -15.76     1.76     -1.19     -72.91     -1.19     -72.91     -15.89     29.43     
 196.0000      -15.86     -1.06     -1.19     -75.83     -1.19     -75.83     -15.96     27.09     
 197.0000      -16     -3.94     -1.19     -78.75     -1.19     -78.76     -16.06     24.81     
 198.0000      -16.17     -6.81     -1.19     -81.68     -1.19     -81.68     -16.2     22.65     
 199.0000      -16.37     -9.79     -1.18     -84.61     -1.19     -84.61     -16.36     20.53     
 200.0000      -16.61     -12.85     -1.18     -87.54     -1.18     -87.54     -16.55     18.52     
 201.0000      -16.87     -15.98     -1.18     -90.47     -1.18     -90.47     -16.78     16.62     
 202.0000      -17.19     -19.2     -1.18     -93.41     -1.18     -93.4     -17.04     14.83     
 203.0000      -17.54     -22.52     -1.17     -96.35     -1.17     -96.35     -17.33     13.21     
 204.0000      -17.94     -25.93     -1.17     -99.3     -1.17     -99.29     -17.66     11.76     
 205.0000      -18.39     -29.55     -1.17     -102.25     -1.17     -102.25     -18.02     10.46     
 206.0000      -18.89     -33.26     -1.16     -105.22     -1.17     -105.21     -18.41     9.39     
 207.0000      -19.45     -37.31     -1.16     -108.19     -1.16     -108.18     -18.85     8.61     
 208.0000      -20.07     -41.56     -1.16     -111.16     -1.16     -111.16     -19.32     8.13     
 209.0000      -20.76     -46.18     -1.16     -114.15     -1.16     -114.14     -19.81     8.07     
 210.0000      -21.54     -51.17     -1.16     -117.15     -1.16     -117.14     -20.34     8.3     
 211.0000      -22.4     -56.79     -1.16     -120.15     -1.16     -120.14     -20.9     9.05     
 212.0000      -23.33     -63.3     -1.16     -123.16     -1.16     -123.15     -21.47     10.38     
 213.0000      -24.35     -70.8     -1.16     -126.18     -1.17     -126.17     -22.01     12.42     
 214.0000      -25.42     -79.58     -1.17     -129.22     -1.17     -129.2     -22.54     15.18     
 215.0000      -26.52     -90.29     -1.17     -132.26     -1.17     -132.25     -23.01     18.55     
 216.0000      -27.5     -103.45     -1.18     -135.31     -1.18     -135.3     -23.39     22.51     
 217.0000      -28.24     -118.91     -1.19     -138.37     -1.19     -138.36     -23.65     27.14     
 218.0000      -28.48     -135.46     -1.19     -141.45     -1.19     -141.43     -23.79     31.66     
 219.0000      -28.22     -151.95     -1.2     -144.53     -1.2     -144.51     -23.77     36.14     
 220.0000      -27.51     -166.47     -1.21     -147.62     -1.21     -147.61     -23.59     40.43     
 221.0000      -26.6     -178.72     -1.22     -150.73     -1.22     -150.71     -23.33     43.94     
 222.0000      -25.62     171.16     -1.23     -153.85     -1.23     -153.83     -23.01     46.79     
 223.0000      -24.67     163.07     -1.25     -156.98     -1.25     -156.96     -22.65     48.98     
 224.0000      -23.78     156.17     -1.26     -160.12     -1.26     -160.1     -22.26     50.29     
 225.0000      -22.99     150.57     -1.27     -163.28     -1.27     -163.26     -21.94     50.89     
 226.0000      -22.28     145.8     -1.29     -166.46     -1.29     -166.44     -21.63     50.96     
 227.0000      -21.67     141.73     -1.3     -169.65     -1.3     -169.64     -21.37     50.47     
 228.0000      -21.16     138.18     -1.32     -172.86     -1.32     -172.85     -21.18     49.38     
 229.0000      -20.7     135.13     -1.33     -176.1     -1.33     -176.08     -21.04     47.89     
 230.0000      -20.33     132.52     -1.35     -179.35     -1.35     -179.33     -20.99     45.93     
 231.0000      -20.02     130.42     -1.37     177.36     -1.37     177.38     -21.02     43.58     
 232.0000      -19.77     128.78     -1.38     174.05     -1.38     174.06     -21.14     40.72     
 233.0000      -19.58     127.6     -1.4     170.71     -1.4     170.72     -21.38     37.43     
 234.0000      -19.45     126.97     -1.42     167.32     -1.42     167.34     -21.74     33.47     
 235.0000      -19.33     126.91     -1.44     163.9     -1.44     163.91     -22.25     28.86     
 236.0000      -19.25     127.49     -1.46     160.43     -1.46     160.45     -22.95     23.38     
 237.0000      -19.15     128.67     -1.48     156.92     -1.48     156.93     -23.85     16.37     
 238.0000      -19.04     130.68     -1.51     153.35     -1.5     153.36     -24.98     7.19     
 239.0000      -18.87     133.23     -1.53     149.72     -1.53     149.74     -26.37     -5.52     
 240.0000      -18.61     136.41     -1.56     146.04     -1.56     146.05     -27.76     -24.21     
 241.0000      -18.23     140.01     -1.6     142.29     -1.6     142.3     -28.51     -50.31     
 242.0000      -17.73     143.69     -1.64     138.47     -1.64     138.48     -27.68     -79.29     
 243.0000      -17.07     147.21     -1.69     134.58     -1.69     134.59     -25.55     -102.84     
 244.0000      -16.31     150.32     -1.75     130.61     -1.75     130.62     -23.1     -119.45     
 245.0000      -15.45     152.77     -1.82     126.57     -1.81     126.59     -20.79     -131.35     
 246.0000      -14.53     154.52     -1.89     122.46     -1.89     122.47     -18.75     -140.54     
 247.0000      -13.58     155.49     -1.99     118.28     -1.99     118.29     -16.93     -148.19     
 248.0000      -12.62     155.78     -2.09     114.02     -2.09     114.03     -15.31     -154.89     
 249.0000      -11.69     155.44     -2.22     109.71     -2.22     109.72     -13.87     -160.97     
 250.0000      -10.78     154.5     -2.36     105.34     -2.36     105.36     -12.57     -166.69     
 251.0000      -9.91     153.11     -2.53     100.93     -2.53     100.94     -11.4     -172.12     
 252.0000      -9.09     151.28     -2.71     96.49     -2.71     96.51     -10.34     -177.35     
 253.0000      -8.32     149.13     -2.92     92.03     -2.92     92.06     -9.38     177.57     
 254.0000      -7.6     146.69     -3.15     87.57     -3.16     87.6     -8.5     172.62     
 255.0000      -6.93     144.04     -3.41     83.13     -3.41     83.15     -7.71     167.78     
 256.0000      -6.32     141.22     -3.69     78.72     -3.7     78.74     -6.99     163.06     
 257.0000      -5.76     138.28     -4     74.36     -4     74.39     -6.35     158.45     
 258.0000      -5.25     135.25     -4.33     70.06     -4.33     70.1     -5.76     153.95     
 259.0000      -4.78     132.19     -4.68     65.85     -4.68     65.89     -5.23     149.58     
 260.0000      -4.36     129.11     -5.05     61.73     -5.05     61.77     -4.76     145.34     
 261.0000      -3.98     126.04     -5.43     57.72     -5.44     57.75     -4.33     141.22     
 262.0000      -3.63     123     -5.84     53.82     -5.84     53.87     -3.95     137.24     
 263.0000      -3.32     120.02     -6.26     50.04     -6.26     50.09     -3.61     133.41     
 264.0000      -3.05     117.08     -6.69     46.39     -6.69     46.44     -3.31     129.71     
 265.0000      -2.8     114.22     -7.13     42.86     -7.13     42.91     -3.03     126.15     
 266.0000      -2.58     111.44     -7.58     39.48     -7.58     39.52     -2.79     122.74     
 268.0000      -2.2     106.13     -8.5     33.06     -8.5     33.12     -2.38     116.3     
 270.0000      -1.89     101.16     -9.44     27.15     -9.44     27.2     -2.05     110.4     
 272.0000      -1.65     96.55     -10.38     21.69     -10.38     21.75     -1.78     104.97     
 274.0000      -1.45     92.25     -11.31     16.66     -11.31     16.72     -1.56     99.97     
 276.0000      -1.29     88.26     -12.24     12.02     -12.24     12.07     -1.39     95.38     
 278.0000      -1.16     84.54     -13.16     7.71     -13.16     7.77     -1.25     91.14     
 280.0000      -1.05     81.08     -14.06     3.73     -14.06     3.78     -1.13     87.21     
 282.0000      -0.96     77.84     -14.95     0.02     -14.94     0.06     -1.03     83.56     
 284.0000      -0.88     74.81     -15.81     -3.44     -15.81     -3.4     -0.94     80.16     
 286.0000      -0.82     71.96     -16.66     -6.68     -16.65     -6.64     -0.87     76.99     
 288.0000      -0.76     69.27     -17.48     -9.73     -17.48     -9.7     -0.81     74.01     
 290.0000      -0.72     66.74     -18.29     -12.58     -18.29     -12.57     -0.76     71.22     
 292.0000      -0.67     64.34     -19.08     -15.29     -19.08     -15.27     -0.71     68.59     
 294.0000      -0.64     62.06     -19.86     -17.83     -19.85     -17.83     -0.67     66.1     
 296.0000      -0.6     59.89     -20.61     -20.26     -20.6     -20.25     -0.63     63.75     
 298.0000      -0.57     57.83     -21.35     -22.55     -21.34     -22.56     -0.6     61.51     
 300.0000      -0.55     55.86     -22.07     -24.77     -22.06     -24.76     -0.57     59.38     
 305.0000      -0.49     51.29     -23.79     -29.83     -23.79     -29.84     -0.52     54.47     
 310.0000      -0.45     47.16     -25.43     -34.41     -25.42     -34.42     -0.47     50.05     
 315.0000      -0.42     43.38     -26.98     -38.59     -26.97     -38.6     -0.43     46.04     
 320.0000      -0.39     39.88     -28.45     -42.44     -28.44     -42.44     -0.4     42.36     
 325.0000      -0.37     36.63     -29.85     -46     -29.84     -46     -0.38     38.97     
 330.0000      -0.35     33.59     -31.18     -49.32     -31.18     -49.3     -0.36     35.82     
 335.0000      -0.33     30.74     -32.45     -52.44     -32.44     -52.38     -0.34     32.88     
 340.0000      -0.31     28.07     -33.68     -55.33     -33.66     -55.3     -0.32     30.11     
 345.0000      -0.29     25.56     -34.83     -58.07     -34.83     -58.02     -0.3     27.5     
 350.0000      -0.28     23.16     -35.95     -60.66     -35.95     -60.65     -0.29     25.03     
 355.0000      -0.27     20.89     -37.02     -63.1     -37.02     -63.11     -0.28     22.68     
 360.0000      -0.26     18.71     -38.05     -65.5     -38.04     -65.45     -0.27     20.45     
 365.0000      -0.25     16.62     -39.03     -67.72     -39.03     -67.74     -0.26     18.32     
 370.0000      -0.24     14.61     -39.99     -69.92     -39.98     -69.87     -0.25     16.27     
 375.0000      -0.23     12.69     -40.9     -71.99     -40.88     -71.98     -0.24     14.31     
 380.0000      -0.23     10.83     -41.77     -73.99     -41.77     -73.96     -0.24     12.42     
 385.0000      -0.22     9.04     -42.61     -75.89     -42.61     -75.93     -0.23     10.59     
 390.0000      -0.22     7.31     -43.43     -77.79     -43.43     -77.84     -0.23     8.83     
 395.0000      -0.22     5.61     -44.22     -79.53     -44.22     -79.62     -0.22     7.1     
 400.0000      -0.22     3.94     -44.97     -81.33     -44.97     -81.32     -0.22     5.44     
 405.0000      -0.21     2.33     -45.71     -83.04     -45.73     -83.05     -0.21     3.81     
 410.0000      -0.21     0.76     -46.42     -84.79     -46.42     -84.7     -0.21     2.25     
 415.0000      -0.2     -0.76     -47.11     -86.39     -47.1     -86.33     -0.2     0.72     
 420.0000      -0.19     -2.23     -47.77     -87.95     -47.75     -87.81     -0.2     -0.78     
 425.0000      -0.19     -3.66     -48.4     -89.5     -48.4     -89.45     -0.19     -2.24     
 430.0000      -0.18     -5.05     -49.01     -90.97     -49.02     -91.01     -0.19     -3.67     
 435.0000      -0.18     -6.42     -49.6     -92.45     -49.61     -92.47     -0.19     -5.06     
 440.0000      -0.18     -7.75     -50.2     -93.79     -50.2     -93.95     -0.18     -6.42     
 445.0000      -0.18     -9.07     -50.73     -95.49     -50.75     -95.4     -0.18     -7.75     
 450.0000      -0.17     -10.35     -51.29     -96.62     -51.32     -96.71     -0.18     -9.05     
 455.0000      -0.17     -11.59     -51.78     -97.84     -51.8     -98.1     -0.18     -10.33     
 460.0000      -0.17     -12.81     -52.3     -99.37     -52.3     -99.4     -0.18     -11.59     
 465.0000      -0.17     -14.01     -52.83     -100.65     -52.8     -100.59     -0.17     -12.83     
 470.0000      -0.17     -15.2     -53.26     -101.83     -53.31     -101.54     -0.18     -14.03     
 475.0000      -0.17     -16.37     -53.77     -102.97     -53.77     -103.35     -0.17     -15.23     
 480.0000      -0.17     -17.54     -54.22     -104.23     -54.25     -104.45     -0.17     -16.41     
 485.0000      -0.17     -18.68     -54.72     -105.61     -54.62     -105.56     -0.17     -17.56     
 490.0000      -0.17     -19.81     -55.11     -106.71     -55.11     -106.96     -0.17     -18.68     
 495.0000      -0.16     -20.9     -55.54     -107.99     -55.53     -107.84     -0.17     -19.8     
 500.0000      -0.16     -21.96     -55.94     -109.4     -55.92     -109.3     -0.17     -20.9     
 505.0000      -0.16     -23.01     -56.33     -109.74     -56.31     -110.13     -0.16     -21.99     
 510.0000      -0.16     -24.04     -56.73     -111.06     -56.69     -111.31     -0.16     -23.05     
 520.0000      -0.15     -26.07     -57.51     -113.29     -57.51     -113.77     -0.16     -25.12     
 530.0000      -0.15     -28.04     -58.2     -115.22     -58.18     -115.42     -0.16     -27.16     
 540.0000      -0.15     -29.95     -58.86     -117.54     -58.83     -117.62     -0.16     -29.13     
 550.0000      -0.15     -31.85     -59.57     -119.14     -59.54     -119.38     -0.16     -31.07     
 560.0000      -0.15     -33.74     -60.2     -121.43     -60.14     -120.76     -0.16     -32.97     
 570.0000      -0.15     -35.59     -60.78     -123.17     -60.86     -123.43     -0.15     -34.82     
 580.0000      -0.15     -37.36     -61.44     -124.85     -61.31     -124.26     -0.15     -36.64     
 590.0000      -0.15     -39.12     -62.01     -126.49     -61.95     -127     -0.15     -38.41     
 600.0000      -0.15     -40.84     -62.54     -128.52     -62.55     -128.48     -0.16     -40.16     
 610.0000      -0.15     -42.53     -63.08     -130.06     -63.05     -130.28     -0.15     -41.89     
 620.0000      -0.15     -44.21     -63.63     -132.6     -63.64     -132.06     -0.16     -43.59     
 630.0000      -0.16     -45.9     -64.3     -133.86     -64.13     -133.7     -0.16     -45.29     
 640.0000      -0.16     -47.61     -64.77     -135.55     -64.7     -134.89     -0.15     -46.94     
 650.0000      -0.15     -49.27     -65.37     -137.62     -65.31     -136.91     -0.15     -48.59     
 660.0000      -0.15     -50.89     -65.94     -137.86     -65.91     -138.54     -0.15     -50.22     
 670.0000      -0.15     -52.5     -66.26     -139.97     -66.4     -140.43     -0.15     -51.8     
 680.0000      -0.15     -54.09     -66.75     -142.53     -66.78     -141.05     -0.16     -53.4     
 690.0000      -0.15     -55.63     -67.52     -143.18     -67.47     -143.41     -0.16     -54.97     
 700.0000      -0.16     -57.19     -68.04     -144.5     -67.94     -145.3     -0.16     -56.55     
 710.0000      -0.16     -58.77     -68.71     -146.07     -68.78     -145.93     -0.16     -58.12     
 720.0000      -0.16     -60.35     -69.07     -147.41     -69.17     -148.06     -0.16     -59.67     
 730.0000      -0.16     -61.88     -69.8     -148.77     -69.86     -149.44     -0.16     -61.2     
 740.0000      -0.16     -63.39     -70.44     -151.31     -70.41     -151.9     -0.16     -62.72     
 750.0000      -0.16     -64.91     -70.93     -151.26     -71.09     -151.69     -0.16     -64.22     
 760.0000      -0.16     -66.39     -71.55     -153.67     -71.54     -154.44     -0.17     -65.7     
 770.0000      -0.16     -67.83     -72.39     -154.73     -72.05     -155.11     -0.17     -67.19     
 780.0000      -0.17     -69.29     -72.96     -154.77     -73.16     -152.8     -0.17     -68.68     
 790.0000      -0.18     -70.77     -73.74     -155.37     -73.49     -156     -0.17     -70.16     
 800.0000      -0.17     -72.24     -74.13     -155.05     -74.37     -158.04     -0.17     -71.62     
 810.0000      -0.17     -73.67     -75.13     -159.65     -75.13     -157.99     -0.17     -73.08     
 820.0000      -0.17     -75.09     -75.79     -158.83     -76.15     -156.9     -0.17     -74.5     
 830.0000      -0.17     -76.51     -76.75     -160.6     -76.41     -160.08     -0.18     -75.9     
 840.0000      -0.17     -77.9     -77.81     -161.84     -77.81     -163.53     -0.18     -77.31     
 850.0000      -0.18     -79.26     -78.97     -160.37     -78.74     -157.57     -0.18     -78.71     
 860.0000      -0.19     -80.64     -80.08     -161.87     -79.8     -165.08     -0.18     -80.12     
 870.0000      -0.19     -82.07     -80.55     -162.2     -81.94     -161.26     -0.18     -81.51     
 880.0000      -0.19     -83.47     -81.81     -158.44     -82.13     -160.87     -0.18     -82.91     
 890.0000      -0.19     -84.84     -83.75     -158.81     -83.84     -149.7     -0.18     -84.28     
 900.0000      -0.19     -86.21     -84.44     -158.38     -84.45     -149.81     -0.19     -85.62     
 910.0000      -0.19     -87.59     -88.09     -140.48     -86.6     -159.22     -0.19     -86.97     
 920.0000      -0.19     -88.91     -87.97     -141.07     -90.15     -144.22     -0.19     -88.3     
 930.0000      -0.19     -90.24     -89.48     -144.01     -87.84     -122.15     -0.19     -89.63     
 940.0000      -0.2     -91.59     -88.99     -103.39     -90.27     -118.61     -0.2     -90.97     
 950.0000      -0.2     -92.96     -91.18     -81.17     -90.07     -92.72     -0.2     -92.29     
 960.0000      -0.2     -94.31     -92.8     -85.13     -93.45     -72.3     -0.2     -93.62     
 970.0000      -0.2     -95.65     -90.49     -68.39     -90.92     -62.49     -0.2     -94.93     
 980.0000      -0.21     -96.99     -88.74     -43.94     -88.17     -50.06     -0.2     -96.22     
 990.0000      -0.21     -98.32     -87.79     -57.24     -88.19     -59.05     -0.2     -97.51     
1000.0000      -0.21     -99.63     -86.38     -40.64     -88.7     -35.12     -0.2     -98.8     
1025.0000      -0.22     -102.96     -84.42     -27.8     -83.88     -27.94     -0.21     -102.03     
1050.0000      -0.22     -106.25     -81.61     -25.73     -80.64     -26.26     -0.21     -105.25     
1075.0000      -0.22     -109.49     -79.3     -28.13     -78.76     -29.59     -0.22     -108.43     
1100.0000      -0.24     -112.75     -77.59     -33.17     -77.15     -37.2     -0.22     -111.6     
1125.0000      -0.24     -115.96     -76.96     -33.94     -76.38     -36.71     -0.23     -114.79     
1150.0000      -0.24     -119.13     -75.42     -35.75     -75.23     -38.18     -0.24     -117.93     
1175.0000      -0.25     -122.31     -74.3     -45.59     -74.21     -44.88     -0.24     -121.07     
1200.0000      -0.25     -125.48     -74.57     -49.77     -74.5     -48.66     -0.24     -124.25     
1225.0000      -0.25     -128.6     -74.41     -52.96     -74.53     -52.16     -0.25     -127.39     
1250.0000      -0.27     -131.72     -73.85     -55.16     -73.81     -55.71     -0.26     -130.56     
1275.0000      -0.27     -134.89     -73.24     -60.7     -73.47     -60.33     -0.26     -133.74     
1300.0000      -0.27     -138     -73.46     -67.34     -73.21     -66.57     -0.27     -136.88     
1325.0000      -0.29     -141.11     -74.06     -64.86     -74.01     -68.47     -0.27     -140.05     
1350.0000      -0.29     -144.29     -74.02     -65.36     -73.52     -64.94     -0.27     -143.25     
1375.0000      -0.29     -147.42     -72.93     -66.23     -72.73     -64.46     -0.28     -146.37     
1400.0000      -0.3     -150.53     -72.55     -74.57     -72.5     -73.34     -0.29     -149.49     
1425.0000      -0.3     -153.73     -72.9     -78.74     -72.88     -77.55     -0.29     -152.57     
1450.0000      -0.3     -156.84     -72.72     -76.05     -72.38     -75.5     -0.29     -155.58     
1475.0000      -0.31     -159.88     -71.54     -83.04     -71.51     -82.25     -0.29     -158.55     
1500.0000      -0.32     -163.01     -70.74     -89.29     -71.09     -88.89     -0.3     -161.52     
1525.0000      -0.32     -166.06     -69.71     -106.39     -69.34     -105.99     -0.3     -164.45     
1550.0000      -0.33     -169.01     -72.28     -135.75     -72     -136.13     -0.31     -167.36     
1575.0000      -0.33     -172.05     -75.13     -112.91     -75.06     -113.73     -0.31     -170.27     
1600.0000      -0.33     -174.99     -75.97     -123.26     -76.06     -119.88     -0.31     -173.16     
1625.0000      -0.33     -177.86     -76.21     -117.91     -76.36     -115.72     -0.32     -176.08     
1650.0000      -0.34     179.17     -75.98     -116.21     -75.8     -113.99     -0.32     -179.01     
1675.0000      -0.34     176.24     -75.83     -120.11     -75.61     -121.82     -0.32     178.04     
1700.0000      -0.34     173.36     -74.37     -121.68     -74.75     -125.67     -0.33     175.08     
1725.0000      -0.35     170.38     -74.06     -136.27     -74.14     -136.75     -0.33     172.11     
1750.0000      -0.35     167.42     -74.22     -137.87     -73.73     -137.25     -0.33     169.14     
1775.0000      -0.35     164.5     -75.23     -155.14     -74.51     -157.83     -0.34     166.16     
1800.0000      -0.36     161.52     -74.89     -169.95     -74.77     -171.84     -0.34     163.23     
1825.0000      -0.36     158.55     -71.36     -162.57     -71.07     -162.81     -0.34     160.3     
1850.0000      -0.36     155.65     -71.41     158.17     -71.39     159.86     -0.35     157.39     
1875.0000      -0.37     152.71     -73.28     145.76     -73.03     144.18     -0.35     154.53     
1900.0000      -0.37     149.79     -75.8     103.6     -75.36     104.46     -0.35     151.7     
1925.0000      -0.37     146.89     -78.37     125.3     -78.98     123.6     -0.35     148.82     
1950.0000      -0.38     144     -77.41     122.34     -76.98     124.77     -0.36     145.97     
1975.0000      -0.37     141.1     -75.91     128.45     -76.42     125.19     -0.35     143.14     
2000.0000      -0.37     138.21     -75.54     117.11     -74.78     115.02     -0.36     140.28     
2025.0000      -0.38     135.31     -71.57     111.2     -71.57     113.89     -0.36     137.41     
2050.0000      -0.38     132.41     -68.48     95.29     -68.54     93.6     -0.36     134.55     
2075.0000      -0.38     129.52     -72.03     85.61     -72.58     87.31     -0.37     131.63     
2100.0000      -0.39     126.63     -68.96     86.39     -68.94     85.68     -0.37     128.7     
2125.0000      -0.38     123.7     -68.94     60.84     -69.05     59.51     -0.36     125.83     
2150.0000      -0.38     120.81     -71.71     65.6     -71.83     66.92     -0.37     122.92     
2175.0000      -0.39     117.96     -67.5     68.74     -67.81     68.99     -0.37     120.01     
2200.0000      -0.38     115.08     -68.63     47.23     -68.7     46.56     -0.36     117.17     
2225.0000      -0.38     112.29     -71.2     52.62     -71.23     51.46     -0.37     114.34     
2250.0000      -0.38     109.53     -69.41     72.42     -68.96     72.34     -0.37     111.47     
2275.0000      -0.38     106.71     -66.93     71.88     -66.68     72     -0.36     108.69     
2300.0000      -0.38     103.97     -65.14     65.04     -65.06     65.34     -0.37     105.98     
2325.0000      -0.38     101.25     -63.56     56.15     -63.56     55.91     -0.37     103.19     
2350.0000      -0.38     98.42     -62.58     44.06     -62.76     44.29     -0.36     100.44     
2375.0000      -0.38     95.66     -62.97     34.14     -62.95     33.41     -0.36     97.75     
2400.0000      -0.38     92.92     -63.82     26.68     -63.87     25.85     -0.37     94.99     
2425.0000      -0.38     90.07     -66.64     29.25     -66.41     30.33     -0.36     92.21     
2450.0000      -0.38     87.25     -65.9     61.6     -66.03     62.92     -0.36     89.5     
2475.0000      -0.38     84.5     -60.52     47.49     -60.53     47.45     -0.37     86.75     
2500.0000      -0.38     81.68     -60.43     32.56     -60.38     32.1     -0.37     83.96     
2525.0000      -0.37     78.89     -62.68     30.93     -62.71     30.94     -0.36     81.23     
2550.0000      -0.37     76.15     -59.48     43.02     -59.53     42.41     -0.37     78.47     
2575.0000      -0.37     73.37     -57.86     39.87     -57.85     39.63     -0.37     75.67     
2600.0000      -0.37     70.65     -57.33     38.91     -57.29     39.09     -0.37     72.94     
2625.0000      -0.37     67.98     -55.82     23.9     -55.78     23.73     -0.37     70.2     
2650.0000      -0.37     65.27     -56.18     22.88     -56.15     22.88     -0.36     67.42     
2675.0000      -0.36     62.58     -54.96     14.89     -54.96     14.87     -0.36     64.74     
2700.0000      -0.36     59.85     -54.59     7.15     -54.54     6.63     -0.36     62.03     
2725.0000      -0.36     57.13     -56.1     -0.07     -56.09     -0.2     -0.36     59.28     
2750.0000      -0.36     54.41     -55.85     27.81     -55.8     28.56     -0.36     56.58     
2775.0000      -0.36     51.69     -51.18     6.67     -51.15     6.27     -0.37     54.01     
2800.0000      -0.36     48.96     -52.05     -6.48     -52.05     -6.56     -0.36     51.29     
2825.0000      -0.36     46.27     -52.38     -6.72     -52.41     -6.55     -0.36     48.63     
2850.0000      -0.36     43.52     -52.58     -8.12     -52.56     -8.45     -0.36     45.96     
2875.0000      -0.36     40.81     -51.19     -10.34     -51.18     -10.45     -0.37     43.3     
2900.0000      -0.35     38.16     -50.03     -18.72     -50.05     -19.09     -0.35     40.68     
2925.0000      -0.35     35.43     -51.77     -27.23     -51.74     -27.16     -0.35     37.99     
2950.0000      -0.36     32.71     -50.85     -10.54     -50.83     -10.5     -0.36     35.22     
2975.0000      -0.35     30.08     -49.23     -25.94     -49.26     -26.33     -0.35     32.58     
3000.0000      -0.35     27.42     -47.8     -27.26     -47.81     -27.47     -0.35     29.94     
3025.0000      -0.35     24.72     -46.66     -40.11     -46.67     -40.32     -0.36     27.23     
3050.0000      -0.33     22.01     -48.79     -55.35     -48.82     -55.46     -0.34     24.47     
3075.0000      -0.34     19.25     -50.82     -46.29     -50.79     -46.08     -0.34     21.74     
3100.0000      -0.35     16.53     -47.33     -42.04     -47.33     -42.03     -0.36     19.04     
3125.0000      -0.33     13.75     -47.94     -55.75     -47.92     -55.79     -0.34     16.3     
3150.0000      -0.33     10.97     -48.66     -48.5     -48.68     -48.45     -0.34     13.61     
3175.0000      -0.33     8.19     -47.58     -51.1     -47.57     -51.21     -0.36     10.85     
3200.0000      -0.33     5.35     -47.07     -54.03     -47.08     -54.24     -0.35     8.08     
3225.0000      -0.33     2.58     -46.41     -56.2     -46.41     -56.33     -0.35     5.43     
3250.0000      -0.33     -0.23     -46.71     -56.72     -46.71     -56.66     -0.36     2.67     
3275.0000      -0.33     -3.05     -45.15     -61.87     -45.17     -61.9     -0.36     -0.08     
3300.0000      -0.33     -5.87     -45.66     -65.2     -45.65     -65.26     -0.34     -2.83     
3325.0000      -0.35     -8.66     -45.03     -57.3     -45.03     -57.24     -0.36     -5.65     
3350.0000      -0.35     -11.31     -42.66     -67.82     -42.67     -67.98     -0.37     -8.46     
3375.0000      -0.35     -14.2     -44.07     -71.46     -44.06     -71.25     -0.35     -11.31     
3400.0000      -0.36     -17.04     -42.14     -61.48     -42.09     -61.79     -0.38     -14.13     
3425.0000      -0.37     -19.82     -40.4     -77.12     -40.41     -77.36     -0.37     -16.93     
3450.0000      -0.37     -22.6     -40.39     -81.71     -40.39     -81.76     -0.36     -19.8     
3475.0000      -0.35     -25.42     -39.84     -90.58     -39.81     -90.37     -0.37     -22.54     
3500.0000      -0.36     -28.35     -38.88     -85.89     -38.9     -86.08     -0.39     -25.45     
3525.0000      -0.35     -31.16     -37.51     -102.01     -37.51     -102.28     -0.37     -28.13     
3550.0000      -0.33     -34.18     -38.67     -113.07     -38.71     -113.38     -0.36     -30.98     
3575.0000      -0.34     -37.22     -39.2     -115.63     -39.24     -115.6     -0.37     -33.97     
3600.0000      -0.35     -40.23     -38.96     -115.5     -38.97     -115.5     -0.37     -36.9     
3625.0000      -0.37     -43.24     -38.84     -114.24     -38.84     -114.38     -0.38     -39.67     
3650.0000      -0.4     -46.15     -37.87     -111.82     -37.87     -111.9     -0.41     -42.53     
3675.0000      -0.42     -48.87     -36.05     -121.54     -36.03     -121.78     -0.4     -45.33     
3700.0000      -0.42     -51.81     -35.7     -129.84     -35.71     -130.3     -0.4     -48.14     
3725.0000      -0.43     -54.75     -35.35     -136.62     -35.35     -136.64     -0.44     -50.99     
3750.0000      -0.44     -57.55     -34.7     -148.65     -34.71     -148.79     -0.42     -53.71     
3775.0000      -0.45     -60.47     -35.76     -162.18     -35.78     -162.39     -0.41     -56.59     
3800.0000      -0.44     -63.45     -37.56     -160.43     -37.57     -160.57     -0.43     -59.46     
3825.0000      -0.45     -66.54     -37.71     -150.71     -37.73     -150.68     -0.44     -62.44     
3850.0000      -0.44     -69.6     -36.17     -154.4     -36.17     -154.68     -0.43     -65.18     
3875.0000      -0.45     -72.92     -35.58     -153.82     -35.59     -153.97     -0.45     -68.06     
3900.0000      -0.47     -76.26     -35.05     -158     -35.04     -158.14     -0.44     -71.11     
3925.0000      -0.5     -79.59     -34.24     -159.83     -34.25     -159.91     -0.45     -74.08     
3950.0000      -0.53     -83.01     -33.12     -164.88     -33.12     -164.98     -0.46     -76.94     
3975.0000      -0.57     -86.52     -32.56     -167.8     -32.56     -167.85     -0.48     -80.11     
4000.0000      -0.61     -89.96     -31.19     -174.56     -31.19     -174.7     -0.46     -83.01     
4025.0000      -0.66     -93.68     -30.16     178.84     -30.17     178.74     -0.47     -85.98     
4050.0000      -0.73     -97.66     -29.48     168.2     -29.49     168.09     -0.47     -89.19     
4075.0000      -0.89     -101.82     -28.95     160.74     -28.95     160.65     -0.47     -92.32     
4100.0000      -1.1     -105.77     -28.13     150.82     -28.15     150.77     -0.48     -95.54     
4125.0000      -1.46     -110.14     -27.75     140.88     -27.76     140.78     -0.53     -98.85     
4150.0000      -2.09     -113.36     -26.39     129.65     -26.4     129.5     -0.56     -101.64     
4175.0000      -2.88     -113.52     -26.02     107.89     -26.02     107.79     -0.54     -104.81     
4200.0000      -3.17     -109.3     -27.14     85.91     -27.15     85.85     -0.56     -107.95     
4225.0000      -2.58     -106.85     -29.46     68.96     -29.46     68.84     -0.55     -111.17     
4250.0000      -1.9     -108.82     -32.64     58.43     -32.65     58.34     -0.55     -114.46     
4275.0000      -1.45     -112.57     -36.91     61.67     -36.91     61.69     -0.58     -117.75     
4300.0000      -1.17     -116.87     -38.09     80.42     -38.09     80.21     -0.57     -121.17     
4325.0000      -1.04     -121.22     -38.68     98.62     -38.69     98.46     -0.61     -124.57     
4350.0000      -0.94     -125.14     -36.09     105.74     -36.1     105.65     -0.65     -127.8     
4375.0000      -0.9     -129.49     -36.56     105.65     -36.5     105.41     -0.71     -131.35     
4400.0000      -0.91     -133.29     -33.42     114.01     -33.45     114.2     -0.77     -134.49     
4425.0000      -0.92     -136.87     -30.93     104.58     -30.93     104.39     -0.85     -137.78     
4450.0000      -0.93     -140.64     -29.65     90.55     -29.64     90.28     -0.98     -140.96     
4475.0000      -1.01     -144.27     -28.85     70.73     -28.85     70.59     -1.12     -143.61     
4500.0000      -1.08     -147.59     -30.11     51.51     -30.11     51.31     -1.22     -145.89     
4525.0000      -1.09     -150.58     -31.44     42.7     -31.43     42.6     -1.22     -147.96     
4550.0000      -1.11     -154.07     -33.6     31.59     -33.58     31.5     -1.18     -150.34     
4575.0000      -1.14     -157.48     -36.16     31.24     -36.15     31.05     -1.12     -152.95     
4600.0000      -1.16     -160.88     -38.33     41.05     -38.33     40.81     -1.04     -155.86     
4625.0000      -1.17     -164.38     -39.51     51.53     -39.5     51.4     -0.97     -158.95     
4650.0000      -1.21     -168.18     -39.57     69.51     -39.6     69.09     -0.93     -162.06     
4675.0000      -1.29     -171.91     -38.16     78.75     -38.15     78.31     -0.88     -165.39     
4700.0000      -1.41     -175.4     -35.9     83.53     -35.9     83.33     -0.83     -168.8     
4725.0000      -1.55     -178.14     -34.58     77.33     -34.58     77.22     -0.79     -172.14     
4750.0000      -1.61     179.5     -34.32     77.74     -34.31     77.57     -0.78     -175.89     
4775.0000      -1.53     177.21     -33.02     81.67     -33.02     81.5     -0.78     -179.42     
4800.0000      -1.37     174.25     -30.77     77.56     -30.76     77.45     -0.77     177.2     
4825.0000      -1.23     170.42     -30.33     69.87     -30.33     69.74     -0.77     173.46     
4850.0000      -1.15     166.47     -29.24     67.95     -29.23     67.86     -0.8     169.88     
4875.0000      -1.1     162.29     -28.43     62.79     -28.41     62.7     -0.81     166.45     
4900.0000      -1.12     158.01     -27.36     60.17     -27.36     60.1     -0.83     162.89     
4925.0000      -1.12     153.65     -26.25     54.33     -26.24     54.21     -0.84     159.36     
4950.0000      -1.16     149.18     -25.27     47.55     -25.27     47.46     -0.85     155.57     
4975.0000      -1.22     144.66     -24.78     40.38     -24.78     40.32     -0.94     152.03     
5000.0000      -1.31     139.79     -23.88     37.19     -23.88     37.07     -0.92     148.24     
5025.0000      -1.42     134.96     -22.86     31.19     -22.86     31.1     -0.96     144.27     
5050.0000      -1.58     129.96     -21.91     25.66     -21.9     25.59     -1.05     140.12     
5075.0000      -1.74     124.78     -20.55     18.29     -20.55     18.19     -1.16     136.05     
5100.0000      -2.01     119.12     -19.58     10.69     -19.58     10.6     -1.31     132     
5125.0000      -2.36     113.42     -18.27     2.12     -18.27     2.07     -1.47     127.63     
5150.0000      -2.86     107.04     -17.08     -8.03     -17.07     -8.1     -1.71     122.94     
5175.0000      -3.59     100.69     -15.77     -19.48     -15.76     -19.53     -2.08     118.41     
5200.0000      -4.67     94.6     -14.45     -33.22     -14.45     -33.25     -2.58     114.13     
5225.0000      -6.21     89.83     -13.29     -49.67     -13.29     -49.72     -3.3     110.56     
5250.0000      -8.25     89.26     -12.43     -68.98     -12.43     -69     -4.19     108.78     
5275.0000      -10.42     96.79     -12.05     -90.52     -12.05     -90.52     -5.14     110.35     
5300.0000      -11.48     111.89     -12.27     -113.49     -12.27     -113.51     -5.7     115.19     
5325.0000      -11.14     127.12     -13.27     -136.61     -13.26     -136.62     -5.54     121.2     
5350.0000      -9.64     138.8     -15.06     -157.77     -15.05     -157.76     -4.77     124.93     
5375.0000      -7.59     143.4     -17.53     -174.16     -17.52     -174.2     -3.83     124.48     
5400.0000      -5.78     141.01     -20.18     175.16     -20.17     175.14     -3.07     121.43     
5425.0000      -4.47     135.63     -22.6     170.44     -22.59     170.42     -2.52     117.33     
5450.0000      -3.64     129.39     -24.31     166.81     -24.3     166.8     -2.21     112.73     
5475.0000      -3.08     123.67     -26.3     162.87     -26.29     162.87     -1.98     108.57     
5500.0000      -2.67     118.21     -28.1     162.65     -28.09     162.59     -1.79     104.32     
