! Mini-Circuits								
! S2P DATA File Format								
! Type: BAND PASS FILTER								
! Model: RBP-188+								
! All S Parameters are in dB deg format								
! TEST CONDITIONS: INPUT POWER = 0 dBm @ Temperature = +85deg C								
! 500 Frequency points
!
# MHz S dB R 50
!Frequency     S11 dB   S11 DEG  S21 dB   S21 DEG  S12 dB   S12 DEG  S22 dB   S22 DEG  
   1.0000      0     -0.67     -93.66     109.22     -87.23     -172.29     0     -0.66     
   2.0000      0     -1.3     -89.93     -80.41     -99.58     -151.05     0     -1.3     
   3.0000      0     -1.94     -95.06     -90.78     -90.2     106.06     0     -1.95     
   4.0000      0     -2.59     -88.56     178.78     -92.17     162.17     0     -2.59     
   5.0000      0     -3.25     -94.52     -169.99     -96.5     142.25     0     -3.25     
   6.0000      0     -3.89     -83.71     -42.85     -89.26     -38.6     0     -3.91     
   7.0000      0     -4.53     -90.47     -130.74     -94.7     -1.77     0     -4.55     
   8.0000      0     -5.18     -89.47     63.9     -94.48     -71.84     0     -5.2     
   9.0000      0     -5.82     -86.5     -10.28     -96.94     -175.84     0     -5.86     
  10.0000      0     -6.48     -109.16     0.67     -100.08     3.56     0     -6.51     
  12.0000      0     -7.78     -101.83     -86.29     -100     -91.06     0     -7.82     
  14.0000      0     -9.09     -97.02     117.52     -99.22     9.82     -0.01     -9.13     
  16.0000      0     -10.4     -109.96     35.37     -102.64     57.53     0     -10.46     
  18.0000      0     -11.73     -106.22     -175.17     -116.46     142.61     -0.01     -11.78     
  20.0000      0     -13.07     -112.25     3.54     -102.84     -114.82     -0.01     -13.13     
  22.0000      -0.01     -14.41     -107.94     82.19     -112.84     173.68     -0.01     -14.48     
  24.0000      -0.01     -15.77     -96.61     -77.87     -86.77     139.74     -0.01     -15.84     
  26.0000      -0.01     -17.15     -102.17     78.57     -94.86     80.1     -0.01     -17.22     
  28.0000      -0.01     -18.54     -99.48     113.4     -105.5     -22.48     -0.01     -18.61     
  30.0000      -0.01     -19.94     -96.19     49.21     -94.63     44     -0.01     -20.02     
  32.0000      -0.02     -21.36     -92.72     55     -94.61     55.25     -0.02     -21.44     
  34.0000      -0.02     -22.8     -90.44     66.44     -90.75     45.2     -0.02     -22.88     
  36.0000      -0.02     -24.26     -87.86     57.13     -90.12     56.63     -0.02     -24.34     
  38.0000      -0.02     -25.74     -84.6     59.53     -84.34     56.98     -0.02     -25.82     
  40.0000      -0.03     -27.25     -81.02     58.08     -82.04     50.22     -0.03     -27.33     
  42.0000      -0.03     -28.79     -78.97     51.94     -79.1     58.89     -0.03     -28.87     
  44.0000      -0.03     -30.36     -76.9     51.69     -76.73     52.74     -0.03     -30.43     
  46.0000      -0.04     -31.95     -74.19     48.87     -73.83     48.05     -0.04     -32.03     
  48.0000      -0.04     -33.58     -71.7     46.67     -71.95     47.97     -0.04     -33.66     
  50.0000      -0.05     -35.26     -69.57     47.34     -69.75     45.99     -0.04     -35.33     
  52.0000      -0.05     -36.96     -67.44     45.27     -67.46     45.62     -0.05     -37.03     
  54.0000      -0.06     -38.72     -65.59     43.11     -65.4     42.25     -0.06     -38.77     
  56.0000      -0.06     -40.51     -63.42     41.33     -63.4     41.32     -0.06     -40.56     
  58.0000      -0.07     -42.36     -61.42     39.85     -61.41     39.53     -0.07     -42.4     
  60.0000      -0.08     -44.27     -59.48     37.63     -59.48     37.41     -0.08     -44.28     
  62.0000      -0.09     -46.23     -57.55     35.62     -57.54     35.8     -0.09     -46.22     
  64.0000      -0.1     -48.25     -55.69     33.61     -55.68     33.43     -0.09     -48.22     
  66.0000      -0.11     -50.33     -53.86     31.28     -53.82     31.24     -0.1     -50.28     
  68.0000      -0.12     -52.48     -52.01     29.11     -52.02     28.96     -0.11     -52.42     
  70.0000      -0.13     -54.73     -50.23     26.87     -50.24     26.85     -0.13     -54.64     
  72.0000      -0.14     -57.05     -48.44     24.35     -48.43     24.4     -0.14     -56.94     
  74.0000      -0.15     -59.46     -46.67     21.76     -46.66     21.86     -0.15     -59.32     
  76.0000      -0.17     -61.97     -44.9     19.11     -44.89     19.13     -0.16     -61.8     
  78.0000      -0.18     -64.59     -43.15     16.33     -43.14     16.32     -0.18     -64.39     
  80.0000      -0.2     -67.33     -41.41     13.4     -41.4     13.48     -0.2     -67.1     
  82.0000      -0.22     -70.19     -39.66     10.34     -39.66     10.37     -0.22     -69.92     
  84.0000      -0.25     -73.2     -37.92     7.17     -37.91     7.14     -0.24     -72.89     
  86.0000      -0.27     -76.37     -36.17     3.75     -36.17     3.79     -0.27     -76.02     
  88.0000      -0.31     -79.72     -34.42     0.17     -34.42     0.18     -0.3     -79.33     
  90.0000      -0.34     -83.27     -32.66     -3.62     -32.66     -3.63     -0.33     -82.83     
  92.0000      -0.38     -87.05     -30.89     -7.65     -30.89     -7.65     -0.37     -86.55     
  94.0000      -0.43     -91.07     -29.11     -11.97     -29.11     -11.96     -0.41     -90.52     
  96.0000      -0.49     -95.39     -27.32     -16.6     -27.32     -16.6     -0.47     -94.77     
  98.0000      -0.55     -100.02     -25.51     -21.57     -25.51     -21.58     -0.53     -99.35     
 100.0000      -0.63     -105.03     -23.68     -26.97     -23.69     -26.96     -0.61     -104.29     
 102.0000      -0.73     -110.47     -21.84     -32.83     -21.85     -32.82     -0.7     -109.67     
 104.0000      -0.84     -116.4     -19.99     -39.22     -19.99     -39.21     -0.82     -115.53     
 106.0000      -0.99     -122.9     -18.12     -46.24     -18.13     -46.24     -0.97     -121.99     
 108.0000      -1.18     -130.07     -16.25     -53.99     -16.26     -53.98     -1.16     -129.12     
 110.0000      -1.43     -138     -14.39     -62.57     -14.39     -62.56     -1.41     -137.02     
 112.0000      -1.77     -146.81     -12.55     -72.09     -12.56     -72.07     -1.75     -145.83     
 114.0000      -2.21     -156.57     -10.77     -82.64     -10.77     -82.61     -2.2     -155.64     
 116.0000      -2.81     -167.35     -9.08     -94.27     -9.08     -94.25     -2.82     -166.52     
 118.0000      -3.62     -179.09     -7.52     -106.96     -7.52     -106.95     -3.65     -178.46     
 119.0000      -4.12     174.73     -6.8     -113.65     -6.8     -113.66     -4.17     175.21     
 120.0000      -4.69     168.37     -6.14     -120.54     -6.14     -120.54     -4.76     168.66     
 121.0000      -5.34     161.9     -5.53     -127.58     -5.53     -127.57     -5.43     161.95     
 122.0000      -6.06     155.36     -4.98     -134.71     -4.98     -134.71     -6.19     155.09     
 123.0000      -6.86     148.78     -4.49     -141.88     -4.49     -141.88     -7.03     148.12     
 124.0000      -7.74     142.25     -4.06     -149.04     -4.06     -149.05     -7.96     141.09     
 125.0000      -8.69     135.82     -3.69     -156.15     -3.69     -156.15     -8.98     134.01     
 126.0000      -9.71     129.47     -3.36     -163.16     -3.36     -163.16     -10.07     126.88     
 127.0000      -10.79     123.28     -3.09     -170.03     -3.09     -170.03     -11.25     119.69     
 128.0000      -11.93     117.26     -2.85     -176.74     -2.85     -176.74     -12.5     112.43     
 129.0000      -13.1     111.41     -2.66     176.73     -2.66     176.72     -13.81     105.01     
 130.0000      -14.3     105.68     -2.49     170.38     -2.49     170.38     -15.18     97.37     
 131.0000      -15.53     100.14     -2.35     164.22     -2.35     164.21     -16.59     89.39     
 132.0000      -16.75     94.67     -2.23     158.24     -2.23     158.24     -18.02     80.93     
 133.0000      -17.96     89.37     -2.13     152.44     -2.13     152.44     -19.44     71.86     
 134.0000      -19.13     84.02     -2.05     146.82     -2.05     146.82     -20.81     61.99     
 135.0000      -20.25     78.7     -1.97     141.36     -1.97     141.36     -22.09     51.37     
 136.0000      -21.3     73.41     -1.91     136.05     -1.91     136.05     -23.2     40.12     
 137.0000      -22.26     68.04     -1.85     130.87     -1.86     130.88     -24.1     28.34     
 138.0000      -23.11     62.71     -1.81     125.83     -1.81     125.84     -24.75     16.57     
 139.0000      -23.85     57.36     -1.76     120.92     -1.77     120.93     -25.16     5.3     
 140.0000      -24.46     51.96     -1.73     116.11     -1.73     116.12     -25.37     -5.06     
 141.0000      -24.95     46.82     -1.69     111.42     -1.69     111.42     -25.44     -14.46     
 142.0000      -25.35     41.72     -1.66     106.82     -1.66     106.83     -25.4     -22.75     
 143.0000      -25.62     36.93     -1.63     102.31     -1.63     102.32     -25.33     -30.07     
 144.0000      -25.85     32.49     -1.61     97.89     -1.61     97.9     -25.25     -36.68     
 145.0000      -25.98     28.3     -1.58     93.55     -1.58     93.56     -25.19     -42.55     
 146.0000      -26.09     24.35     -1.56     89.28     -1.56     89.29     -25.14     -48     
 147.0000      -26.17     20.94     -1.54     85.09     -1.54     85.1     -25.12     -53.17     
 148.0000      -26.24     17.77     -1.52     80.96     -1.52     80.97     -25.16     -58     
 149.0000      -26.3     15.12     -1.5     76.89     -1.51     76.9     -25.23     -62.66     
 150.0000      -26.44     12.64     -1.49     72.88     -1.49     72.89     -25.36     -67.41     
 151.0000      -26.56     10.51     -1.47     68.93     -1.48     68.94     -25.52     -72.09     
 152.0000      -26.7     9.09     -1.46     65.03     -1.46     65.04     -25.76     -76.88     
 153.0000      -26.88     7.99     -1.45     61.17     -1.45     61.19     -26.02     -82.03     
 154.0000      -27.09     7.6     -1.44     57.37     -1.44     57.38     -26.37     -87.28     
 155.0000      -27.32     7.66     -1.42     53.61     -1.43     53.62     -26.76     -92.9     
 156.0000      -27.56     8.31     -1.41     49.89     -1.42     49.9     -27.23     -99.35     
 157.0000      -27.75     9.74     -1.4     46.21     -1.41     46.22     -27.73     -106.25     
 158.0000      -27.97     11.91     -1.39     42.56     -1.4     42.57     -28.27     -114.25     
 159.0000      -28.12     14.88     -1.39     38.96     -1.39     38.97     -28.84     -122.85     
 160.0000      -28.19     18.3     -1.38     35.38     -1.38     35.39     -29.39     -132.87     
 161.0000      -28.12     22.32     -1.37     31.84     -1.37     31.85     -29.81     -144.3     
 162.0000      -27.9     26.52     -1.36     28.34     -1.37     28.34     -30.06     -156.92     
 163.0000      -27.6     30.65     -1.36     24.86     -1.36     24.86     -30.09     -169.99     
 164.0000      -27.14     34.52     -1.35     21.41     -1.36     21.42     -29.85     176.49     
 165.0000      -26.59     37.95     -1.35     17.99     -1.35     17.99     -29.29     163.52     
 166.0000      -25.95     40.61     -1.35     14.59     -1.35     14.6     -28.56     151.9     
 167.0000      -25.29     42.62     -1.34     11.23     -1.35     11.23     -27.71     141.6     
 168.0000      -24.63     44.3     -1.34     7.88     -1.34     7.89     -26.81     132.52     
 169.0000      -23.95     45     -1.34     4.57     -1.34     4.57     -25.92     124.59     
 170.0000      -23.28     45.39     -1.34     1.28     -1.34     1.28     -25.06     117.44     
 171.0000      -22.64     45.31     -1.34     -1.99     -1.34     -2     -24.22     111.23     
 172.0000      -22.04     44.91     -1.34     -5.24     -1.34     -5.24     -23.45     105.52     
 173.0000      -21.46     44.2     -1.34     -8.47     -1.35     -8.47     -22.74     100.26     
 174.0000      -20.95     43.12     -1.35     -11.67     -1.35     -11.67     -22.07     95.56     
 175.0000      -20.44     41.81     -1.35     -14.85     -1.35     -14.85     -21.45     91.03     
 176.0000      -19.98     40.36     -1.35     -18.01     -1.35     -18.02     -20.89     86.85     
 177.0000      -19.55     38.75     -1.36     -21.15     -1.36     -21.16     -20.38     82.86     
 178.0000      -19.15     37.05     -1.36     -24.28     -1.36     -24.28     -19.91     79.05     
 179.0000      -18.79     35.09     -1.37     -27.39     -1.37     -27.39     -19.49     75.43     
 180.0000      -18.46     33.14     -1.37     -30.47     -1.37     -30.48     -19.1     71.99     
 181.0000      -18.17     31.08     -1.37     -33.55     -1.37     -33.55     -18.74     68.58     
 182.0000      -17.91     28.88     -1.38     -36.6     -1.38     -36.61     -18.43     65.37     
 183.0000      -17.67     26.61     -1.38     -39.65     -1.38     -39.65     -18.15     62.21     
 184.0000      -17.47     24.34     -1.39     -42.68     -1.39     -42.68     -17.9     59.17     
 185.0000      -17.29     21.97     -1.39     -45.7     -1.39     -45.7     -17.69     56.18     
 186.0000      -17.14     19.53     -1.39     -48.7     -1.39     -48.7     -17.5     53.29     
 187.0000      -17.02     17.05     -1.4     -51.7     -1.4     -51.7     -17.34     50.52     
 188.0000      -16.93     14.49     -1.4     -54.68     -1.4     -54.68     -17.22     47.74     
 189.0000      -16.86     11.9     -1.4     -57.66     -1.4     -57.66     -17.11     45.08     
 190.0000      -16.82     9.26     -1.4     -60.63     -1.41     -60.63     -17.04     42.49     
 191.0000      -16.81     6.56     -1.41     -63.59     -1.41     -63.59     -17     39.95     
 192.0000      -16.83     3.79     -1.41     -66.55     -1.41     -66.55     -16.98     37.49     
 193.0000      -16.87     1     -1.41     -69.51     -1.41     -69.5     -16.99     35.09     
 194.0000      -16.94     -1.85     -1.41     -72.46     -1.41     -72.46     -17.03     32.8     
 195.0000      -17.05     -4.76     -1.41     -75.4     -1.41     -75.4     -17.09     30.57     
 196.0000      -17.18     -7.77     -1.41     -78.35     -1.41     -78.35     -17.18     28.42     
 197.0000      -17.35     -10.85     -1.41     -81.3     -1.41     -81.3     -17.3     26.38     
 198.0000      -17.54     -13.94     -1.41     -84.24     -1.41     -84.25     -17.45     24.44     
 199.0000      -17.76     -17.16     -1.41     -87.19     -1.41     -87.19     -17.62     22.58     
 200.0000      -18.03     -20.51     -1.4     -90.14     -1.41     -90.14     -17.82     20.85     
 201.0000      -18.33     -23.96     -1.4     -93.1     -1.41     -93.09     -18.05     19.24     
 202.0000      -18.66     -27.51     -1.4     -96.05     -1.41     -96.05     -18.31     17.8     
 203.0000      -19.04     -31.3     -1.4     -99.02     -1.4     -99.01     -18.6     16.52     
 204.0000      -19.46     -35.16     -1.4     -101.98     -1.4     -101.98     -18.92     15.46     
 205.0000      -19.93     -39.32     -1.4     -104.96     -1.4     -104.95     -19.25     14.58     
 206.0000      -20.45     -43.68     -1.4     -107.93     -1.4     -107.93     -19.62     13.95     
 207.0000      -21.01     -48.49     -1.4     -110.92     -1.41     -110.91     -20.02     13.64     
 208.0000      -21.62     -53.63     -1.41     -113.92     -1.41     -113.91     -20.44     13.66     
 209.0000      -22.28     -59.25     -1.41     -116.91     -1.41     -116.91     -20.85     14.06     
 210.0000      -23     -65.44     -1.41     -119.92     -1.41     -119.92     -21.28     14.72     
 211.0000      -23.76     -72.47     -1.42     -122.94     -1.42     -122.93     -21.71     15.85     
 212.0000      -24.51     -80.5     -1.42     -125.97     -1.42     -125.96     -22.14     17.46     
 213.0000      -25.25     -89.62     -1.43     -129     -1.43     -128.99     -22.52     19.5     
 214.0000      -25.92     -99.74     -1.43     -132.05     -1.44     -132.03     -22.85     22     
 215.0000      -26.48     -111.22     -1.44     -135.1     -1.44     -135.08     -23.12     24.74     
 216.0000      -26.76     -123.58     -1.45     -138.16     -1.45     -138.15     -23.32     27.68     
 217.0000      -26.84     -136.35     -1.46     -141.23     -1.46     -141.22     -23.44     30.86     
 218.0000      -26.61     -148.49     -1.47     -144.32     -1.47     -144.31     -23.48     33.74     
 219.0000      -26.19     -159.8     -1.48     -147.42     -1.48     -147.4     -23.44     36.32     
 220.0000      -25.6     -169.65     -1.5     -150.53     -1.5     -150.51     -23.31     38.79     
 221.0000      -24.96     -178.37     -1.51     -153.65     -1.51     -153.64     -23.17     40.59     
 222.0000      -24.3     174.14     -1.52     -156.79     -1.52     -156.77     -23     41.94     
 223.0000      -23.66     167.74     -1.54     -159.93     -1.54     -159.92     -22.83     42.85     
 224.0000      -23.05     162.17     -1.55     -163.1     -1.55     -163.09     -22.65     43.16     
 225.0000      -22.5     157.46     -1.57     -166.29     -1.57     -166.27     -22.54     42.84     
 226.0000      -22     153.41     -1.59     -169.49     -1.59     -169.48     -22.45     42.14     
 227.0000      -21.55     150.03     -1.6     -172.72     -1.6     -172.71     -22.43     40.95     
 228.0000      -21.16     147.14     -1.62     -175.97     -1.62     -175.95     -22.47     39.24     
 229.0000      -20.81     144.75     -1.64     -179.24     -1.64     -179.22     -22.58     37     
 230.0000      -20.52     142.87     -1.66     177.46     -1.66     177.47     -22.81     34.25     
 231.0000      -20.25     141.47     -1.68     174.13     -1.68     174.14     -23.13     30.89     
 232.0000      -20.01     140.66     -1.7     170.76     -1.7     170.77     -23.58     26.82     
 233.0000      -19.79     140.34     -1.73     167.36     -1.73     167.37     -24.19     21.75     
 234.0000      -19.59     140.63     -1.75     163.91     -1.75     163.93     -24.98     15.34     
 235.0000      -19.36     141.42     -1.78     160.43     -1.78     160.44     -25.97     7.08     
 236.0000      -19.1     142.72     -1.81     156.9     -1.81     156.91     -27.18     -4.26     
 237.0000      -18.79     144.41     -1.84     153.32     -1.84     153.32     -28.43     -20.44     
 238.0000      -18.4     146.57     -1.88     149.67     -1.88     149.68     -29.23     -42.94     
 239.0000      -17.94     148.82     -1.92     145.98     -1.92     145.99     -28.86     -69.43     
 240.0000      -17.39     151.14     -1.97     142.23     -1.97     142.24     -27.18     -93.24     
 241.0000      -16.74     153.35     -2.02     138.42     -2.02     138.42     -24.94     -111.02     
 242.0000      -16.03     155.2     -2.08     134.54     -2.08     134.55     -22.7     -123.9     
 243.0000      -15.24     156.63     -2.15     130.6     -2.15     130.61     -20.65     -133.68     
 244.0000      -14.42     157.6     -2.24     126.59     -2.23     126.6     -18.8     -141.66     
 245.0000      -13.58     158.01     -2.33     122.52     -2.33     122.54     -17.14     -148.48     
 246.0000      -12.72     157.94     -2.43     118.4     -2.44     118.41     -15.64     -154.58     
 247.0000      -11.88     157.34     -2.56     114.22     -2.56     114.23     -14.29     -160.23     
 248.0000      -11.06     156.32     -2.69     109.99     -2.7     110     -13.07     -165.56     
 249.0000      -10.26     154.91     -2.85     105.73     -2.85     105.74     -11.95     -170.64     
 250.0000      -9.5     153.15     -3.02     101.43     -3.03     101.44     -10.93     -175.59     
 251.0000      -8.78     151.11     -3.22     97.11     -3.22     97.13     -9.99     179.61     
 252.0000      -8.09     148.8     -3.44     92.8     -3.44     92.81     -9.14     174.9     
 253.0000      -7.46     146.31     -3.67     88.48     -3.68     88.51     -8.35     170.29     
 254.0000      -6.86     143.64     -3.93     84.19     -3.94     84.22     -7.64     165.78     
 255.0000      -6.31     140.85     -4.22     79.94     -4.22     79.96     -6.99     161.34     
 256.0000      -5.8     137.97     -4.52     75.74     -4.52     75.76     -6.4     157.01     
 257.0000      -5.33     135.03     -4.84     71.59     -4.84     71.63     -5.86     152.77     
 258.0000      -4.9     132.06     -5.18     67.53     -5.18     67.56     -5.37     148.64     
 259.0000      -4.51     129.08     -5.54     63.55     -5.54     63.59     -4.92     144.62     
 260.0000      -4.15     126.11     -5.91     59.67     -5.92     59.7     -4.52     140.71     
 261.0000      -3.83     123.17     -6.3     55.88     -6.31     55.92     -4.16     136.93     
 262.0000      -3.54     120.27     -6.7     52.22     -6.71     52.26     -3.84     133.25     
 263.0000      -3.27     117.43     -7.12     48.65     -7.12     48.7     -3.54     129.72     
 264.0000      -3.03     114.64     -7.54     45.2     -7.55     45.26     -3.28     126.3     
 265.0000      -2.82     111.93     -7.98     41.87     -7.98     41.92     -3.04     122.99     
 266.0000      -2.62     109.3     -8.41     38.67     -8.42     38.72     -2.82     119.81     
 268.0000      -2.29     104.25     -9.31     32.58     -9.31     32.63     -2.45     113.81     
 270.0000      -2.01     99.5     -10.21     26.93     -10.21     26.98     -2.15     108.27     
 272.0000      -1.79     95.07     -11.11     21.69     -11.11     21.75     -1.91     103.14     
 274.0000      -1.6     90.93     -12.02     16.83     -12.02     16.89     -1.7     98.39     
 276.0000      -1.45     87.06     -12.91     12.32     -12.91     12.37     -1.54     93.99     
 278.0000      -1.32     83.44     -13.79     8.11     -13.79     8.17     -1.4     89.9     
 280.0000      -1.22     80.05     -14.66     4.2     -14.66     4.25     -1.28     86.1     
 282.0000      -1.12     76.86     -15.52     0.53     -15.51     0.58     -1.18     82.55     
 284.0000      -1.05     73.86     -16.35     -2.9     -16.35     -2.85     -1.1     79.23     
 286.0000      -0.98     71.03     -17.17     -6.13     -17.17     -6.08     -1.02     76.11     
 288.0000      -0.92     68.36     -17.97     -9.17     -17.97     -9.14     -0.96     73.18     
 290.0000      -0.87     65.82     -18.76     -12.03     -18.76     -12.02     -0.91     70.41     
 292.0000      -0.83     63.42     -19.53     -14.76     -19.52     -14.74     -0.86     67.8     
 294.0000      -0.79     61.13     -20.28     -17.33     -20.28     -17.32     -0.81     65.33     
 296.0000      -0.75     58.94     -21.02     -19.79     -21.01     -19.78     -0.78     62.97     
 298.0000      -0.72     56.87     -21.74     -22.11     -21.73     -22.12     -0.74     60.73     
 300.0000      -0.69     54.87     -22.44     -24.35     -22.44     -24.36     -0.71     58.6     
 305.0000      -0.63     50.25     -24.14     -29.52     -24.13     -29.53     -0.65     53.66     
 310.0000      -0.59     46.06     -25.75     -34.2     -25.74     -34.21     -0.6     49.19     
 315.0000      -0.55     42.22     -27.27     -38.49     -27.27     -38.5     -0.56     45.12     
 320.0000      -0.52     38.67     -28.72     -42.43     -28.71     -42.44     -0.53     41.39     
 325.0000      -0.49     35.36     -30.1     -46.1     -30.1     -46.1     -0.5     37.94     
 330.0000      -0.47     32.27     -31.42     -49.52     -31.41     -49.52     -0.47     34.72     
 335.0000      -0.45     29.37     -32.68     -52.72     -32.67     -52.69     -0.45     31.72     
 340.0000      -0.43     26.67     -33.89     -55.72     -33.88     -55.69     -0.43     28.89     
 345.0000      -0.41     24.11     -35.04     -58.56     -35.03     -58.51     -0.42     26.21     
 350.0000      -0.39     21.7     -36.14     -61.21     -36.13     -61.19     -0.4     23.69     
 355.0000      -0.38     19.41     -37.2     -63.73     -37.2     -63.7     -0.39     21.29     
 360.0000      -0.37     17.22     -38.22     -66.14     -38.22     -66.14     -0.38     19.01     
 365.0000      -0.36     15.12     -39.2     -68.46     -39.2     -68.43     -0.37     16.83     
 370.0000      -0.35     13.11     -40.15     -70.69     -40.15     -70.68     -0.36     14.74     
 375.0000      -0.34     11.19     -41.05     -72.81     -41.05     -72.79     -0.35     12.74     
 380.0000      -0.33     9.35     -41.92     -74.82     -41.92     -74.85     -0.34     10.81     
 385.0000      -0.33     7.58     -42.76     -76.84     -42.76     -76.88     -0.34     8.95     
 390.0000      -0.32     5.86     -43.58     -78.76     -43.56     -78.85     -0.33     7.15     
 395.0000      -0.32     4.19     -44.35     -80.58     -44.35     -80.65     -0.33     5.41     
 400.0000      -0.32     2.55     -45.1     -82.38     -45.11     -82.29     -0.33     3.72     
 405.0000      -0.31     0.97     -45.84     -84.17     -45.82     -84.1     -0.32     2.08     
 410.0000      -0.31     -0.57     -46.54     -85.8     -46.52     -85.65     -0.31     0.49     
 415.0000      -0.3     -2.06     -47.21     -87.43     -47.21     -87.36     -0.31     -1.05     
 420.0000      -0.3     -3.51     -47.85     -89.11     -47.88     -89.06     -0.3     -2.57     
 425.0000      -0.29     -4.9     -48.48     -90.66     -48.47     -90.65     -0.3     -4.04     
 430.0000      -0.29     -6.27     -49.11     -92.17     -49.09     -92.1     -0.3     -5.48     
 435.0000      -0.29     -7.61     -49.72     -93.73     -49.67     -93.68     -0.29     -6.88     
 440.0000      -0.28     -8.91     -50.26     -95.01     -50.24     -95.13     -0.29     -8.24     
 445.0000      -0.28     -10.2     -50.81     -96.58     -50.8     -96.46     -0.29     -9.58     
 450.0000      -0.28     -11.44     -51.35     -97.97     -51.36     -97.79     -0.29     -10.89     
 455.0000      -0.27     -12.66     -51.87     -99.11     -51.86     -99.28     -0.28     -12.17     
 460.0000      -0.27     -13.84     -52.39     -100.35     -52.39     -100.46     -0.28     -13.43     
 465.0000      -0.27     -15.02     -52.87     -101.76     -52.85     -101.53     -0.28     -14.67     
 470.0000      -0.27     -16.18     -53.34     -103.07     -53.35     -103.13     -0.28     -15.87     
 475.0000      -0.28     -17.32     -53.84     -104.23     -53.81     -104.66     -0.28     -17.07     
 480.0000      -0.28     -18.47     -54.27     -105.62     -54.26     -105.56     -0.28     -18.24     
 485.0000      -0.28     -19.59     -54.69     -106.99     -54.7     -106.87     -0.28     -19.39     
 490.0000      -0.27     -20.69     -55.13     -107.83     -55.12     -107.83     -0.28     -20.51     
 495.0000      -0.27     -21.76     -55.55     -109.15     -55.52     -109.16     -0.28     -21.63     
 500.0000      -0.27     -22.81     -55.95     -109.89     -55.9     -110.25     -0.28     -22.73     
 505.0000      -0.27     -23.84     -56.33     -111.35     -56.32     -111.44     -0.28     -23.81     
 510.0000      -0.27     -24.87     -56.73     -112.43     -56.74     -112.85     -0.27     -24.87     
 520.0000      -0.27     -26.87     -57.45     -114.52     -57.46     -114.73     -0.27     -26.94     
 530.0000      -0.26     -28.83     -58.19     -116.72     -58.14     -116.32     -0.27     -28.97     
 540.0000      -0.27     -30.73     -58.85     -118.42     -58.9     -118.52     -0.27     -30.94     
 550.0000      -0.27     -32.61     -59.52     -120.45     -59.52     -120.81     -0.27     -32.87     
 560.0000      -0.28     -34.5     -60.11     -122.45     -60.07     -122.24     -0.27     -34.76     
 570.0000      -0.27     -36.35     -60.82     -124.6     -60.73     -124.35     -0.27     -36.59     
 580.0000      -0.27     -38.13     -61.39     -126.34     -61.32     -126.85     -0.27     -38.42     
 590.0000      -0.28     -39.89     -61.95     -127.99     -61.93     -127.95     -0.28     -40.18     
 600.0000      -0.28     -41.62     -62.58     -129.38     -62.58     -130.01     -0.28     -41.92     
 610.0000      -0.28     -43.31     -63.11     -131.36     -63.13     -131.47     -0.28     -43.65     
 620.0000      -0.28     -44.99     -63.59     -133.45     -63.51     -133.95     -0.28     -45.34     
 630.0000      -0.29     -46.68     -64.15     -134.78     -64.14     -134.58     -0.29     -47.03     
 640.0000      -0.29     -48.38     -64.84     -136.55     -64.82     -136.37     -0.28     -48.67     
 650.0000      -0.29     -50.03     -65.32     -138.73     -65.35     -137.37     -0.28     -50.3     
 660.0000      -0.29     -51.65     -65.72     -140.42     -65.82     -139.41     -0.29     -51.9     
 670.0000      -0.29     -53.24     -66.5     -141.14     -66.43     -140.7     -0.29     -53.47     
 680.0000      -0.29     -54.82     -66.93     -143.51     -66.89     -143.74     -0.29     -55.05     
 690.0000      -0.29     -56.35     -67.31     -144.24     -67.26     -144.46     -0.3     -56.6     
 700.0000      -0.3     -57.88     -68.04     -144.45     -68.14     -144.99     -0.3     -58.16     
 710.0000      -0.31     -59.43     -68.57     -148.16     -68.45     -146.9     -0.3     -59.7     
 720.0000      -0.31     -61     -69.27     -149.34     -69.16     -149.63     -0.31     -61.21     
 730.0000      -0.31     -62.51     -69.92     -150.75     -69.72     -149.13     -0.31     -62.72     
 740.0000      -0.31     -64     -70.14     -151.69     -70.2     -152.6     -0.31     -64.2     
 750.0000      -0.32     -65.49     -71.14     -150.94     -71     -153.2     -0.31     -65.67     
 760.0000      -0.32     -66.95     -71.73     -156.06     -71.84     -153.35     -0.31     -67.13     
 770.0000      -0.32     -68.38     -72.13     -152.71     -72.23     -155.69     -0.32     -68.59     
 780.0000      -0.33     -69.82     -72.76     -155.97     -72.64     -154.52     -0.32     -70.06     
 790.0000      -0.33     -71.29     -73.85     -156.06     -73.53     -155.92     -0.33     -71.51     
 800.0000      -0.33     -72.74     -74.64     -156.69     -74.62     -158.99     -0.33     -72.94     
 810.0000      -0.34     -74.16     -75.52     -159.79     -75.47     -160.64     -0.33     -74.38     
 820.0000      -0.34     -75.57     -77.03     -160.99     -75.99     -157.27     -0.33     -75.78     
 830.0000      -0.34     -76.98     -76.36     -158.13     -76.6     -154.54     -0.34     -77.17     
 840.0000      -0.34     -78.36     -77.59     -158.89     -77.94     -154.34     -0.34     -78.56     
 850.0000      -0.35     -79.71     -78.79     -157.01     -78.68     -160.04     -0.35     -79.96     
 860.0000      -0.36     -81.08     -79.78     -158.52     -79.45     -157.02     -0.35     -81.36     
 870.0000      -0.36     -82.5     -81.61     -159.59     -81.76     -158.01     -0.35     -82.75     
 880.0000      -0.36     -83.9     -82.32     -156.73     -83.32     -155.06     -0.35     -84.14     
 890.0000      -0.36     -85.26     -82.97     -148.14     -83.43     -155.99     -0.36     -85.51     
 900.0000      -0.37     -86.62     -86.56     -154.64     -85.21     -147.1     -0.36     -86.85     
 910.0000      -0.37     -87.98     -86.21     -136.26     -85.06     -139.6     -0.36     -88.21     
 920.0000      -0.37     -89.29     -88.4     -141.09     -85.91     -126.25     -0.37     -89.54     
 930.0000      -0.38     -90.59     -89.05     -130.68     -86.97     -123.69     -0.37     -90.88     
 940.0000      -0.38     -91.92     -89.76     -110.16     -92.24     -112.87     -0.38     -92.23     
 950.0000      -0.39     -93.28     -90.71     -93.92     -90.76     -107.78     -0.38     -93.56     
 960.0000      -0.39     -94.6     -88.81     -76.54     -88.54     -93.43     -0.38     -94.91     
 970.0000      -0.39     -95.92     -89.39     -77.85     -88.61     -58.27     -0.38     -96.23     
 980.0000      -0.39     -97.23     -87.97     -61.79     -87.89     -69.91     -0.39     -97.53     
 990.0000      -0.39     -98.53     -88.11     -51.06     -88.2     -66.07     -0.39     -98.83     
1000.0000      -0.4     -99.8     -89.46     -42.45     -87.53     -35.86     -0.39     -100.13     
1025.0000      -0.41     -103.05     -83.69     -32.66     -85.09     -29.15     -0.4     -103.39     
1050.0000      -0.42     -106.25     -80.91     -28.79     -81.47     -24.31     -0.4     -106.63     
1075.0000      -0.42     -109.41     -79.25     -33.92     -78.77     -25.47     -0.41     -109.83     
1100.0000      -0.44     -112.58     -77.55     -36.45     -78.2     -33.08     -0.42     -113.02     
1125.0000      -0.44     -115.72     -76.95     -38.77     -77.1     -36.64     -0.43     -116.21     
1150.0000      -0.44     -118.82     -75.97     -39.26     -75.54     -39.23     -0.44     -119.33     
1175.0000      -0.46     -121.92     -74.86     -52.19     -74.88     -50.63     -0.45     -122.43     
1200.0000      -0.46     -125.02     -75.06     -51.06     -75.06     -51.82     -0.45     -125.54     
1225.0000      -0.47     -128.07     -74.94     -53.79     -75.31     -53.41     -0.46     -128.6     
1250.0000      -0.48     -131.09     -74.46     -57.21     -74.04     -60     -0.47     -131.66     
1275.0000      -0.49     -134.16     -74.45     -63.66     -74.42     -65.44     -0.47     -134.7     
1300.0000      -0.49     -137.17     -74.6     -69.89     -74.46     -69.06     -0.48     -137.69     
1325.0000      -0.5     -140.14     -75.31     -63.16     -75.06     -64.98     -0.49     -140.69     
1350.0000      -0.51     -143.18     -75.19     -64.06     -75.06     -62.6     -0.49     -143.71     
1375.0000      -0.51     -146.18     -73.69     -68.21     -73.8     -68.51     -0.5     -146.67     
1400.0000      -0.52     -149.12     -73.58     -76.05     -73.43     -74.36     -0.51     -149.64     
1425.0000      -0.52     -152.14     -74.43     -80.89     -74.15     -82.39     -0.51     -152.59     
1450.0000      -0.53     -155.1     -73.83     -72.91     -73.43     -76.05     -0.51     -155.5     
1475.0000      -0.54     -157.96     -72.78     -83.96     -72.6     -81.39     -0.52     -158.41     
1500.0000      -0.54     -160.92     -72.19     -91.2     -72.21     -90.33     -0.52     -161.32     
1525.0000      -0.55     -163.85     -70.59     -111.09     -70.79     -107.9     -0.53     -164.23     
1550.0000      -0.56     -166.68     -73.11     -140.86     -73.04     -143.1     -0.54     -167.13     
1575.0000      -0.56     -169.64     -77.71     -123.88     -78.12     -124.99     -0.54     -170.02     
1600.0000      -0.56     -172.53     -78.04     -131.66     -78.32     -132.04     -0.54     -172.89     
1625.0000      -0.56     -175.35     -77.95     -117.43     -78.16     -126.12     -0.55     -175.78     
1650.0000      -0.57     -178.26     -78.95     -124.01     -78.46     -120.34     -0.55     -178.63     
1675.0000      -0.57     178.87     -78.24     -128.34     -78.73     -127.3     -0.56     178.51     
1700.0000      -0.58     176.06     -77.01     -126.68     -77.87     -129.86     -0.56     175.64     
1725.0000      -0.58     173.17     -75.87     -146.97     -75.3     -148.47     -0.56     172.8     
1750.0000      -0.59     170.31     -76.39     -152.71     -76.45     -153.84     -0.57     169.97     
1775.0000      -0.58     167.52     -75.74     -174.21     -75.59     -173.77     -0.57     167.11     
1800.0000      -0.59     164.69     -75.14     160.44     -75.82     159.4     -0.57     164.3     
1825.0000      -0.59     161.86     -77.08     -174.07     -77.29     -167.08     -0.57     161.49     
1850.0000      -0.59     159.08     -72.06     147.21     -71.99     151.65     -0.58     158.66     
1875.0000      -0.6     156.28     -72.95     120.77     -72.87     122.49     -0.58     155.88     
1900.0000      -0.6     153.48     -73.1     97.92     -73.24     98.02     -0.58     153.12     
1925.0000      -0.6     150.7     -76.12     105.81     -75.51     99.04     -0.58     150.31     
1950.0000      -0.61     147.93     -74.54     102.03     -74.82     105.16     -0.59     147.52     
1975.0000      -0.6     145.16     -74.24     98.4     -74.72     100.69     -0.58     144.77     
2000.0000      -0.6     142.39     -74.32     92.64     -73.91     98.93     -0.59     142     
2025.0000      -0.61     139.66     -71.32     110.3     -71.85     109.8     -0.59     139.24     
2050.0000      -0.61     136.92     -68.31     91.04     -68.08     91.63     -0.58     136.53     
2075.0000      -0.61     134.2     -70.02     82.75     -70.11     83.64     -0.59     133.78     
2100.0000      -0.61     131.51     -67.04     81.42     -67     81.12     -0.59     131.02     
2125.0000      -0.61     128.77     -67.21     55.64     -67.23     55.41     -0.58     128.35     
2150.0000      -0.6     126.05     -69.28     50.56     -69.3     50.37     -0.59     125.63     
2175.0000      -0.61     123.38     -66.61     64.17     -66.62     63.58     -0.6     122.9     
2200.0000      -0.6     120.65     -66.92     45.79     -66.58     46.64     -0.58     120.23     
2225.0000      -0.6     117.99     -67.98     45.56     -67.98     46.4     -0.59     117.56     
2250.0000      -0.61     115.35     -67.95     60.73     -67.86     61.88     -0.6     114.81     
2275.0000      -0.6     112.65     -65.35     64.86     -65.48     64.44     -0.59     112.15     
2300.0000      -0.6     110.01     -64.37     58.5     -64.29     58.88     -0.59     109.54     
2325.0000      -0.61     107.39     -62.72     54.18     -62.83     55.41     -0.6     106.83     
2350.0000      -0.6     104.69     -61.68     45.75     -61.71     45.32     -0.59     104.15     
2375.0000      -0.6     102.05     -61.66     34.5     -61.74     35.28     -0.58     101.55     
2400.0000      -0.6     99.46     -61.69     27.2     -61.76     27.3     -0.59     98.87     
2425.0000      -0.6     96.78     -63.46     23.88     -63.42     24.96     -0.59     96.18     
2450.0000      -0.6     94.13     -64.31     31.53     -64.25     31.85     -0.58     93.58     
2475.0000      -0.6     91.54     -60.96     56.21     -60.9     55.66     -0.6     90.91     
2500.0000      -0.6     88.92     -59.38     31.5     -59.26     31.66     -0.59     88.25     
2525.0000      -0.6     86.3     -60.84     23.2     -60.82     22.87     -0.58     85.65     
2550.0000      -0.6     83.68     -60     36.69     -60.06     35.96     -0.59     83     
2575.0000      -0.6     81.06     -59.02     41.9     -59.1     41.8     -0.6     80.32     
2600.0000      -0.6     78.47     -57.19     37.66     -57.13     37.79     -0.59     77.73     
2625.0000      -0.6     75.88     -55.17     28.15     -55.16     28     -0.59     75.11     
2650.0000      -0.6     73.29     -55.74     25.54     -55.79     25.25     -0.59     72.42     
2675.0000      -0.6     70.73     -53.7     16.39     -53.7     16.28     -0.59     69.87     
2700.0000      -0.59     68.1     -53.76     11.46     -53.83     11.24     -0.59     67.26     
2725.0000      -0.6     65.52     -53.85     0.41     -53.89     0.27     -0.59     64.6     
2750.0000      -0.59     62.94     -55.57     3.49     -55.56     2.63     -0.58     61.98     
2775.0000      -0.6     60.31     -51.07     11.97     -51.12     11.76     -0.6     59.45     
2800.0000      -0.6     57.73     -51.45     -6.04     -51.43     -6.07     -0.6     56.81     
2825.0000      -0.59     55.18     -51.69     -11.38     -51.67     -11.59     -0.59     54.21     
2850.0000      -0.6     52.56     -52.16     -13.63     -52.08     -14.11     -0.6     51.61     
2875.0000      -0.6     49.98     -50.99     -13.54     -50.97     -13.6     -0.61     48.98     
2900.0000      -0.59     47.41     -50.37     -18.21     -50.37     -18.42     -0.59     46.39     
2925.0000      -0.59     44.8     -50.18     -26.67     -50.23     -26.76     -0.59     43.82     
2950.0000      -0.59     42.18     -50.72     -29.78     -50.73     -29.92     -0.6     41.11     
2975.0000      -0.59     39.55     -51.31     -25.12     -51.3     -25.36     -0.59     38.47     
3000.0000      -0.6     36.98     -49.14     -19.11     -49.14     -19.37     -0.6     35.9     
3025.0000      -0.61     34.39     -47.19     -27.02     -47.17     -27.15     -0.61     33.28     
3050.0000      -0.59     31.81     -47.5     -47.47     -47.5     -47.54     -0.59     30.62     
3075.0000      -0.59     29.19     -48.69     -52.51     -48.7     -52.55     -0.59     28.02     
3100.0000      -0.6     26.51     -49.04     -41.31     -49.05     -41.21     -0.61     25.32     
3125.0000      -0.6     23.9     -47.92     -49.03     -47.93     -49.12     -0.6     22.64     
3150.0000      -0.6     21.26     -48.35     -49.04     -48.33     -49.14     -0.6     20.04     
3175.0000      -0.6     18.63     -47.51     -51.27     -47.51     -51.37     -0.62     17.36     
3200.0000      -0.6     15.91     -47.72     -48.94     -47.72     -49.08     -0.62     14.6     
3225.0000      -0.6     13.28     -46.36     -51.41     -46.36     -51.57     -0.62     12.04     
3250.0000      -0.6     10.62     -46.35     -54.63     -46.35     -54.7     -0.63     9.4     
3275.0000      -0.62     7.89     -44.61     -48.03     -44.62     -48.24     -0.65     6.67     
3300.0000      -0.62     5.24     -43.91     -66.23     -43.92     -66.37     -0.62     4.11     
3325.0000      -0.62     2.55     -44.63     -67.99     -44.62     -67.96     -0.63     1.37     
3350.0000      -0.63     -0.11     -43.5     -71.17     -43.51     -71.32     -0.64     -1.4     
3375.0000      -0.63     -2.88     -44.03     -79.36     -44.02     -79.59     -0.63     -4.13     
3400.0000      -0.63     -5.66     -44.75     -76.9     -44.76     -77.1     -0.64     -6.88     
3425.0000      -0.66     -8.48     -43.41     -61.34     -43.42     -61.42     -0.67     -9.74     
3450.0000      -0.68     -11.17     -41.63     -69.82     -41.63     -69.93     -0.66     -12.39     
3475.0000      -0.67     -13.79     -40.04     -80.62     -40.04     -80.85     -0.67     -14.99     
3500.0000      -0.67     -16.67     -41.34     -87.92     -41.36     -88.12     -0.67     -17.91     
3525.0000      -0.7     -19.36     -38.42     -83.62     -38.44     -83.71     -0.7     -20.61     
3550.0000      -0.68     -22.16     -37.74     -100.06     -37.75     -100.21     -0.7     -23.25     
3575.0000      -0.68     -25.09     -38.16     -109.27     -38.18     -109.48     -0.7     -26.11     
3600.0000      -0.7     -28.03     -38.31     -114.28     -38.32     -114.43     -0.69     -29.05     
3625.0000      -0.72     -31.05     -38.95     -119.73     -38.97     -119.95     -0.7     -31.86     
3650.0000      -0.74     -33.92     -38.52     -114.2     -38.54     -114.33     -0.74     -34.72     
3675.0000      -0.79     -36.79     -37.42     -120.24     -37.43     -120.33     -0.75     -37.52     
3700.0000      -0.81     -39.65     -37.13     -128.46     -37.14     -128.7     -0.76     -40.25     
3725.0000      -0.83     -42.48     -37.05     -130.59     -37.06     -130.76     -0.79     -43.04     
3750.0000      -0.84     -45.19     -36.02     -135.04     -36.03     -135.18     -0.79     -45.69     
3775.0000      -0.83     -48.2     -36.02     -144.07     -36.03     -144.24     -0.76     -48.55     
3800.0000      -0.84     -51.4     -37.01     -148.56     -37.01     -148.7     -0.77     -51.55     
3825.0000      -0.85     -54.52     -37.03     -148.5     -37.03     -148.59     -0.78     -54.62     
3850.0000      -0.9     -57.78     -37.02     -141.49     -37.01     -141.63     -0.8     -57.59     
3875.0000      -0.92     -60.83     -34.39     -146.37     -34.4     -146.53     -0.83     -60.25     
3900.0000      -0.94     -64.28     -34.47     -155.34     -34.47     -155.49     -0.83     -63.3     
3925.0000      -1.02     -67.67     -33.53     -156.87     -33.54     -157.06     -0.84     -66.22     
3950.0000      -1.09     -71.16     -33.13     -162.6     -33.13     -162.72     -0.87     -69.19     
3975.0000      -1.19     -74.6     -31.43     -167.28     -31.43     -167.36     -0.89     -72.06     
4000.0000      -1.35     -78.17     -30.56     -174.62     -30.56     -174.74     -0.89     -75.08     
4025.0000      -1.53     -81.78     -29.71     173.6     -29.72     173.47     -0.9     -77.92     
4050.0000      -1.85     -85.31     -28.97     163.69     -28.98     163.6     -0.94     -80.96     
4075.0000      -2.27     -87.86     -28.25     149.08     -28.25     148.98     -0.94     -84.01     
4100.0000      -2.74     -88.84     -27.84     131.49     -27.86     131.42     -0.93     -86.87     
4125.0000      -2.98     -87.47     -28.45     111.38     -28.46     111.29     -0.96     -90.04     
4150.0000      -2.77     -86.59     -30.83     92.51     -30.83     92.37     -1     -93.14     
4175.0000      -2.36     -87.52     -33.09     87.79     -33.09     87.69     -0.97     -95.78     
4200.0000      -1.99     -90.16     -36.21     84.85     -36.22     84.76     -0.99     -99     
4225.0000      -1.73     -93.55     -38.04     93.6     -38.06     93.5     -0.97     -102.28     
4250.0000      -1.55     -97.36     -39.03     99.02     -39.04     98.97     -0.98     -105.58     
4275.0000      -1.45     -101.22     -41.02     107.5     -41.02     107.52     -1.03     -108.98     
4300.0000      -1.42     -104.88     -39.5     147.18     -39.51     147.04     -1.11     -112.23     
4325.0000      -1.35     -108.44     -35.14     134.31     -35.15     134.15     -1.12     -115.39     
4350.0000      -1.33     -112.13     -33.76     128.23     -33.76     128.09     -1.19     -118.56     
4375.0000      -1.32     -115.89     -32.6     118.2     -32.6     118.05     -1.25     -122     
4400.0000      -1.36     -119.85     -32.35     109.4     -32.36     109.3     -1.35     -125.41     
4425.0000      -1.46     -123.2     -31.15     106.67     -31.16     106.54     -1.52     -128.26     
4450.0000      -1.48     -126.43     -29.86     89.81     -29.86     89.67     -1.65     -130.91     
4475.0000      -1.54     -129.9     -30.1     71.85     -30.1     71.74     -1.74     -133.11     
4500.0000      -1.6     -133.11     -31.12     57.33     -31.12     57.21     -1.78     -135.12     
4525.0000      -1.66     -136.28     -33.5     40.21     -33.5     40.09     -1.73     -137.68     
4550.0000      -1.69     -139.19     -37.34     50.31     -37.34     50.19     -1.69     -140.1     
4575.0000      -1.68     -142.56     -37.84     55.17     -37.84     55.06     -1.62     -142.8     
4600.0000      -1.7     -145.94     -39.26     62.51     -39.23     62.36     -1.55     -145.86     
4625.0000      -1.72     -149.44     -39.41     74.26     -39.4     74.2     -1.47     -149.08     
4650.0000      -1.78     -153.03     -38.69     86.4     -38.68     86.34     -1.43     -152.31     
4675.0000      -1.87     -156.38     -36.9     88.98     -36.89     88.82     -1.41     -155.79     
4700.0000      -1.98     -159.44     -36.12     97.09     -36.1     96.96     -1.39     -159.11     
4725.0000      -2.04     -162.19     -34.08     97.36     -34.07     97.32     -1.37     -162.53     
4750.0000      -1.98     -164.66     -32.25     89.06     -32.25     88.94     -1.36     -165.96     
4775.0000      -1.88     -168.2     -32.02     84.14     -32.01     84.04     -1.34     -169.67     
4800.0000      -1.84     -171.97     -30.91     85.87     -30.92     85.83     -1.38     -173.24     
4825.0000      -1.82     -175.76     -28.96     79.81     -28.95     79.71     -1.38     -176.66     
4850.0000      -1.79     -179.93     -28.38     73.17     -28.37     73.08     -1.4     179.54     
4875.0000      -1.8     175.87     -27.55     68.48     -27.54     68.39     -1.44     175.87     
4900.0000      -1.86     171.48     -26.59     63.85     -26.59     63.79     -1.51     172.29     
4925.0000      -1.94     167.03     -25.48     59.06     -25.47     58.96     -1.55     168.7     
4950.0000      -2.04     162.58     -24.39     52.53     -24.39     52.48     -1.59     164.93     
4975.0000      -2.17     157.93     -23.22     44.42     -23.22     44.36     -1.68     160.82     
5000.0000      -2.34     153.09     -22.4     36.12     -22.4     36.03     -1.78     157.09     
5025.0000      -2.57     148.11     -21.41     28.68     -21.41     28.59     -1.88     153.07     
5050.0000      -2.89     143.05     -20.32     19.96     -20.31     19.87     -2.06     148.74     
5075.0000      -3.33     137.86     -19.33     10.54     -19.33     10.47     -2.31     144.38     
5100.0000      -3.85     132.96     -18.06     -0.6     -18.06     -0.67     -2.63     140.46     
5125.0000      -4.6     128.43     -17.02     -13.55     -17.02     -13.6     -3.06     136.97     
5150.0000      -5.52     125.01     -16.04     -28.29     -16.03     -28.34     -3.54     133.86     
5175.0000      -6.57     123.48     -15.29     -45.11     -15.29     -45.15     -4.11     132.06     
5200.0000      -7.65     124.8     -14.9     -63.61     -14.9     -63.63     -4.68     131.96     
5225.0000      -8.52     128.51     -14.93     -82.98     -14.93     -83.02     -5     133.27     
5250.0000      -9.05     133.93     -15.47     -102.48     -15.47     -102.51     -5.03     135.26     
5275.0000      -9.2     140.64     -16.46     -121.5     -16.46     -121.5     -4.78     136.38     
5300.0000      -8.76     147.92     -17.94     -139.2     -17.94     -139.23     -4.38     136.08     
5325.0000      -7.71     152.32     -19.93     -154.05     -19.93     -154.07     -3.92     134.53     
5350.0000      -6.47     152.62     -22.09     -165.19     -22.09     -165.19     -3.53     131.92     
5375.0000      -5.43     150.32     -24.33     -172.9     -24.33     -172.94     -3.21     128.71     
5400.0000      -4.6     146.38     -26.3     -177.32     -26.3     -177.34     -2.97     125.25     
5425.0000      -3.96     141.57     -28.26     178.78     -28.26     178.78     -2.75     121.91     
5450.0000      -3.5     136.69     -30.17     179.26     -30.17     179.25     -2.57     117.89     
5475.0000      -3.16     131.76     -31.84     -177.94     -31.84     -177.95     -2.44     114.06     
5500.0000      -2.92     127.08     -32.64     -172.83     -32.65     -172.85     -2.32     110.15     
