! Mini-Circuits								
! S2P DATA File Format								
! Type: BAND PASS FILTER								
! Model: RBP-188+								
! All S Parameters are in dB deg format								
! TEST CONDITIONS: INPUT POWER = 0 dBm @ Temperature = +25deg C								
! 500 Frequency points
!
# MHz S dB R 50
!Frequency     S11 dB   S11 DEG  S21 dB   S21 DEG  S12 dB   S12 DEG  S22 dB   S22 DEG  
   1.0000      0     -0.67     -90.54     147.61     -89.65     32.71     0     -0.66     
   2.0000      0     -1.3     -89.1     -59.9     -89.19     -4.39     0     -1.29     
   3.0000      0     -1.96     -90.64     -102.74     -95.1     7.65     0     -1.94     
   4.0000      0     -2.6     -92.38     150.41     -86.95     -135.15     0     -2.59     
   5.0000      0     -3.26     -97.21     115.3     -92.12     67.14     0     -3.26     
   6.0000      0     -3.9     -98.7     7.07     -82.35     124.09     0     -3.9     
   7.0000      0     -4.55     -92.71     -73.62     -88.56     -85.72     0     -4.55     
   8.0000      0     -5.2     -89.74     2.45     -89.55     26.34     0     -5.2     
   9.0000      0     -5.84     -91.33     72.97     -87.36     -134.19     0     -5.85     
  10.0000      0     -6.5     -103.58     14.69     -122.36     -90.67     0     -6.51     
  12.0000      0     -7.81     -117.51     133.43     -104.97     134.44     0     -7.82     
  14.0000      0     -9.12     -95.82     94.51     -99.46     -50.27     0     -9.13     
  16.0000      0     -10.44     -107.82     154.04     -100.34     -2.4     0     -10.46     
  18.0000      0     -11.77     -103.51     49.77     -104.61     143.35     -0.01     -11.78     
  20.0000      -0.01     -13.11     -110.66     -36.19     -110.51     148.06     -0.01     -13.12     
  22.0000      -0.01     -14.47     -117.51     131.88     -108.34     115.61     -0.01     -14.48     
  24.0000      -0.01     -15.83     -89.21     96.7     -90.3     -155.23     -0.01     -15.84     
  26.0000      -0.01     -17.2     -108.65     87.03     -99.56     49.32     -0.01     -17.22     
  28.0000      -0.01     -18.6     -99.52     55.73     -117.81     71.88     -0.01     -18.61     
  30.0000      -0.01     -20     -94.63     73.5     -94.42     21.44     -0.01     -20.01     
  32.0000      -0.02     -21.42     -91.05     52.09     -94.34     53.65     -0.02     -21.43     
  34.0000      -0.02     -22.86     -91.94     59.85     -91.97     40.29     -0.02     -22.87     
  36.0000      -0.02     -24.32     -86.55     53.28     -87.03     52.92     -0.02     -24.33     
  38.0000      -0.02     -25.8     -84.78     49.89     -84.1     52.47     -0.02     -25.81     
  40.0000      -0.03     -27.31     -81.38     51.91     -80.87     58.5     -0.03     -27.32     
  42.0000      -0.03     -28.85     -78.86     50.08     -79.46     53.32     -0.03     -28.86     
  44.0000      -0.03     -30.42     -76.55     52.19     -76.63     52.81     -0.03     -30.43     
  46.0000      -0.04     -32.01     -74.08     49.53     -73.83     52.27     -0.03     -32.02     
  48.0000      -0.04     -33.64     -72.02     47.15     -71.75     50.58     -0.04     -33.65     
  50.0000      -0.04     -35.31     -69.56     46.66     -69.67     47.6     -0.04     -35.32     
  52.0000      -0.05     -37.01     -67.67     45.46     -67.58     45.85     -0.05     -37.02     
  54.0000      -0.06     -38.77     -65.63     44.06     -65.46     43.47     -0.05     -38.75     
  56.0000      -0.06     -40.55     -63.52     42.18     -63.53     41.51     -0.06     -40.54     
  58.0000      -0.07     -42.4     -61.55     40.02     -61.48     40.14     -0.06     -42.37     
  60.0000      -0.08     -44.3     -59.59     37.92     -59.61     38.37     -0.07     -44.24     
  62.0000      -0.08     -46.24     -57.66     36.35     -57.65     35.98     -0.08     -46.18     
  64.0000      -0.09     -48.26     -55.77     34.09     -55.8     34.07     -0.09     -48.17     
  66.0000      -0.1     -50.33     -53.93     32.03     -53.94     31.79     -0.1     -50.23     
  68.0000      -0.11     -52.47     -52.12     29.8     -52.15     29.8     -0.11     -52.36     
  70.0000      -0.12     -54.7     -50.37     27.31     -50.35     27.34     -0.12     -54.57     
  72.0000      -0.13     -57.01     -48.55     24.87     -48.56     25.05     -0.13     -56.85     
  74.0000      -0.14     -59.39     -46.79     22.44     -46.8     22.52     -0.14     -59.22     
  76.0000      -0.16     -61.88     -45.02     19.85     -45.03     19.86     -0.15     -61.69     
  78.0000      -0.17     -64.48     -43.29     17.07     -43.29     17.08     -0.16     -64.25     
  80.0000      -0.19     -67.19     -41.54     14.23     -41.54     14.2     -0.18     -66.95     
  82.0000      -0.21     -70.04     -39.81     11.21     -39.81     11.21     -0.2     -69.76     
  84.0000      -0.23     -73.01     -38.06     8.04     -38.07     8.05     -0.22     -72.71     
  86.0000      -0.26     -76.15     -36.33     4.69     -36.33     4.69     -0.24     -75.81     
  88.0000      -0.29     -79.47     -34.57     1.16     -34.58     1.14     -0.27     -79.09     
  90.0000      -0.32     -82.97     -32.82     -2.58     -32.82     -2.6     -0.3     -82.56     
  92.0000      -0.36     -86.7     -31.06     -6.56     -31.06     -6.56     -0.34     -86.24     
  94.0000      -0.4     -90.67     -29.28     -10.79     -29.28     -10.78     -0.38     -90.18     
  96.0000      -0.45     -94.94     -27.49     -15.34     -27.49     -15.35     -0.43     -94.38     
  98.0000      -0.52     -99.51     -25.68     -20.25     -25.68     -20.25     -0.49     -98.91     
 100.0000      -0.59     -104.46     -23.86     -25.54     -23.86     -25.53     -0.56     -103.79     
 102.0000      -0.68     -109.83     -22.02     -31.3     -22.02     -31.29     -0.64     -109.11     
 104.0000      -0.79     -115.68     -20.16     -37.57     -20.16     -37.56     -0.75     -114.9     
 106.0000      -0.92     -122.09     -18.29     -44.48     -18.29     -44.46     -0.89     -121.28     
 108.0000      -1.1     -129.17     -16.41     -52.08     -16.42     -52.06     -1.06     -128.31     
 110.0000      -1.33     -137.01     -14.54     -60.52     -14.54     -60.49     -1.29     -136.12     
 112.0000      -1.64     -145.73     -12.69     -69.88     -12.69     -69.86     -1.6     -144.82     
 114.0000      -2.06     -155.42     -10.88     -80.29     -10.88     -80.25     -2.03     -154.53     
 116.0000      -2.63     -166.16     -9.16     -91.79     -9.16     -91.77     -2.6     -165.32     
 118.0000      -3.4     -177.91     -7.57     -104.4     -7.57     -104.39     -3.39     -177.21     
 119.0000      -3.88     175.86     -6.83     -111.07     -6.83     -111.07     -3.88     176.47     
 120.0000      -4.42     169.45     -6.15     -117.96     -6.15     -117.95     -4.44     169.92     
 121.0000      -5.05     162.9     -5.53     -125.01     -5.53     -125     -5.08     163.19     
 122.0000      -5.75     156.26     -4.96     -132.17     -4.96     -132.17     -5.81     156.31     
 123.0000      -6.53     149.56     -4.45     -139.39     -4.45     -139.39     -6.63     149.32     
 124.0000      -7.4     142.89     -4     -146.62     -4     -146.62     -7.53     142.25     
 125.0000      -8.34     136.29     -3.61     -153.8     -3.61     -153.8     -8.52     135.15     
 126.0000      -9.34     129.78     -3.28     -160.89     -3.28     -160.89     -9.6     128.02     
 127.0000      -10.42     123.41     -2.99     -167.83     -2.99     -167.84     -10.75     120.84     
 128.0000      -11.55     117.2     -2.75     -174.63     -2.75     -174.63     -11.98     113.62     
 129.0000      -12.72     111.16     -2.55     178.76     -2.55     178.76     -13.27     106.29     
 130.0000      -13.93     105.28     -2.38     172.33     -2.38     172.33     -14.61     98.8     
 131.0000      -15.16     99.57     -2.24     166.1     -2.24     166.1     -16     91.06     
 132.0000      -16.39     93.95     -2.12     160.06     -2.12     160.06     -17.41     82.9     
 133.0000      -17.6     88.48     -2.02     154.2     -2.02     154.21     -18.83     74.27     
 134.0000      -18.77     83.02     -1.93     148.53     -1.94     148.54     -20.2     64.91     
 135.0000      -19.9     77.63     -1.86     143.01     -1.86     143.02     -21.5     54.9     
 136.0000      -20.96     72.25     -1.8     137.66     -1.8     137.67     -22.66     44.26     
 137.0000      -21.91     66.83     -1.75     132.45     -1.75     132.46     -23.64     33.04     
 138.0000      -22.76     61.47     -1.7     127.37     -1.7     127.38     -24.38     21.68     
 139.0000      -23.5     56.12     -1.66     122.42     -1.66     122.44     -24.9     10.61     
 140.0000      -24.1     50.8     -1.62     117.59     -1.62     117.6     -25.2     0.23     
 141.0000      -24.57     45.7     -1.59     112.87     -1.59     112.88     -25.32     -9.3     
 142.0000      -24.96     40.77     -1.56     108.25     -1.56     108.26     -25.34     -17.76     
 143.0000      -25.22     36.01     -1.53     103.72     -1.53     103.73     -25.29     -25.28     
 144.0000      -25.41     31.66     -1.51     99.28     -1.51     99.29     -25.21     -32.07     
 145.0000      -25.53     27.53     -1.48     94.92     -1.48     94.94     -25.14     -38.07     
 146.0000      -25.62     23.62     -1.46     90.64     -1.46     90.65     -25.09     -43.62     
 147.0000      -25.67     20.26     -1.44     86.43     -1.45     86.44     -25.04     -48.85     
 148.0000      -25.72     17.11     -1.43     82.29     -1.43     82.3     -25.06     -53.77     
 149.0000      -25.77     14.43     -1.41     78.21     -1.41     78.22     -25.09     -58.41     
 150.0000      -25.87     11.81     -1.4     74.19     -1.4     74.2     -25.19     -63.11     
 151.0000      -25.96     9.56     -1.38     70.23     -1.38     70.24     -25.32     -67.82     
 152.0000      -26.07     7.96     -1.37     66.32     -1.37     66.33     -25.51     -72.55     
 153.0000      -26.23     6.69     -1.36     62.45     -1.36     62.47     -25.74     -77.55     
 154.0000      -26.43     5.93     -1.34     58.64     -1.35     58.65     -26.05     -82.68     
 155.0000      -26.64     5.64     -1.33     54.87     -1.34     54.89     -26.4     -88.12     
 156.0000      -26.88     5.93     -1.32     51.14     -1.33     51.16     -26.84     -94.26     
 157.0000      -27.1     6.87     -1.31     47.46     -1.32     47.47     -27.32     -100.77     
 158.0000      -27.34     8.55     -1.3     43.81     -1.31     43.82     -27.85     -108.3     
 159.0000      -27.55     11.07     -1.3     40.2     -1.3     40.21     -28.42     -116.47     
 160.0000      -27.69     14.07     -1.29     36.62     -1.29     36.63     -29     -125.77     
 161.0000      -27.73     17.83     -1.28     33.07     -1.28     33.08     -29.5     -136.61     
 162.0000      -27.63     21.87     -1.28     29.56     -1.28     29.57     -29.87     -148.75     
 163.0000      -27.43     26.18     -1.27     26.08     -1.27     26.09     -30.03     -161.67     
 164.0000      -27.08     30.3     -1.27     22.62     -1.27     22.63     -29.95     -175.43     
 165.0000      -26.61     34.24     -1.26     19.2     -1.26     19.21     -29.52     170.93     
 166.0000      -26.03     37.44     -1.26     15.8     -1.26     15.81     -28.88     158.45     
 167.0000      -25.39     40     -1.26     12.43     -1.26     12.44     -28.06     147.35     
 168.0000      -24.75     42.23     -1.25     9.08     -1.25     9.09     -27.16     137.47     
 169.0000      -24.08     43.38     -1.25     5.77     -1.25     5.77     -26.25     128.84     
 170.0000      -23.4     44.22     -1.25     2.47     -1.25     2.47     -25.35     121.15     
 171.0000      -22.75     44.52     -1.25     -0.8     -1.25     -0.8     -24.48     114.5     
 172.0000      -22.13     44.43     -1.25     -4.06     -1.25     -4.05     -23.67     108.44     
 173.0000      -21.53     44.01     -1.26     -7.29     -1.26     -7.28     -22.91     102.87     
 174.0000      -20.99     43.18     -1.26     -10.49     -1.26     -10.49     -22.21     97.91     
 175.0000      -20.45     42.09     -1.26     -13.68     -1.26     -13.68     -21.56     93.16     
 176.0000      -19.97     40.84     -1.26     -16.84     -1.26     -16.84     -20.97     88.8     
 177.0000      -19.51     39.36     -1.27     -19.98     -1.27     -19.99     -20.42     84.67     
 178.0000      -19.09     37.82     -1.27     -23.11     -1.27     -23.12     -19.92     80.71     
 179.0000      -18.7     36.02     -1.28     -26.22     -1.28     -26.22     -19.48     76.97     
 180.0000      -18.36     34.15     -1.28     -29.31     -1.28     -29.31     -19.06     73.41     
 181.0000      -18.05     32.21     -1.29     -32.38     -1.29     -32.39     -18.68     69.88     
 182.0000      -17.76     30.13     -1.29     -35.44     -1.29     -35.44     -18.34     66.56     
 183.0000      -17.5     27.98     -1.3     -38.48     -1.3     -38.48     -18.05     63.3     
 184.0000      -17.28     25.76     -1.3     -41.51     -1.3     -41.51     -17.78     60.16     
 185.0000      -17.08     23.49     -1.31     -44.53     -1.31     -44.53     -17.54     57.07     
 186.0000      -16.91     21.15     -1.31     -47.53     -1.31     -47.53     -17.34     54.09     
 187.0000      -16.77     18.75     -1.31     -50.52     -1.31     -50.52     -17.17     51.21     
 188.0000      -16.66     16.26     -1.32     -53.5     -1.32     -53.5     -17.02     48.35     
 189.0000      -16.57     13.79     -1.32     -56.48     -1.32     -56.48     -16.9     45.58     
 190.0000      -16.51     11.23     -1.32     -59.44     -1.32     -59.44     -16.81     42.88     
 191.0000      -16.48     8.62     -1.32     -62.4     -1.32     -62.4     -16.75     40.24     
 192.0000      -16.48     5.96     -1.32     -65.35     -1.33     -65.35     -16.72     37.67     
 193.0000      -16.5     3.26     -1.32     -68.3     -1.33     -68.3     -16.72     35.15     
 194.0000      -16.55     0.52     -1.33     -71.24     -1.33     -71.24     -16.74     32.76     
 195.0000      -16.64     -2.28     -1.33     -74.18     -1.33     -74.18     -16.79     30.39     
 196.0000      -16.75     -5.17     -1.32     -77.12     -1.33     -77.12     -16.86     28.11     
 197.0000      -16.89     -8.11     -1.32     -80.06     -1.32     -80.06     -16.97     25.92     
 198.0000      -17.06     -11.05     -1.32     -83     -1.32     -83     -17.1     23.84     
 199.0000      -17.26     -14.12     -1.32     -85.94     -1.32     -85.93     -17.26     21.81     
 200.0000      -17.51     -17.27     -1.32     -88.88     -1.32     -88.88     -17.45     19.9     
 201.0000      -17.78     -20.54     -1.32     -91.82     -1.32     -91.82     -17.67     18.1     
 202.0000      -18.09     -23.89     -1.32     -94.77     -1.32     -94.76     -17.92     16.44     
 203.0000      -18.45     -27.38     -1.32     -97.72     -1.32     -97.72     -18.2     14.93     
 204.0000      -18.84     -30.97     -1.31     -100.68     -1.32     -100.67     -18.51     13.62     
 205.0000      -19.29     -34.81     -1.31     -103.64     -1.32     -103.64     -18.85     12.47     
 206.0000      -19.78     -38.75     -1.31     -106.61     -1.32     -106.61     -19.22     11.54     
 207.0000      -20.32     -43.09     -1.31     -109.59     -1.32     -109.58     -19.63     10.9     
 208.0000      -20.92     -47.63     -1.31     -112.57     -1.32     -112.57     -20.06     10.6     
 209.0000      -21.58     -52.69     -1.32     -115.57     -1.32     -115.56     -20.5     10.66     
 210.0000      -22.3     -58.12     -1.32     -118.57     -1.32     -118.56     -20.97     10.96     
 211.0000      -23.08     -64.22     -1.32     -121.58     -1.32     -121.56     -21.45     11.75     
 212.0000      -23.91     -71.29     -1.32     -124.59     -1.33     -124.58     -21.94     13.03     
 213.0000      -24.76     -79.34     -1.33     -127.62     -1.33     -127.61     -22.4     14.87     
 214.0000      -25.62     -88.46     -1.33     -130.65     -1.34     -130.64     -22.83     17.27     
 215.0000      -26.44     -99.24     -1.34     -133.7     -1.34     -133.68     -23.2     20.11     
 216.0000      -27.06     -111.54     -1.35     -136.75     -1.35     -136.74     -23.5     23.24     
 217.0000      -27.47     -125.14     -1.36     -139.82     -1.36     -139.8     -23.71     26.9     
 218.0000      -27.51     -138.75     -1.37     -142.9     -1.37     -142.88     -23.84     30.32     
 219.0000      -27.24     -152.02     -1.38     -145.98     -1.38     -145.97     -23.85     33.63     
 220.0000      -26.68     -163.93     -1.39     -149.09     -1.39     -149.07     -23.74     36.84     
 221.0000      -26.03     -174.45     -1.4     -152.2     -1.4     -152.18     -23.59     39.4     
 222.0000      -25.28     176.65     -1.41     -155.32     -1.41     -155.31     -23.38     41.5     
 223.0000      -24.54     169.17     -1.43     -158.46     -1.43     -158.45     -23.17     43.09     
 224.0000      -23.83     162.72     -1.44     -161.62     -1.44     -161.6     -22.92     43.92     
 225.0000      -23.17     157.4     -1.46     -164.79     -1.46     -164.77     -22.74     44.12     
 226.0000      -22.58     152.83     -1.47     -167.98     -1.47     -167.97     -22.57     43.83     
 227.0000      -22.05     148.97     -1.49     -171.19     -1.49     -171.18     -22.45     43.09     
 228.0000      -21.61     145.68     -1.5     -174.43     -1.5     -174.41     -22.4     41.68     
 229.0000      -21.2     142.94     -1.52     -177.68     -1.52     -177.66     -22.41     39.84     
 230.0000      -20.86     140.71     -1.54     179.04     -1.54     179.05     -22.52     37.48     
 231.0000      -20.56     138.99     -1.56     175.73     -1.56     175.74     -22.72     34.56     
 232.0000      -20.3     137.85     -1.58     172.38     -1.58     172.4     -23.04     30.99     
 233.0000      -20.08     137.21     -1.6     169.01     -1.6     169.02     -23.49     26.74     
 234.0000      -19.88     137.15     -1.62     165.59     -1.62     165.61     -24.09     21.34     
 235.0000      -19.68     137.66     -1.64     162.13     -1.64     162.15     -24.88     14.68     
 236.0000      -19.47     138.75     -1.67     158.63     -1.67     158.64     -25.88     5.96     
 237.0000      -19.21     140.33     -1.7     155.08     -1.7     155.09     -27.05     -5.98     
 238.0000      -18.9     142.47     -1.73     151.47     -1.73     151.49     -28.2     -22.86     
 239.0000      -18.51     144.9     -1.77     147.81     -1.77     147.82     -28.88     -45.86     
 240.0000      -18.03     147.53     -1.81     144.09     -1.81     144.11     -28.3     -71.97     
 241.0000      -17.44     150.19     -1.85     140.31     -1.85     140.32     -26.55     -94.88     
 242.0000      -16.76     152.59     -1.91     136.46     -1.91     136.48     -24.34     -111.98     
 243.0000      -15.99     154.62     -1.97     132.55     -1.97     132.56     -22.14     -124.48     
 244.0000      -15.18     156.17     -2.04     128.57     -2.04     128.58     -20.12     -134.18     
 245.0000      -14.32     157.13     -2.12     124.52     -2.12     124.54     -18.3     -142.11     
 246.0000      -13.43     157.55     -2.22     120.41     -2.22     120.42     -16.67     -148.96     
 247.0000      -12.55     157.38     -2.33     116.24     -2.33     116.25     -15.2     -155.12     
 248.0000      -11.68     156.73     -2.45     112.01     -2.45     112.03     -13.86     -160.84     
 249.0000      -10.83     155.62     -2.59     107.73     -2.59     107.75     -12.65     -166.24     
 250.0000      -10.02     154.09     -2.75     103.42     -2.75     103.44     -11.55     -171.42     
 251.0000      -9.25     152.25     -2.93     99.07     -2.94     99.09     -10.54     -176.44     
 252.0000      -8.52     150.08     -3.14     94.71     -3.14     94.73     -9.62     178.67     
 253.0000      -7.83     147.69     -3.36     90.35     -3.36     90.38     -8.77     173.88     
 254.0000      -7.19     145.09     -3.61     86     -3.61     86.02     -8.01     169.2     
 255.0000      -6.6     142.33     -3.88     81.67     -3.88     81.7     -7.31     164.6     
 256.0000      -6.05     139.47     -4.17     77.39     -4.17     77.42     -6.67     160.11     
 257.0000      -5.55     136.52     -4.48     73.16     -4.48     73.19     -6.09     155.73     
 258.0000      -5.09     133.51     -4.81     69     -4.81     69.04     -5.56     151.44     
 259.0000      -4.67     130.5     -5.16     64.92     -5.17     64.96     -5.09     147.26     
 260.0000      -4.28     127.48     -5.53     60.94     -5.54     60.98     -4.66     143.22     
 261.0000      -3.94     124.48     -5.92     57.06     -5.92     57.09     -4.27     139.28     
 262.0000      -3.62     121.52     -6.32     53.29     -6.32     53.33     -3.92     135.47     
 263.0000      -3.34     118.61     -6.73     49.62     -6.74     49.67     -3.61     131.79     
 264.0000      -3.08     115.76     -7.16     46.08     -7.16     46.13     -3.32     128.24     
 265.0000      -2.85     112.98     -7.59     42.66     -7.59     42.71     -3.07     124.82     
 266.0000      -2.64     110.28     -8.03     39.37     -8.03     39.41     -2.84     121.52     
 268.0000      -2.29     105.1     -8.93     33.11     -8.93     33.17     -2.45     115.3     
 270.0000      -2     100.25     -9.85     27.33     -9.85     27.38     -2.14     109.57     
 272.0000      -1.76     95.72     -10.76     21.96     -10.76     22.02     -1.88     104.27     
 274.0000      -1.57     91.49     -11.68     17     -11.68     17.06     -1.67     99.38     
 276.0000      -1.41     87.56     -12.59     12.4     -12.59     12.45     -1.5     94.85     
 278.0000      -1.28     83.87     -13.48     8.12     -13.48     8.18     -1.36     90.66     
 280.0000      -1.17     80.44     -14.37     4.15     -14.36     4.2     -1.24     86.77     
 282.0000      -1.08     77.21     -15.23     0.44     -15.23     0.49     -1.14     83.14     
 284.0000      -1     74.19     -16.08     -3.04     -16.08     -2.99     -1.05     79.75     
 286.0000      -0.93     71.34     -16.92     -6.29     -16.91     -6.25     -0.98     76.57     
 288.0000      -0.87     68.65     -17.73     -9.36     -17.73     -9.33     -0.91     73.59     
 290.0000      -0.82     66.11     -18.53     -12.24     -18.52     -12.22     -0.86     70.78     
 292.0000      -0.78     63.69     -19.31     -14.97     -19.3     -14.95     -0.81     68.14     
 294.0000      -0.74     61.41     -20.07     -17.55     -20.06     -17.54     -0.77     65.64     
 296.0000      -0.71     59.22     -20.81     -20.02     -20.81     -20     -0.73     63.26     
 298.0000      -0.67     57.15     -21.54     -22.34     -21.54     -22.34     -0.7     61     
 300.0000      -0.65     55.16     -22.26     -24.58     -22.25     -24.57     -0.67     58.85     
 305.0000      -0.59     50.55     -23.97     -29.73     -23.97     -29.73     -0.61     53.88     
 310.0000      -0.54     46.39     -25.6     -34.39     -25.59     -34.4     -0.56     49.4     
 315.0000      -0.51     42.57     -27.14     -38.64     -27.14     -38.66     -0.52     45.34     
 320.0000      -0.48     39.05     -28.61     -42.56     -28.6     -42.56     -0.49     41.61     
 325.0000      -0.46     35.78     -30     -46.18     -29.99     -46.17     -0.46     38.17     
 330.0000      -0.43     32.72     -31.33     -49.57     -31.32     -49.54     -0.44     34.97     
 335.0000      -0.41     29.87     -32.6     -52.73     -32.59     -52.67     -0.42     32     
 340.0000      -0.39     27.19     -33.81     -55.67     -33.81     -55.63     -0.4     29.2     
 345.0000      -0.37     24.68     -34.98     -58.48     -34.97     -58.42     -0.38     26.56     
 350.0000      -0.36     22.3     -36.08     -61.08     -36.08     -61.05     -0.37     24.07     
 355.0000      -0.34     20.04     -37.16     -63.54     -37.15     -63.5     -0.35     21.7     
 360.0000      -0.33     17.88     -38.18     -65.89     -38.17     -65.9     -0.34     19.46     
 365.0000      -0.33     15.81     -39.17     -68.16     -39.16     -68.14     -0.33     17.31     
 370.0000      -0.32     13.82     -40.11     -70.38     -40.11     -70.37     -0.33     15.26     
 375.0000      -0.31     11.93     -41.01     -72.47     -41.02     -72.45     -0.32     13.3     
 380.0000      -0.3     10.11     -41.89     -74.4     -41.9     -74.46     -0.31     11.41     
 385.0000      -0.3     8.34     -42.75     -76.44     -42.75     -76.4     -0.3     9.59     
 390.0000      -0.29     6.64     -43.56     -78.29     -43.56     -78.25     -0.3     7.84     
 395.0000      -0.29     4.98     -44.34     -80.1     -44.34     -80.09     -0.3     6.14     
 400.0000      -0.29     3.35     -45.1     -81.84     -45.1     -81.92     -0.29     4.48     
 405.0000      -0.29     1.77     -45.83     -83.56     -45.83     -83.54     -0.29     2.89     
 410.0000      -0.28     0.24     -46.52     -85.16     -46.54     -85.09     -0.28     1.34     
 415.0000      -0.27     -1.24     -47.22     -86.76     -47.2     -86.73     -0.28     -0.17     
 420.0000      -0.27     -2.68     -47.88     -88.34     -47.86     -88.44     -0.27     -1.64     
 425.0000      -0.26     -4.07     -48.5     -89.91     -48.51     -89.89     -0.27     -3.08     
 430.0000      -0.26     -5.44     -49.11     -91.45     -49.12     -91.34     -0.27     -4.49     
 435.0000      -0.26     -6.77     -49.71     -92.92     -49.7     -92.71     -0.26     -5.85     
 440.0000      -0.25     -8.07     -50.25     -94.27     -50.27     -94.23     -0.26     -7.18     
 445.0000      -0.25     -9.36     -50.83     -95.67     -50.81     -95.58     -0.26     -8.48     
 450.0000      -0.25     -10.61     -51.36     -96.91     -51.38     -96.9     -0.26     -9.76     
 455.0000      -0.25     -11.83     -51.88     -98.38     -51.88     -98.22     -0.25     -11.02     
 460.0000      -0.24     -13.02     -52.39     -99.78     -52.4     -99.67     -0.25     -12.25     
 465.0000      -0.25     -14.2     -52.86     -101.06     -52.87     -101.16     -0.25     -13.45     
 470.0000      -0.25     -15.37     -53.35     -102.02     -53.34     -102.2     -0.25     -14.63     
 475.0000      -0.25     -16.53     -53.79     -103.5     -53.78     -103.41     -0.25     -15.8     
 480.0000      -0.25     -17.68     -54.26     -104.8     -54.29     -104.55     -0.25     -16.95     
 485.0000      -0.25     -18.82     -54.68     -105.98     -54.7     -105.93     -0.25     -18.08     
 490.0000      -0.25     -19.93     -55.14     -107.26     -55.15     -107.15     -0.25     -19.17     
 495.0000      -0.24     -21.01     -55.52     -108.35     -55.57     -107.85     -0.25     -20.28     
 500.0000      -0.24     -22.06     -55.97     -109.35     -55.97     -109.15     -0.25     -21.36     
 505.0000      -0.24     -23.1     -56.36     -110.32     -56.34     -110.64     -0.25     -22.42     
 510.0000      -0.24     -24.13     -56.74     -111.53     -56.69     -111.47     -0.24     -23.46     
 520.0000      -0.24     -26.16     -57.45     -113.43     -57.46     -113.31     -0.24     -25.51     
 530.0000      -0.23     -28.13     -58.19     -115.75     -58.19     -115.88     -0.24     -27.52     
 540.0000      -0.24     -30.05     -58.85     -117.65     -58.8     -117.82     -0.24     -29.48     
 550.0000      -0.24     -31.95     -59.47     -119.44     -59.56     -119.64     -0.24     -31.4     
 560.0000      -0.24     -33.86     -60.15     -121.59     -60.14     -121.43     -0.24     -33.29     
 570.0000      -0.24     -35.71     -60.82     -123.77     -60.75     -123.36     -0.24     -35.13     
 580.0000      -0.24     -37.5     -61.39     -125.31     -61.39     -125.65     -0.24     -36.95     
 590.0000      -0.24     -39.25     -61.97     -127.1     -61.99     -126.74     -0.24     -38.72     
 600.0000      -0.24     -40.98     -62.59     -128.83     -62.61     -129.32     -0.25     -40.47     
 610.0000      -0.24     -42.67     -63.07     -130.69     -63.12     -130.2     -0.25     -42.2     
 620.0000      -0.25     -44.35     -63.6     -132.33     -63.67     -131.79     -0.25     -43.9     
 630.0000      -0.25     -46.03     -64.15     -133.67     -64.2     -133.63     -0.25     -45.6     
 640.0000      -0.25     -47.72     -64.75     -134.81     -64.72     -135.77     -0.25     -47.25     
 650.0000      -0.25     -49.37     -65.35     -136.65     -65.26     -137.26     -0.25     -48.89     
 660.0000      -0.25     -50.98     -65.87     -138     -65.83     -138.14     -0.25     -50.51     
 670.0000      -0.25     -52.56     -66.42     -140.3     -66.34     -139.88     -0.25     -52.09     
 680.0000      -0.25     -54.12     -66.86     -141.47     -66.9     -141.66     -0.26     -53.68     
 690.0000      -0.26     -55.64     -67.45     -143.47     -67.53     -142.59     -0.26     -55.23     
 700.0000      -0.27     -57.17     -68.05     -144.19     -68     -144.87     -0.26     -56.8     
 710.0000      -0.27     -58.73     -68.57     -146.68     -68.58     -146.33     -0.27     -58.35     
 720.0000      -0.27     -60.29     -69.21     -147.56     -69.16     -148.2     -0.27     -59.87     
 730.0000      -0.27     -61.79     -69.66     -148.34     -69.95     -149.41     -0.27     -61.38     
 740.0000      -0.27     -63.28     -70.14     -150.12     -70.4     -150.22     -0.27     -62.87     
 750.0000      -0.28     -64.76     -70.84     -150.87     -71.09     -151.34     -0.27     -64.34     
 760.0000      -0.28     -66.22     -71.42     -154.69     -71.55     -152.18     -0.27     -65.81     
 770.0000      -0.28     -67.65     -72.15     -154.01     -72.44     -154.7     -0.28     -67.27     
 780.0000      -0.29     -69.1     -72.78     -154.75     -72.88     -154.81     -0.28     -68.73     
 790.0000      -0.29     -70.57     -73.67     -155.51     -73.62     -157.29     -0.28     -70.19     
 800.0000      -0.29     -72.02     -74.61     -156.46     -74.19     -157.45     -0.29     -71.63     
 810.0000      -0.29     -73.44     -75.3     -158.65     -75.19     -158.29     -0.29     -73.06     
 820.0000      -0.3     -74.85     -76.55     -156.89     -76.37     -158.94     -0.29     -74.46     
 830.0000      -0.3     -76.26     -76.54     -156.21     -76.4     -160.91     -0.29     -75.85     
 840.0000      -0.3     -77.64     -77.63     -158.5     -77.41     -162.31     -0.29     -77.24     
 850.0000      -0.3     -79     -79.08     -152.56     -78.7     -160.52     -0.3     -78.64     
 860.0000      -0.31     -80.39     -79.5     -159.32     -80.21     -159.27     -0.3     -80.03     
 870.0000      -0.32     -81.81     -80.61     -155.72     -81.92     -160.85     -0.3     -81.42     
 880.0000      -0.32     -83.2     -82.32     -157.75     -82.87     -161.71     -0.31     -82.81     
 890.0000      -0.32     -84.56     -83.59     -147.19     -83     -155.07     -0.31     -84.19     
 900.0000      -0.32     -85.92     -84.58     -140.9     -84.73     -143.2     -0.31     -85.53     
 910.0000      -0.32     -87.29     -87.97     -134.24     -84.96     -136.69     -0.31     -86.88     
 920.0000      -0.32     -88.61     -87.77     -145.67     -87.31     -134.68     -0.32     -88.22     
 930.0000      -0.33     -89.93     -91     -123.53     -90.47     -112.49     -0.32     -89.55     
 940.0000      -0.34     -91.28     -91.24     -114.9     -88.18     -104.24     -0.32     -90.9     
 950.0000      -0.34     -92.64     -92.91     -94.93     -91.1     -94.44     -0.33     -92.23     
 960.0000      -0.34     -93.97     -93.16     -66.68     -93.05     -78.52     -0.33     -93.57     
 970.0000      -0.34     -95.28     -90.71     -58.89     -90.67     -72.95     -0.33     -94.89     
 980.0000      -0.34     -96.6     -87.89     -73.58     -86.95     -70.66     -0.33     -96.18     
 990.0000      -0.35     -97.91     -89.4     -55.06     -90.3     -51.33     -0.33     -97.49     
1000.0000      -0.35     -99.21     -87.64     -29.89     -86.54     -34.9     -0.34     -98.79     
1025.0000      -0.36     -102.51     -83.67     -26.23     -84.56     -28.19     -0.34     -102.04     
1050.0000      -0.37     -105.73     -80.83     -28.43     -80.69     -29.54     -0.35     -105.28     
1075.0000      -0.37     -108.92     -78.7     -30.07     -78.55     -27.22     -0.36     -108.47     
1100.0000      -0.39     -112.15     -77.27     -34.17     -77.44     -35.72     -0.37     -111.65     
1125.0000      -0.39     -115.32     -76.9     -36.7     -77.07     -35.5     -0.37     -114.84     
1150.0000      -0.39     -118.45     -76.05     -38.1     -75.74     -40.28     -0.38     -117.96     
1175.0000      -0.41     -121.61     -74.66     -46.3     -74.85     -46.99     -0.39     -121.08     
1200.0000      -0.41     -124.74     -74.57     -50.55     -74.61     -51.73     -0.39     -124.2     
1225.0000      -0.42     -127.81     -74.56     -51.57     -74.95     -51.07     -0.4     -127.27     
1250.0000      -0.43     -130.89     -74.44     -57.16     -74.21     -59.1     -0.4     -130.35     
1275.0000      -0.43     -134     -73.7     -60.11     -73.83     -59.97     -0.41     -133.41     
1300.0000      -0.44     -137.03     -74.04     -66.93     -73.72     -65.21     -0.42     -136.41     
1325.0000      -0.45     -140.06     -74.77     -64.28     -74.96     -66.18     -0.42     -139.44     
1350.0000      -0.45     -143.13     -74.89     -63.36     -74.16     -64.18     -0.42     -142.49     
1375.0000      -0.46     -146.13     -73.35     -65.31     -73.23     -66.84     -0.43     -145.47     
1400.0000      -0.47     -149.12     -72.89     -73.18     -72.94     -75.21     -0.44     -148.46     
1425.0000      -0.47     -152.17     -73.41     -77.69     -73.37     -76.04     -0.44     -151.45     
1450.0000      -0.47     -155.14     -73.02     -74.43     -72.93     -73.74     -0.45     -154.39     
1475.0000      -0.49     -158.05     -71.63     -77.58     -72.1     -82.18     -0.45     -157.33     
1500.0000      -0.49     -161.05     -71.41     -89.34     -71.65     -88.45     -0.46     -160.28     
1525.0000      -0.49     -163.99     -70.17     -106.42     -70.06     -107.24     -0.46     -163.21     
1550.0000      -0.5     -166.87     -72.17     -138.6     -72.18     -138.93     -0.47     -166.12     
1575.0000      -0.51     -169.87     -76.16     -117.73     -76.34     -117.91     -0.47     -169.04     
1600.0000      -0.51     -172.76     -77.82     -127.1     -76.98     -129.06     -0.48     -171.93     
1625.0000      -0.51     -175.62     -77.51     -115.42     -77.52     -119.63     -0.48     -174.83     
1650.0000      -0.52     -178.58     -77.33     -118.7     -76.65     -117.02     -0.49     -177.71     
1675.0000      -0.52     178.55     -77.65     -123.9     -77.14     -126.5     -0.49     179.41     
1700.0000      -0.53     175.71     -75.91     -125.9     -76.16     -123.77     -0.49     176.55     
1725.0000      -0.53     172.78     -75.38     -144.55     -75.42     -145.36     -0.5     173.7     
1750.0000      -0.53     169.93     -75.75     -146.09     -75.59     -144.97     -0.5     170.86     
1775.0000      -0.53     167.12     -76     -162.22     -75.42     -165.64     -0.5     168.01     
1800.0000      -0.54     164.24     -75.81     174.14     -76.07     177.86     -0.51     165.19     
1825.0000      -0.54     161.4     -73.95     -167.21     -73.83     -168.96     -0.51     162.37     
1850.0000      -0.54     158.62     -72.17     156.81     -72.31     155.06     -0.51     159.55     
1875.0000      -0.55     155.77     -73.36     135.97     -73.05     137.09     -0.52     156.76     
1900.0000      -0.55     152.95     -73.4     98.46     -73.57     97.08     -0.52     153.98     
1925.0000      -0.55     150.16     -77.58     106.56     -76.34     105.45     -0.52     151.17     
1950.0000      -0.56     147.35     -76.43     106.09     -76.31     104.31     -0.52     148.38     
1975.0000      -0.55     144.55     -75.95     112.23     -75.57     108.45     -0.52     145.61     
2000.0000      -0.55     141.77     -75.06     105.71     -74.93     107.17     -0.53     142.85     
2025.0000      -0.57     139     -71.2     112.87     -71.03     113.02     -0.53     140.08     
2050.0000      -0.56     136.23     -68.36     95.01     -68.25     95.18     -0.53     137.35     
2075.0000      -0.56     133.49     -71.6     81.42     -71.09     82.77     -0.53     134.58     
2100.0000      -0.57     130.76     -68     84.18     -68.24     82.29     -0.53     131.83     
2125.0000      -0.56     127.98     -68.39     56.43     -68.38     58.58     -0.53     129.12     
2150.0000      -0.56     125.25     -70.81     60.18     -71.05     62.35     -0.53     126.39     
2175.0000      -0.57     122.52     -67.11     65.51     -66.96     67.28     -0.54     123.66     
2200.0000      -0.56     119.75     -68.01     46.27     -67.99     46.19     -0.53     120.95     
2225.0000      -0.56     117.07     -69.84     49.51     -69.68     50.72     -0.53     118.26     
2250.0000      -0.57     114.38     -68.71     69.98     -68.71     68.02     -0.54     115.51     
2275.0000      -0.56     111.62     -66.49     70.35     -66.71     69.75     -0.53     112.81     
2300.0000      -0.56     108.96     -65.07     64.94     -65.37     65.12     -0.53     110.16     
2325.0000      -0.57     106.29     -63.2     59.11     -63.31     59.13     -0.54     107.45     
2350.0000      -0.56     103.52     -62.49     48.99     -62.39     47.91     -0.54     104.74     
2375.0000      -0.56     100.86     -62.22     39.03     -62.35     38.35     -0.53     102.1     
2400.0000      -0.56     98.23     -62.98     29.64     -62.99     28.71     -0.54     99.4     
2425.0000      -0.56     95.48     -65.14     30.66     -65.01     30.17     -0.53     96.69     
2450.0000      -0.56     92.8     -65.97     52.73     -65.85     53.5     -0.53     94.03     
2475.0000      -0.56     90.19     -59.76     52.49     -59.71     52.14     -0.54     91.37     
2500.0000      -0.56     87.48     -59.78     34.15     -59.71     34.28     -0.54     88.69     
2525.0000      -0.55     84.82     -61.9     28.63     -61.9     29.52     -0.53     86.04     
2550.0000      -0.56     82.19     -59.22     43.58     -59.17     43.54     -0.54     83.38     
2575.0000      -0.56     79.49     -58.3     45.47     -58.26     45.1     -0.54     80.71     
2600.0000      -0.56     76.84     -57.21     42.03     -57.21     42.05     -0.54     78.06     
2625.0000      -0.56     74.23     -55.17     29.87     -55.17     29.96     -0.54     75.42     
2650.0000      -0.56     71.58     -55.31     26.9     -55.3     26.7     -0.54     72.73     
2675.0000      -0.55     68.95     -54.34     17.56     -54.28     17.41     -0.54     70.12     
2700.0000      -0.55     66.28     -53.87     11.43     -53.89     11.06     -0.54     67.49     
2725.0000      -0.55     63.63     -54.9     2.69     -54.9     2.49     -0.54     64.8     
2750.0000      -0.55     60.99     -55.76     21.63     -55.79     20.82     -0.54     62.12     
2775.0000      -0.55     58.36     -50.9     8.42     -50.89     8.53     -0.55     59.6     
2800.0000      -0.55     55.71     -51.79     -5.13     -51.78     -4.99     -0.54     56.92     
2825.0000      -0.55     53.1     -52.24     -7.97     -52.24     -7.96     -0.54     54.28     
2850.0000      -0.55     50.44     -52.67     -8.47     -52.74     -8.45     -0.54     51.63     
2875.0000      -0.55     47.8     -51.22     -6.93     -51.21     -7.19     -0.55     49     
2900.0000      -0.55     45.2     -50.11     -14.58     -50.09     -14.74     -0.54     46.4     
2925.0000      -0.54     42.54     -51.28     -23.85     -51.31     -24.16     -0.53     43.75     
2950.0000      -0.55     39.87     -51.29     -12.75     -51.33     -13.14     -0.54     41.04     
2975.0000      -0.55     37.24     -49.5     -17.31     -49.5     -17.56     -0.54     38.42     
3000.0000      -0.55     34.64     -47.75     -20.14     -47.74     -19.99     -0.54     35.8     
3025.0000      -0.55     32     -46.56     -32.36     -46.55     -32.53     -0.55     33.19     
3050.0000      -0.54     29.34     -48.07     -49.34     -48.07     -49.44     -0.53     30.48     
3075.0000      -0.53     26.67     -49.82     -48.16     -49.88     -48.38     -0.53     27.79     
3100.0000      -0.55     24.01     -47.83     -36.31     -47.82     -36.28     -0.55     25.14     
3125.0000      -0.54     21.34     -47.71     -48.96     -47.71     -49.04     -0.54     22.47     
3150.0000      -0.54     18.65     -48.33     -44.18     -48.33     -44.19     -0.54     19.81     
3175.0000      -0.54     15.98     -47.48     -48.31     -47.46     -48.19     -0.55     17.13     
3200.0000      -0.54     13.24     -47.01     -48.09     -47.01     -48.26     -0.55     14.42     
3225.0000      -0.54     10.57     -46.01     -51.14     -46     -51.3     -0.56     11.8     
3250.0000      -0.54     7.86     -46.34     -54.39     -46.34     -54.37     -0.56     9.13     
3275.0000      -0.55     5.14     -44.56     -56.28     -44.56     -56.35     -0.57     6.45     
3300.0000      -0.55     2.39     -45.21     -63.08     -45.2     -63.2     -0.55     3.76     
3325.0000      -0.56     -0.33     -45.15     -57.83     -45.16     -57.9     -0.56     1.02     
3350.0000      -0.57     -2.94     -42.96     -61.67     -42.97     -61.69     -0.57     -1.69     
3375.0000      -0.56     -5.73     -44.06     -69.05     -44.05     -69.12     -0.56     -4.44     
3400.0000      -0.58     -8.54     -43.12     -59.13     -43.12     -59.27     -0.58     -7.19     
3425.0000      -0.6     -11.26     -40.84     -67.46     -40.84     -67.59     -0.59     -9.86     
3450.0000      -0.6     -13.92     -40.2     -74.46     -40.19     -74.59     -0.59     -12.59     
3475.0000      -0.58     -16.65     -39.69     -84.05     -39.69     -84.26     -0.59     -15.26     
3500.0000      -0.6     -19.56     -39.51     -76.35     -39.52     -76.47     -0.61     -18.13     
3525.0000      -0.6     -22.21     -37.53     -92.24     -37.54     -92.34     -0.61     -20.71     
3550.0000      -0.58     -25.11     -38.03     -106.92     -38.04     -107.07     -0.59     -23.44     
3575.0000      -0.59     -28.08     -38.65     -110.6     -38.64     -110.68     -0.6     -26.35     
3600.0000      -0.6     -31.05     -38.61     -111.46     -38.62     -111.62     -0.6     -29.25     
3625.0000      -0.63     -34.01     -38.77     -112.69     -38.78     -112.83     -0.61     -32.04     
3650.0000      -0.65     -36.89     -38.06     -112.42     -38.08     -112.59     -0.64     -34.85     
3675.0000      -0.69     -39.65     -36.56     -118.27     -36.57     -118.4     -0.65     -37.61     
3700.0000      -0.7     -42.52     -36.49     -126.36     -36.5     -126.57     -0.66     -40.4     
3725.0000      -0.72     -45.35     -36.43     -132.12     -36.43     -132.26     -0.69     -43.16     
3750.0000      -0.73     -48.1     -35.69     -137.89     -35.7     -138.08     -0.68     -45.78     
3775.0000      -0.71     -51.06     -35.96     -147.81     -35.97     -147.98     -0.65     -48.68     
3800.0000      -0.71     -54.17     -36.98     -148.29     -36.98     -148.41     -0.66     -51.65     
3825.0000      -0.72     -57.38     -37.21     -143.88     -37.21     -144.08     -0.68     -54.67     
3850.0000      -0.74     -60.39     -35.21     -143.85     -35.2     -144.04     -0.69     -57.4     
3875.0000      -0.76     -63.67     -34.8     -148.46     -34.81     -148.61     -0.71     -60.29     
3900.0000      -0.79     -67.03     -34.34     -153.03     -34.35     -153.14     -0.71     -63.23     
3925.0000      -0.84     -70.31     -33.48     -155.93     -33.49     -156.06     -0.71     -66.15     
3950.0000      -0.9     -73.73     -32.49     -159.85     -32.5     -159.97     -0.73     -68.98     
3975.0000      -0.97     -77.3     -31.97     -165.44     -31.97     -165.55     -0.75     -72.12     
4000.0000      -1.06     -80.66     -30.49     -172.18     -30.49     -172.28     -0.75     -74.87     
4025.0000      -1.18     -84.47     -29.72     179.18     -29.72     179.11     -0.76     -77.83     
4050.0000      -1.38     -88.32     -28.67     168.44     -28.68     168.38     -0.76     -80.83     
4075.0000      -1.71     -92.13     -28.11     156.6     -28.12     156.52     -0.77     -83.91     
4100.0000      -2.2     -94.91     -27.42     142.82     -27.43     142.75     -0.79     -86.98     
4125.0000      -2.76     -95.88     -27.57     124.44     -27.58     124.34     -0.83     -90.06     
4150.0000      -3.1     -93.96     -28.42     110.3     -28.43     110.21     -0.86     -92.71     
4175.0000      -2.83     -92.08     -29.67     92.52     -29.67     92.43     -0.82     -95.74     
4200.0000      -2.33     -92.92     -32.57     80.51     -32.57     80.39     -0.83     -98.87     
4225.0000      -1.88     -95.7     -35.4     81.13     -35.41     81.02     -0.83     -102.1     
4250.0000      -1.6     -99.41     -37.86     85.7     -37.87     85.63     -0.84     -105.37     
4275.0000      -1.43     -103.25     -40.53     106.03     -40.54     105.92     -0.89     -108.61     
4300.0000      -1.3     -107.11     -37.22     123.22     -37.23     123.04     -0.9     -111.8     
4325.0000      -1.24     -111.16     -36.27     125.43     -36.27     125.27     -0.95     -115.19     
4350.0000      -1.2     -114.8     -34.01     122.97     -34.01     122.87     -1     -118.31     
4375.0000      -1.17     -118.86     -33.69     114.13     -33.69     113.93     -1.06     -121.84     
4400.0000      -1.24     -122.63     -32.52     118.45     -32.53     118.34     -1.17     -125.05     
4425.0000      -1.28     -125.99     -30.32     110.31     -30.33     110.19     -1.29     -128.07     
4450.0000      -1.3     -129.59     -29.23     93.48     -29.23     93.35     -1.43     -130.95     
4475.0000      -1.38     -133.1     -28.87     75.34     -28.87     75.2     -1.56     -133.29     
4500.0000      -1.44     -136.34     -30.02     54.55     -30.02     54.42     -1.59     -135.35     
4525.0000      -1.48     -139.35     -32.77     46.8     -32.77     46.68     -1.58     -137.63     
4550.0000      -1.48     -142.69     -34.52     41.96     -34.51     41.89     -1.52     -140.11     
4575.0000      -1.52     -146.08     -36.96     44.04     -36.95     43.89     -1.47     -142.79     
4600.0000      -1.54     -149.44     -38.99     55.12     -38.97     55.03     -1.4     -145.73     
4625.0000      -1.55     -152.85     -39.06     66.01     -39.06     66.01     -1.32     -148.89     
4650.0000      -1.6     -156.52     -38.85     77.17     -38.85     77.05     -1.28     -152.09     
4675.0000      -1.7     -160.05     -37.98     87.46     -37.97     87.3     -1.25     -155.41     
4700.0000      -1.82     -163.13     -35.69     95.76     -35.67     95.68     -1.21     -158.78     
4725.0000      -1.91     -165.66     -33.59     90.8     -33.58     90.69     -1.18     -162.09     
4750.0000      -1.86     -168.4     -32.9     86.12     -32.9     86     -1.15     -165.75     
4775.0000      -1.78     -171.55     -32.06     86.92     -32.05     86.81     -1.17     -169.32     
4800.0000      -1.7     -175.11     -30.21     85.81     -30.21     85.74     -1.18     -172.69     
4825.0000      -1.63     -179.07     -29.24     76.32     -29.23     76.25     -1.18     -176.37     
4850.0000      -1.6     176.72     -28.46     73.07     -28.45     72.98     -1.21     179.96     
4875.0000      -1.61     172.52     -27.4     68     -27.39     67.92     -1.25     176.46     
4900.0000      -1.66     168.07     -26.56     63.61     -26.56     63.56     -1.29     172.81     
4925.0000      -1.72     163.62     -25.4     58.53     -25.39     58.44     -1.32     169.23     
4950.0000      -1.81     159.06     -24.34     51.7     -24.33     51.66     -1.35     165.4     
4975.0000      -1.95     154.36     -23.44     43.24     -23.44     43.18     -1.47     161.48     
5000.0000      -2.11     149.32     -22.67     37.95     -22.67     37.88     -1.5     157.67     
5025.0000      -2.34     144.29     -21.58     31.18     -21.57     31.09     -1.59     153.55     
5050.0000      -2.65     139.02     -20.53     23.17     -20.52     23.11     -1.76     149.21     
5075.0000      -3.03     133.73     -19.22     14.71     -19.22     14.65     -1.96     144.98     
5100.0000      -3.57     128.12     -18.15     3.62     -18.15     3.56     -2.25     140.79     
5125.0000      -4.34     122.97     -16.97     -7.94     -16.97     -7.97     -2.6     136.73     
5150.0000      -5.33     118.33     -15.91     -22.3     -15.9     -22.33     -3.06     132.76     
5175.0000      -6.64     115.78     -15.03     -38.25     -15.02     -38.27     -3.68     129.84     
5200.0000      -8.15     117.05     -14.44     -56.11     -14.44     -56.12     -4.38     128.78     
5225.0000      -9.43     123.26     -14.25     -75.65     -14.25     -75.67     -5.02     129.67     
5250.0000      -10.02     132.76     -14.58     -96.19     -14.58     -96.2     -5.35     132.48     
5275.0000      -9.82     142.82     -15.52     -116.38     -15.52     -116.37     -5.26     135.76     
5300.0000      -8.82     150.81     -17.11     -134.57     -17.11     -134.58     -4.76     137.57     
5325.0000      -7.42     153.74     -19.1     -149.24     -19.09     -149.24     -4.12     136.99     
5350.0000      -6.08     152.64     -21.29     -160.02     -21.28     -160.01     -3.55     134.69     
5375.0000      -5.02     149.32     -23.46     -166.58     -23.45     -166.6     -3.11     131.14     
5400.0000      -4.2     144.63     -25.26     -170.97     -25.25     -170.98     -2.79     127.33     
5425.0000      -3.61     139.54     -27.07     -173.91     -27.07     -173.92     -2.52     123.59     
5450.0000      -3.19     134.32     -28.62     -175.05     -28.61     -175.07     -2.36     119.43     
5475.0000      -2.89     129.42     -30.05     -174.38     -30.04     -174.39     -2.21     115.41     
5500.0000      -2.66     124.82     -31.1     -171.67     -31.09     -171.69     -2.09     111.33     
