! Coilcraft 1812CS-822 Chip Inductor				
! 31 July 2002			
# MHZ S MA R 50
!Freq             MagS11           AngS11           MagS21           AngS21           MagS12           AngS12           MagS22           AngS22
1                0.431609987      53.656008        0.821410722      -25.0390448      0.821410722      -25.0390448      0.431609987      53.656008        
1.35             0.538007905      49.0332498       0.764195002      -32.1134845      0.764195002      -32.1134845      0.538007905      49.0332498       
1.7              0.623607182      44.4420961       0.705993417      -38.2051703      0.705993417      -38.2051703      0.623607182      44.4420961       
2.05             0.691286514      40.2675287       0.650327426      -43.3983429      0.650327426      -43.3983429      0.691286514      40.2675287       
2.4              0.74449265       36.5936611       0.598988877      -47.8121334      0.598988877      -47.8121334      0.74449265       36.5936611       
2.75             0.786389766      33.4002423       0.552612789      -51.5693256      0.552612789      -51.5693256      0.786389766      33.4002423       
3.1              0.819580653      30.6332604       0.511177104      -54.7813718      0.511177104      -54.7813718      0.819580653      30.6332604       
3.45             0.846096017      28.2324052       0.474337738      -57.543324       0.474337738      -57.543324       0.846096017      28.2324052       
3.8              0.867480786      26.14144         0.441624318      -59.9337017      0.441624318      -59.9337017      0.867480786      26.14144         
4.15             0.884898459      24.3114753       0.412543901      -62.0163633      0.412543901      -62.0163633      0.884898459      24.3114753       
4.5              0.899223934      22.701342        0.386630676      -63.8429189      0.386630676      -63.8429189      0.899223934      22.701342        
4.85             0.911117351      21.2768742       0.363466244      -65.4550468      0.363466244      -65.4550468      0.911117351      21.2768742       
5.2              0.921079946      20.00988         0.342684814      -66.8864872      0.342684814      -66.8864872      0.921079946      20.00988         
5.55             0.929495288      18.8771158       0.323971232      -68.1646739      0.323971232      -68.1646739      0.929495288      18.8771158       
5.9              0.936659442      17.8593799       0.307056008      -69.3120346      0.307056008      -69.3120346      0.936659442      17.8593799       
6.25             0.942802968      16.9407527       0.291709445      -70.3470148      0.291709445      -70.3470148      0.942802968      16.9407527       
6.6              0.948107017      16.1079756       0.277735874      -71.2848799      0.277735874      -71.2848799      0.948107017      16.1079756       
6.95             0.952715159      15.3499516       0.264968429      -72.1383427      0.264968429      -72.1383427      0.952715159      15.3499516       
7.3              0.956742143      14.6573443       0.253264493      -72.9180555      0.253264493      -72.9180555      0.956742143      14.6573443       
7.65             0.960280418      14.022257        0.242501832      -73.632998       0.242501832      -73.632998       0.960280418      14.022257        
8                0.963405045      13.4379766       0.232575332      -74.2907838      0.232575332      -74.2907838      0.963405045      13.4379766       
8.35             0.966177408      12.8987665       0.22339429       -74.8979033      0.22339429       -74.8979033      0.966177408      12.8987665       
8.7              0.968648059      12.3997013       0.214880152      -75.4599195      0.214880152      -75.4599195      0.968648059      12.3997013       
9.05             0.970858897      11.9365315       0.206964642      -75.9816239      0.206964642      -75.9816239      0.970858897      11.9365315       
9.4              0.972844866      11.5055746       0.199588196      -76.4671631      0.199588196      -76.4671631      0.972844866      11.5055746       
9.75             0.974635282      11.1036255       0.192698673      -76.9201426      0.192698673      -76.9201426      0.974635282      11.1036255       
10.1             0.976254874      10.727883        0.186250264      -77.3437099      0.186250264      -77.3437099      0.976254874      10.727883        
10.45            0.97772461       10.3758895       0.180202592      -77.7406247      0.180202592      -77.7406247      0.97772461       10.3758895       
10.8             0.979062358      10.0454805       0.174519951      -78.1133157      0.174519951      -78.1133157      0.979062358      10.0454805       
11.15            0.980283418      9.73474329       0.169170663      -78.4639279      0.169170663      -78.4639279      0.980283418      9.73474329       
11.5             0.981400946      9.44198139       0.164126542      -78.7943629      0.164126542      -78.7943629      0.981400946      9.44198139       
11.85            0.982426304      9.16568562       0.159362436      -79.1063117      0.159362436      -79.1063117      0.982426304      9.16568562       
12.2             0.983369344      8.9045091        0.154855832      -79.401283       0.154855832      -79.401283       0.983369344      8.9045091        
12.55            0.984238641      8.65724634       0.150586531      -79.6806267      0.150586531      -79.6806267      0.984238641      8.65724634       
12.9             0.985041684      8.42281532       0.146536361      -79.9455542      0.146536361      -79.9455542      0.985041684      8.42281532       
13.25            0.985785041      8.20024227       0.142688932      -80.1971553      0.142688932      -80.1971553      0.985785041      8.20024227       
13.6             0.986474483      7.98864859       0.139029428      -80.4364136      0.139029428      -80.4364136      0.986474483      7.98864859       
13.95            0.987115106      7.78723962       0.135544421      -80.6642182      0.135544421      -80.6642182      0.987115106      7.78723962       
14.3             0.987711417      7.59529491       0.132221721      -80.8813754      0.132221721      -80.8813754      0.987711417      7.59529491       
14.65            0.988267415      7.41215986       0.129050232      -81.0886176      0.129050232      -81.0886176      0.988267415      7.41215986       
15               0.988786659      7.23723842       0.126019837      -81.2866118      0.126019837      -81.2866118      0.988786659      7.23723842       
15.35            0.989272323      7.06998671       0.123121291      -81.4759665      0.123121291      -81.4759665      0.989272323      7.06998671       
15.7             0.989727247      6.9099075        0.120346134      -81.6572381      0.120346134      -81.6572381      0.989727247      6.9099075        
16.05            0.990153978      6.75654536       0.117686605      -81.8309361      0.117686605      -81.8309361      0.990153978      6.75654536       
16.4             0.990554801      6.60948235       0.115135576      -81.9975284      0.115135576      -81.9975284      0.990554801      6.60948235       
16.75            0.990931778      6.46833429       0.112686489      -82.1574447      0.112686489      -82.1574447      0.990931778      6.46833429       
17.1             0.991286767      6.33274745       0.110333298      -82.3110809      0.110333298      -82.3110809      0.991286767      6.33274745       
17.45            0.991621449      6.20239557       0.108070423      -82.4588023      0.108070423      -82.4588023      0.991621449      6.20239557       
17.8             0.991937349      6.0769773        0.105892705      -82.6009459      0.105892705      -82.6009459      0.991937349      6.0769773        
18.15            0.992235849      5.95621386       0.103795368      -82.737824       0.103795368      -82.737824       0.992235849      5.95621386       
18.5             0.992518207      5.83984696       0.101773984      -82.8697257      0.101773984      -82.8697257      0.992518207      5.83984696       
18.85            0.992785569      5.72763702       0.0998244426     -82.9969191      0.0998244426     -82.9969191      0.992785569      5.72763702       
19.2             0.99303898       5.61936143       0.0979429214     -83.1196534      0.0979429214     -83.1196534      0.99303898       5.61936143       
19.55            0.993279398      5.51481316       0.0961258642     -83.2381605      0.0961258642     -83.2381605      0.993279398      5.51481316       
19.9             0.993507698      5.41379938       0.0943699564     -83.3526563      0.0943699564     -83.3526563      0.993507698      5.41379938       
20.25            0.993724681      5.31614026       0.0926721056     -83.4633422      0.0926721056     -83.4633422      0.993724681      5.31614026       
20.6             0.993931086      5.22166795       0.0910294232     -83.5704061      0.0910294232     -83.5704061      0.993931086      5.22166795       
20.95            0.99412759       5.13022555       0.0894392082     -83.6740237      0.0894392082     -83.6740237      0.99412759       5.13022555       
21.3             0.994314818      5.04166625       0.0878989319     -83.7743595      0.0878989319     -83.7743595      0.994314818      5.04166625       
21.65            0.994493345      4.95585256       0.086406225      -83.8715675      0.086406225      -83.8715675      0.994493345      4.95585256       
22               0.994663702      4.87265554       0.0849588648     -83.965792       0.0849588648     -83.965792       0.994663702      4.87265554       
22.35            0.994826382      4.79195419       0.0835547645     -84.0571687      0.0835547645     -84.0571687      0.994826382      4.79195419       
22.7             0.994981839      4.71363482       0.0821919626     -84.1458248      0.0821919626     -84.1458248      0.994981839      4.71363482       
23.05            0.995130495      4.63759053       0.080868614      -84.2318801      0.080868614      -84.2318801      0.995130495      4.63759053       
23.4             0.99527274       4.56372069       0.0795829813     -84.3154473      0.0795829813     -84.3154473      0.99527274       4.56372069       
23.75            0.995408939      4.49193051       0.0783334276     -84.3966326      0.0783334276     -84.3966326      0.995408939      4.49193051       
24.1             0.995539429      4.42213061       0.0771184084     -84.4755361      0.0771184084     -84.4755361      0.995539429      4.42213061       
24.45            0.995664524      4.35423665       0.0759364662     -84.5522523      0.0759364662     -84.5522523      0.995664524      4.35423665       
24.8             0.995784517      4.28816897       0.074786224      -84.6268703      0.074786224      -84.6268703      0.995784517      4.28816897       
25.15            0.995899682      4.22385228       0.0736663798     -84.6994744      0.0736663798     -84.6994744      0.995899682      4.22385228       
25.5             0.996010273      4.16121536       0.0725757017     -84.7701445      0.0725757017     -84.7701445      0.996010273      4.16121536       
25.85            0.99611653       4.10019078       0.0715130232     -84.838956       0.0715130232     -84.838956       0.99611653       4.10019078       
26.2             0.996218674      4.04071468       0.0704772391     -84.9059804      0.0704772391     -84.9059804      0.996218674      4.04071468       
26.55            0.996316915      3.98272651       0.0694673013     -84.9712854      0.0694673013     -84.9712854      0.996316915      3.98272651       
26.9             0.996411448      3.92616883       0.0684822155     -85.0349354      0.0684822155     -85.0349354      0.996411448      3.92616883       
27.25            0.996502457      3.87098712       0.0675210372     -85.0969913      0.0675210372     -85.0969913      0.996502457      3.87098712       
27.6             0.996590113      3.81712958       0.0665828694     -85.1575111      0.0665828694     -85.1575111      0.996590113      3.81712958       
27.95            0.996674579      3.76454697       0.0656668591     -85.2165498      0.0656668591     -85.2165498      0.996674579      3.76454697       
28.3             0.996756007      3.71319246       0.0647721947     -85.2741598      0.0647721947     -85.2741598      0.996756007      3.71319246       
28.65            0.996834538      3.66302149       0.063898104      -85.3303909      0.063898104      -85.3303909      0.996834538      3.66302149       
29               0.996910309      3.61399162       0.0630438513     -85.3852905      0.0630438513     -85.3852905      0.996910309      3.61399162       
29.35            0.996983445      3.5660624        0.0622087353     -85.4389037      0.0622087353     -85.4389037      0.996983445      3.5660624        
29.7             0.997054066      3.51919527       0.0613920875     -85.4912736      0.0613920875     -85.4912736      0.997054066      3.51919527       
30.05            0.997122285      3.47335347       0.0605932701     -85.5424413      0.0605932701     -85.5424413      0.997122285      3.47335347       
30.4             0.997188209      3.42850187       0.0598116741     -85.5924458      0.0598116741     -85.5924458      0.997188209      3.42850187       
30.75            0.997251938      3.38460697       0.0590467181     -85.6413246      0.0590467181     -85.6413246      0.997251938      3.38460697       
31.1             0.997313567      3.34163674       0.0582978463     -85.6891133      0.0582978463     -85.6891133      0.997313567      3.34163674       
31.45            0.997373186      3.29956055       0.0575645273     -85.735846       0.0575645273     -85.735846       0.997373186      3.29956055       
31.8             0.99743088       3.25834912       0.0568462531     -85.7815552      0.0568462531     -85.7815552      0.99743088       3.25834912       
32.15            0.997486731      3.21797444       0.0561425372     -85.8262722      0.0561425372     -85.8262722      0.997486731      3.21797444       
32.5             0.997540813      3.17840968       0.0554529139     -85.8700268      0.0554529139     -85.8700268      0.997540813      3.17840968       
32.85            0.9975932        3.13962915       0.0547769372     -85.9128474      0.0547769372     -85.9128474      0.9975932        3.13962915       
33.2             0.997643961      3.10160823       0.0541141797     -85.9547613      0.0541141797     -85.9547613      0.997643961      3.10160823       
33.55            0.997693161      3.06432332       0.0534642314     -85.9957947      0.0534642314     -85.9957947      0.997693161      3.06432332       
33.9             0.997740861      3.02775179       0.0528266994     -86.0359727      0.0528266994     -86.0359727      0.997740861      3.02775179       
34.25            0.997787121      2.99187192       0.0522012063     -86.0753192      0.0522012063     -86.0753192      0.997787121      2.99187192       
34.6             0.997831996      2.95666286       0.0515873901     -86.1138574      0.0515873901     -86.1138574      0.997831996      2.95666286       
34.95            0.99787554       2.92210461       0.0509849031     -86.1516091      0.0509849031     -86.1516091      0.99787554       2.92210461       
35.3             0.997917804      2.88817792       0.050393411      -86.1885958      0.050393411      -86.1885958      0.997917804      2.88817792       
35.65            0.997958836      2.85486432       0.0498125927     -86.2248376      0.0498125927     -86.2248376      0.997958836      2.85486432       
36               0.997998681      2.82214605       0.0492421396     -86.2603541      0.0492421396     -86.2603541      0.997998681      2.82214605       
36.35            0.998037384      2.79000601       0.0486817546     -86.2951641      0.0486817546     -86.2951641      0.998037384      2.79000601       
36.7             0.998074987      2.75842776       0.0481311519     -86.3292855      0.0481311519     -86.3292855      0.998074987      2.75842776       
37.05            0.998111529      2.72739548       0.0475900564     -86.3627357      0.0475900564     -86.3627357      0.998111529      2.72739548       
37.4             0.998147048      2.69689394       0.0470582034     -86.3955313      0.0470582034     -86.3955313      0.998147048      2.69689394       
37.75            0.998181582      2.66690845       0.0465353376     -86.4276882      0.0465353376     -86.4276882      0.998181582      2.66690845       
38.1             0.998215163      2.63742488       0.0460212132     -86.4592219      0.0460212132     -86.4592219      0.998215163      2.63742488       
38.45            0.998247827      2.60842959       0.0455155933     -86.4901471      0.0455155933     -86.4901471      0.998247827      2.60842959       
38.8             0.998279603      2.57990946       0.0450182492     -86.5204781      0.0450182492     -86.5204781      0.998279603      2.57990946       
39.15            0.998310524      2.5518518        0.0445289607     -86.5502286      0.0445289607     -86.5502286      0.998310524      2.5518518        
39.5             0.998340617      2.52424439       0.0440475151     -86.5794116      0.0440475151     -86.5794116      0.998340617      2.52424439       
39.85            0.998369911      2.49707543       0.0435737071     -86.6080399      0.0435737071     -86.6080399      0.998369911      2.49707543       
40.2             0.998398431      2.47033352       0.0431073385     -86.6361258      0.0431073385     -86.6361258      0.998398431      2.47033352       
40.55            0.998426205      2.44400767       0.0426482181     -86.6636809      0.0426482181     -86.6636809      0.998426205      2.44400767       
40.9             0.998453255      2.41808724       0.042196161      -86.6907165      0.042196161      -86.6907165      0.998453255      2.41808724       
41.25            0.998479606      2.39256198       0.0417509884     -86.7172436      0.0417509884     -86.7172436      0.998479606      2.39256198       
41.6             0.99850528       2.36742195       0.0413125277     -86.7432727      0.0413125277     -86.7432727      0.99850528       2.36742195       
41.95            0.998530299      2.34265756       0.0408806121     -86.7688138      0.0408806121     -86.7688138      0.998530299      2.34265756       
42.3             0.998554682      2.31825954       0.0404550799     -86.7938768      0.0404550799     -86.7938768      0.998554682      2.31825954       
42.65            0.998578451      2.29421889       0.040035775      -86.818471       0.040035775      -86.818471       0.998578451      2.29421889       
43               0.998601623      2.27052694       0.0396225463     -86.8426054      0.0396225463     -86.8426054      0.998601623      2.27052694       
43.35            0.998624218      2.24717529       0.0392152474     -86.8662888      0.0392152474     -86.8662888      0.998624218      2.24717529       
43.7             0.998646253      2.22415578       0.0388137367     -86.8895296      0.0388137367     -86.8895296      0.998646253      2.22415578       
44.05            0.998667745      2.20146055       0.038417877      -86.9123358      0.038417877      -86.9123358      0.998667745      2.20146055       
44.4             0.99868871       2.17908195       0.0380275354     -86.9347153      0.0380275354     -86.9347153      0.99868871       2.17908195       
44.75            0.998709164      2.15701258       0.0376425831     -86.9566755      0.0376425831     -86.9566755      0.998709164      2.15701258       
45.1             0.998729122      2.13524529       0.0372628954     -86.9782238      0.0372628954     -86.9782238      0.998729122      2.13524529       
45.45            0.998748598      2.11377311       0.0368883513     -86.999367       0.0368883513     -86.999367       0.998748598      2.11377311       
45.8             0.998767606      2.09258932       0.0365188335     -87.0201119      0.0365188335     -87.0201119      0.998767606      2.09258932       
46.15            0.998786161      2.07168738       0.0361542283     -87.040465       0.0361542283     -87.040465       0.998786161      2.07168738       
46.5             0.998804273      2.05106094       0.0357944252     -87.0604325      0.0357944252     -87.0604325      0.998804273      2.05106094       
46.85            0.998821957      2.03070387       0.0354393173     -87.0800203      0.0354393173     -87.0800203      0.998821957      2.03070387       
47.2             0.998839224      2.01061019       0.0350888006     -87.0992344      0.0350888006     -87.0992344      0.998839224      2.01061019       
47.55            0.998856086      1.9907741        0.0347427743     -87.1180802      0.0347427743     -87.1180802      0.998856086      1.9907741        
47.9             0.998872554      1.97119          0.0344011404     -87.1365631      0.0344011404     -87.1365631      0.998872554      1.97119          
48.25            0.998888638      1.9518524        0.0340638037     -87.1546882      0.0340638037     -87.1546882      0.998888638      1.9518524        
48.6             0.99890435       1.93275601       0.033730672      -87.1724604      0.033730672      -87.1724604      0.99890435       1.93275601       
48.95            0.998919699      1.91389567       0.0334016553     -87.1898846      0.0334016553     -87.1898846      0.998919699      1.91389567       
49.3             0.998934694      1.89526637       0.0330766666     -87.2069654      0.0330766666     -87.2069654      0.998934694      1.89526637       
49.65            0.998949346      1.87686324       0.032755621      -87.223707       0.032755621      -87.223707       0.998949346      1.87686324       
50               0.998963663      1.85868156       0.0324384361     -87.2401137      0.0324384361     -87.2401137      0.998963663      1.85868156       
50.35            0.998977654      1.84071672       0.0321250318     -87.2561896      0.0321250318     -87.2561896      0.998977654      1.84071672       
50.7             0.998991327      1.82296425       0.0318153301     -87.2719385      0.0318153301     -87.2719385      0.998991327      1.82296425       
51.05            0.999004691      1.80541979       0.0315092552     -87.2873641      0.0315092552     -87.2873641      0.999004691      1.80541979       
51.4             0.999017753      1.7880791        0.0312067333     -87.3024701      0.0312067333     -87.3024701      0.999017753      1.7880791        
51.75            0.999030521      1.77093808       0.0309076928     -87.3172598      0.0309076928     -87.3172598      0.999030521      1.77093808       
52.1             0.999043003      1.7539927        0.0306120637     -87.3317364      0.0306120637     -87.3317364      0.999043003      1.7539927        
52.45            0.999055206      1.73723907       0.030319778      -87.3459031      0.030319778      -87.3459031      0.999055206      1.73723907       
52.8             0.999067135      1.72067338       0.0300307696     -87.3597628      0.0300307696     -87.3597628      0.999067135      1.72067338       
53.15            0.999078799      1.70429194       0.0297449739     -87.3733184      0.0297449739     -87.3733184      0.999078799      1.70429194       
53.5             0.999090204      1.68809114       0.0294623283     -87.3865725      0.0294623283     -87.3865725      0.999090204      1.68809114       
53.85            0.999101355      1.67206746       0.0291827714     -87.3995277      0.0291827714     -87.3995277      0.999101355      1.67206746       
54.2             0.99911226       1.6562175        0.0289062439     -87.4121864      0.0289062439     -87.4121864      0.99911226       1.6562175        
54.55            0.999122923      1.64053791       0.0286326875     -87.4245508      0.0286326875     -87.4245508      0.999122923      1.64053791       
54.9             0.999133351      1.62502544       0.0283620456     -87.4366233      0.0283620456     -87.4366233      0.999133351      1.62502544       
55.25            0.999143548      1.60967694       0.0280942633     -87.4484057      0.0280942633     -87.4484057      0.999143548      1.60967694       
55.6             0.999153522      1.59448932       0.0278292865     -87.4599         0.0278292865     -87.4599         0.999153522      1.59448932       
55.95            0.999163275      1.57945955       0.027567063      -87.4711081      0.027567063      -87.4711081      0.999163275      1.57945955       
56.3             0.999172815      1.56458472       0.0273075415     -87.4820315      0.0273075415     -87.4820315      0.999172815      1.56458472       
56.65            0.999182145      1.54986195       0.0270506723     -87.4926718      0.0270506723     -87.4926718      0.999182145      1.54986195       
57               0.99919127       1.53528846       0.0267964066     -87.5030305      0.0267964066     -87.5030305      0.99919127       1.53528846       
57.35            0.999200195      1.52086152       0.0265446969     -87.513109       0.0265446969     -87.513109       0.999200195      1.52086152       
57.7             0.999208924      1.50657847       0.0262954969     -87.5229083      0.0262954969     -87.5229083      0.999208924      1.50657847       
58.05            0.999217462      1.49243671       0.0260487615     -87.5324297      0.0260487615     -87.5324297      0.999217462      1.49243671       
58.4             0.999225812      1.47843371       0.0258044464     -87.5416741      0.0258044464     -87.5416741      0.999225812      1.47843371       
58.75            0.99923398       1.46456701       0.0255625087     -87.5506424      0.0255625087     -87.5506424      0.99923398       1.46456701       
59.1             0.999241968      1.45083418       0.0253229061     -87.5593354      0.0253229061     -87.5593354      0.999241968      1.45083418       
59.45            0.999249781      1.43723287       0.0250855977     -87.5677537      0.0250855977     -87.5677537      0.999249781      1.43723287       
59.8             0.999257422      1.42376077       0.0248505433     -87.575898       0.0248505433     -87.575898       0.999257422      1.42376077       
60.15            0.999264895      1.41041564       0.0246177038     -87.5837687      0.0246177038     -87.5837687      0.999264895      1.41041564       
60.5             0.999272204      1.39719527       0.0243870407     -87.591366       0.0243870407     -87.591366       0.999272204      1.39719527       
60.85            0.999279352      1.38409753       0.0241585168     -87.5986904      0.0241585168     -87.5986904      0.999279352      1.38409753       
61.2             0.999286342      1.37112031       0.0239320954     -87.6057418      0.0239320954     -87.6057418      0.999286342      1.37112031       
61.55            0.999293178      1.35826156       0.0237077409     -87.6125204      0.0237077409     -87.6125204      0.999293178      1.35826156       
61.9             0.999299862      1.34551929       0.0234854183     -87.6190261      0.0234854183     -87.6190261      0.999299862      1.34551929       
62.25            0.999306398      1.33289152       0.0232650935     -87.6252587      0.0232650935     -87.6252587      0.999306398      1.33289152       
62.6             0.999312789      1.32037635       0.0230467331     -87.6312179      0.0230467331     -87.6312179      0.999312789      1.32037635       
62.95            0.999319038      1.30797189       0.0228303044     -87.6369034      0.0228303044     -87.6369034      0.999319038      1.30797189       
63.3             0.999325147      1.29567633       0.0226157756     -87.6423146      0.0226157756     -87.6423146      0.999325147      1.29567633       
63.65            0.999331119      1.28348787       0.0224031154     -87.647451       0.0224031154     -87.647451       0.999331119      1.28348787       
64               0.999336957      1.27140475       0.0221922933     -87.6523118      0.0221922933     -87.6523118      0.999336957      1.27140475       
64.35            0.999342663      1.25942527       0.0219832794     -87.6568963      0.0219832794     -87.6568963      0.999342663      1.25942527       
64.7             0.999348241      1.24754773       0.0217760446     -87.6612035      0.0217760446     -87.6612035      0.999348241      1.24754773       
65.05            0.999353692      1.23577052       0.0215705601     -87.6652324      0.0215705601     -87.6652324      0.999353692      1.23577052       
65.4             0.999359019      1.224092         0.021366798      -87.6689819      0.021366798      -87.6689819      0.999359019      1.224092         
65.75            0.999364224      1.21251063       0.0211647309     -87.6724507      0.0211647309     -87.6724507      0.999364224      1.21251063       
66.1             0.99936931       1.20102485       0.020964332      -87.6756375      0.020964332      -87.6756375      0.99936931       1.20102485       
66.45            0.999374278      1.18963315       0.0207655751     -87.6785407      0.0207655751     -87.6785407      0.999374278      1.18963315       
66.8             0.999379131      1.17833408       0.0205684344     -87.681159       0.0205684344     -87.681159       0.999379131      1.17833408       
67.15            0.999383871      1.16712617       0.0203728848     -87.6834904      0.0203728848     -87.6834904      0.999383871      1.16712617       
67.5             0.999388501      1.15600802       0.0201789017     -87.6855332      0.0201789017     -87.6855332      0.999388501      1.15600802       
67.85            0.999393021      1.14497823       0.0199864608     -87.6872855      0.0199864608     -87.6872855      0.999393021      1.14497823       
68.2             0.999397434      1.13403546       0.0197955386     -87.6887452      0.0197955386     -87.6887452      0.999397434      1.13403546       
68.55            0.999401743      1.12317837       0.0196061119     -87.6899102      0.0196061119     -87.6899102      0.999401743      1.12317837       
68.9             0.999405948      1.11240567       0.0194181579     -87.6907781      0.0194181579     -87.6907781      0.999405948      1.11240567       
69.25            0.999410051      1.10171607       0.0192316546     -87.6913465      0.0192316546     -87.6913465      0.999410051      1.10171607       
69.6             0.999414055      1.09110832       0.01904658       -87.6916128      0.01904658       -87.6916128      0.999414055      1.09110832       
69.95            0.999417961      1.0805812        0.0188629129     -87.6915743      0.0188629129     -87.6915743      0.999417961      1.0805812        
70.3             0.999421771      1.07013351       0.0186806323     -87.6912283      0.0186806323     -87.6912283      0.999421771      1.07013351       
70.65            0.999425486      1.05976407       0.0184997177     -87.6905717      0.0184997177     -87.6905717      0.999425486      1.05976407       
71               0.999429108      1.04947172       0.018320149      -87.6896015      0.018320149      -87.6896015      0.999429108      1.04947172       
71.35            0.999432639      1.03925534       0.0181419066     -87.6883144      0.0181419066     -87.6883144      0.999432639      1.03925534       
71.7             0.99943608       1.02911382       0.0179649709     -87.6867069      0.0179649709     -87.6867069      0.99943608       1.02911382       
72.05            0.999439432      1.01904606       0.0177893232     -87.6847756      0.0177893232     -87.6847756      0.999439432      1.01904606       
72.4             0.999442698      1.009051         0.0176149449     -87.6825168      0.0176149449     -87.6825168      0.999442698      1.009051         
72.75            0.999445878      0.999127595      0.0174418176     -87.6799265      0.0174418176     -87.6799265      0.999445878      0.999127595      
73.1             0.999448974      0.989274815      0.0172699236     -87.6770008      0.0172699236     -87.6770008      0.999448974      0.989274815      
73.45            0.999451987      0.979491655      0.0170992453     -87.6737355      0.0170992453     -87.6737355      0.999451987      0.979491655      
73.8             0.999454918      0.969777126      0.0169297654     -87.6701261      0.0169297654     -87.6701261      0.999454918      0.969777126      
74.15            0.99945777       0.960130259      0.0167614673     -87.6661683      0.0167614673     -87.6661683      0.99945777       0.960130259      
74.5             0.999460542      0.950550103      0.0165943341     -87.6618572      0.0165943341     -87.6618572      0.999460542      0.950550103      
74.85            0.999463237      0.941035724      0.0164283498     -87.6571879      0.0164283498     -87.6571879      0.999463237      0.941035724      
75.2             0.999465855      0.931586207      0.0162634984     -87.6521554      0.0162634984     -87.6521554      0.999465855      0.931586207      
75.55            0.999468398      0.922200652      0.0160997642     -87.6467544      0.0160997642     -87.6467544      0.999468398      0.922200652      
75.9             0.999470867      0.912878177      0.0159371319     -87.6409793      0.0159371319     -87.6409793      0.999470867      0.912878177      
76.25            0.999473263      0.903617915      0.0157755864     -87.6348245      0.0157755864     -87.6348245      0.999473263      0.903617915      
76.6             0.999475587      0.894419016      0.0156151129     -87.628284       0.0156151129     -87.628284       0.999475587      0.894419016      
76.95            0.99947784       0.885280644      0.0154556968     -87.6213517      0.0154556968     -87.6213517      0.99947784       0.885280644      
77.3             0.999480024      0.87620198       0.015297324      -87.6140212      0.015297324      -87.6140212      0.999480024      0.87620198       
77.65            0.999482138      0.867182219      0.0151399803     -87.6062859      0.0151399803     -87.6062859      0.999482138      0.867182219      
78               0.999484185      0.858220569      0.0149836521     -87.5981389      0.0149836521     -87.5981389      0.999484185      0.858220569      
78.35            0.999486166      0.849316253      0.0148283259     -87.5895731      0.0148283259     -87.5895731      0.999486166      0.849316253      
78.7             0.99948808       0.84046851       0.0146739883     -87.5805812      0.0146739883     -87.5805812      0.99948808       0.84046851       
79.05            0.99948993       0.831676589      0.0145206264     -87.5711554      0.0145206264     -87.5711554      0.99948993       0.831676589      
79.4             0.999491716      0.822939754      0.0143682274     -87.5612879      0.0143682274     -87.5612879      0.999491716      0.822939754      
79.75            0.999493438      0.814257282      0.0142167786     -87.5509704      0.0142167786     -87.5509704      0.999493438      0.814257282      
80.1             0.999495099      0.805628463      0.0140662678     -87.5401943      0.0140662678     -87.5401943      0.999495099      0.805628463      
80.45            0.999496699      0.797052597      0.0139166828     -87.5289509      0.0139166828     -87.5289509      0.999496699      0.797052597      
80.8             0.999498238      0.788528998      0.0137680117     -87.5172309      0.0137680117     -87.5172309      0.999498238      0.788528998      
81.15            0.999499717      0.780056993      0.0136202428     -87.5050248      0.0136202428     -87.5050248      0.999499717      0.780056993      
81.5             0.999501138      0.771635917      0.0134733645     -87.4923228      0.0134733645     -87.4923228      0.999501138      0.771635917      
81.85            0.999502501      0.763265121      0.0133273657     -87.4791145      0.0133273657     -87.4791145      0.999502501      0.763265121      
82.2             0.999503806      0.754943962      0.0131822351     -87.4653895      0.0131822351     -87.4653895      0.999503806      0.754943962      
82.55            0.999505056      0.746671812      0.0130379618     -87.4511366      0.0130379618     -87.4511366      0.999505056      0.746671812      
82.9             0.999506249      0.738448051      0.0128945352     -87.4363445      0.0128945352     -87.4363445      0.999506249      0.738448051      
83.25            0.999507388      0.730272072      0.0127519446     -87.4210013      0.0127519446     -87.4210013      0.999507388      0.730272072      
83.6             0.999508472      0.722143274      0.0126101797     -87.4050946      0.0126101797     -87.4050946      0.999508472      0.722143274      
83.95            0.999509503      0.714061071      0.0124692302     -87.3886117      0.0124692302     -87.3886117      0.999509503      0.714061071      
84.3             0.999510481      0.706024883      0.0123290863     -87.3715393      0.0123290863     -87.3715393      0.999510481      0.706024883      
84.65            0.999511407      0.698034141      0.012189738      -87.3538637      0.012189738      -87.3538637      0.999511407      0.698034141      
85               0.999512282      0.690088285      0.0120511756     -87.3355706      0.0120511756     -87.3355706      0.999512282      0.690088285      
85.35            0.999513106      0.682186765      0.0119133896     -87.316645       0.0119133896     -87.316645       0.999513106      0.682186765      
85.7             0.999513879      0.674329039      0.0117763707     -87.2970716      0.0117763707     -87.2970716      0.999513879      0.674329039      
86.05            0.999514603      0.666514574      0.0116401097     -87.2768344      0.0116401097     -87.2768344      0.999514603      0.666514574      
86.4             0.999515278      0.658742846      0.0115045974     -87.2559166      0.0115045974     -87.2559166      0.999515278      0.658742846      
86.75            0.999515905      0.65101334       0.011369825      -87.234301       0.011369825      -87.234301       0.999515905      0.65101334       
87.1             0.999516484      0.643325547      0.0112357837     -87.2119695      0.0112357837     -87.2119695      0.999516484      0.643325547      
87.45            0.999517015      0.635678969      0.011102465      -87.1889033      0.011102465      -87.1889033      0.999517015      0.635678969      
87.8             0.9995175        0.628073114      0.0109698603     -87.1650831      0.0109698603     -87.1650831      0.9995175        0.628073114      
88.15            0.999517939      0.620507498      0.0108379614     -87.1404884      0.0108379614     -87.1404884      0.999517939      0.620507498      
88.5             0.999518333      0.612981646      0.01070676       -87.1150982      0.01070676       -87.1150982      0.999518333      0.612981646      
88.85            0.999518681      0.605495089      0.0105762481     -87.0888904      0.0105762481     -87.0888904      0.999518681      0.605495089      
89.2             0.999518985      0.598047365      0.0104464178     -87.0618421      0.0104464178     -87.0618421      0.999518985      0.598047365      
89.55            0.999519245      0.590638022      0.0103172613     -87.0339296      0.0103172613     -87.0339296      0.999519245      0.590638022      
89.9             0.999519462      0.583266612      0.0101887709     -87.0051277      0.0101887709     -87.0051277      0.999519462      0.583266612      
90.25            0.999519635      0.575932694      0.0100609391     -86.9754107      0.0100609391     -86.9754107      0.999519635      0.575932694      
90.6             0.999519766      0.568635837      0.00993375845    -86.9447514      0.00993375845    -86.9447514      0.999519766      0.568635837      
90.95            0.999519855      0.561375614      0.00980722172    -86.9131216      0.00980722172    -86.9131216      0.999519855      0.561375614      
91.3             0.999519903      0.554151603      0.00968132172    -86.8804917      0.00968132172    -86.8804917      0.999519903      0.554151603      
91.65            0.999519909      0.546963393      0.0095560514     -86.846831       0.0095560514     -86.846831       0.999519909      0.546963393      
92               0.999519875      0.539810576      0.00943140384    -86.8121073      0.00943140384    -86.8121073      0.999519875      0.539810576      
92.35            0.999519801      0.532692751      0.00930737221    -86.7762869      0.00930737221    -86.7762869      0.999519801      0.532692751      
92.7             0.999519687      0.525609522      0.00918394981    -86.7393347      0.00918394981    -86.7393347      0.999519687      0.525609522      
93.05            0.999519533      0.518560501      0.00906113006    -86.7012139      0.00906113006    -86.7012139      0.999519533      0.518560501      
93.4             0.999519341      0.511545304      0.00893890648    -86.661886       0.00893890648    -86.661886       0.999519341      0.511545304      
93.75            0.99951911       0.504563553      0.0088172727     -86.6213106      0.0088172727     -86.6213106      0.99951911       0.504563553      
94.1             0.999518841      0.497614878      0.00869622245    -86.5794456      0.00869622245    -86.5794456      0.999518841      0.497614878      
94.45            0.999518534      0.490698911      0.00857574958    -86.5362467      0.00857574958    -86.5362467      0.999518534      0.490698911      
94.8             0.99951819       0.483815292      0.00845584805    -86.4916674      0.00845584805    -86.4916674      0.99951819       0.483815292      
95.15            0.999517809      0.476963664      0.00833651191    -86.4456591      0.00833651191    -86.4456591      0.999517809      0.476963664      
95.5             0.999517391      0.470143677      0.00821773532    -86.3981706      0.00821773532    -86.3981706      0.999517391      0.470143677      
95.85            0.999516938      0.463354987      0.00809951255    -86.3491483      0.00809951255    -86.3491483      0.999516938      0.463354987      
96.2             0.999516448      0.456597251      0.00798183796    -86.2985358      0.00798183796    -86.2985358      0.999516448      0.456597251      
96.55            0.999515923      0.449870136      0.00786470602    -86.2462737      0.00786470602    -86.2462737      0.999515923      0.449870136      
96.9             0.999515363      0.44317331       0.0077481113     -86.1922996      0.0077481113     -86.1922996      0.999515363      0.44317331       
97.25            0.999514768      0.436506448      0.00763204846    -86.1365479      0.00763204846    -86.1365479      0.999514768      0.436506448      
97.6             0.999514138      0.429869229      0.00751651228    -86.0789493      0.00751651228    -86.0789493      0.999514138      0.429869229      
97.95            0.999513474      0.423261335      0.00740149763    -86.0194308      0.00740149763    -86.0194308      0.999513474      0.423261335      
98.3             0.999512777      0.416682455      0.00728699947    -85.9579156      0.00728699947    -85.9579156      0.999512777      0.416682455      
98.65            0.999512046      0.410132281      0.00717301288    -85.8943223      0.00717301288    -85.8943223      0.999512046      0.410132281      
99               0.999511282      0.403610511      0.00705953303    -85.8285653      0.00705953303    -85.8285653      0.999511282      0.403610511      
99.35            0.999510485      0.397116844      0.00694655518    -85.7605538      0.00694655518    -85.7605538      0.999510485      0.397116844      
99.7             0.999509655      0.390650986      0.00683407472    -85.6901918      0.00683407472    -85.6901918      0.999509655      0.390650986      
100.05           0.999508793      0.384212647      0.00672208712    -85.617378       0.00672208712    -85.617378       0.999508793      0.384212647      
100.4            0.9995079        0.37780154       0.00661058795    -85.5420046      0.00661058795    -85.5420046      0.9995079        0.37780154       
100.75           0.999506974      0.371417382      0.0064995729     -85.4639576      0.0064995729     -85.4639576      0.999506974      0.371417382      
101.1            0.999506017      0.365059894      0.00638903775    -85.3831159      0.00638903775    -85.3831159      0.999506017      0.365059894      
101.45           0.999505029      0.358728801      0.00627897841    -85.299351       0.00627897841    -85.299351       0.999505029      0.358728801      
101.8            0.99950401       0.352423833      0.00616939088    -85.2125262      0.00616939088    -85.2125262      0.99950401       0.352423833      
102.15           0.999502961      0.346144722      0.00606027128    -85.1224961      0.00606027128    -85.1224961      0.999502961      0.346144722      
102.5            0.999501881      0.339891204      0.00595161584    -85.0291057      0.00595161584    -85.0291057      0.999501881      0.339891204      
102.85           0.999500771      0.333663019      0.00584342092    -84.9321901      0.00584342092    -84.9321901      0.999500771      0.333663019      
103.2            0.999499632      0.327459911      0.00573568298    -84.8315729      0.00573568298    -84.8315729      0.999499632      0.327459911      
103.55           0.999498463      0.321281625      0.00562839862    -84.7270659      0.00562839862    -84.7270659      0.999498463      0.321281625      
103.9            0.999497264      0.315127914      0.00552156458    -84.6184679      0.00552156458    -84.6184679      0.999497264      0.315127914      
104.25           0.999496037      0.308998529      0.00541517772    -84.5055634      0.00541517772    -84.5055634      0.999496037      0.308998529      
104.6            0.99949478       0.302893228      0.00530923504    -84.3881214      0.00530923504    -84.3881214      0.99949478       0.302893228      
104.95           0.999493495      0.296811771      0.00520373371    -84.2658941      0.00520373371    -84.2658941      0.999493495      0.296811771      
105.3            0.999492182      0.290753922      0.00509867102    -84.1386153      0.00509867102    -84.1386153      0.999492182      0.290753922      
105.65           0.999490841      0.284719446      0.00499404446    -84.0059985      0.00499404446    -84.0059985      0.999490841      0.284719446      
106              0.999489472      0.278708114      0.00488985166    -83.8677353      0.00488985166    -83.8677353      0.999489472      0.278708114      
106.35           0.999488075      0.272719698      0.00478609048    -83.7234929      0.00478609048    -83.7234929      0.999488075      0.272719698      
106.7            0.99948665       0.266753974      0.00468275893    -83.5729119      0.00468275893    -83.5729119      0.99948665       0.266753974      
107.05           0.999485199      0.260810719      0.00457985527    -83.4156036      0.00457985527    -83.4156036      0.999485199      0.260810719      
107.4            0.99948372       0.254889716      0.00447737795    -83.2511468      0.00447737795    -83.2511468      0.99948372       0.254889716      
107.75           0.999482214      0.248990748      0.00437532571    -83.0790847      0.00437532571    -83.0790847      0.999482214      0.248990748      
108.1            0.999480682      0.243113604      0.00427369751    -82.8989206      0.00427369751    -82.8989206      0.999480682      0.243113604      
108.45           0.999479124      0.237258071      0.00417249263    -82.710114       0.00417249263    -82.710114       0.999479124      0.237258071      
108.8            0.999477539      0.231423944      0.00407171066    -82.5120754      0.00407171066    -82.5120754      0.999477539      0.231423944      
109.15           0.999475928      0.225611016      0.00397135153    -82.3041608      0.00397135153    -82.3041608      0.999475928      0.225611016      
109.5            0.999474291      0.219819086      0.00387141555    -82.0856651      0.00387141555    -82.0856651      0.999474291      0.219819086      
109.85           0.999472629      0.214047955      0.00377190347    -81.8558152      0.00377190347    -81.8558152      0.999472629      0.214047955      
110.2            0.999470941      0.208297424      0.00367281648    -81.6137612      0.00367281648    -81.6137612      0.999470941      0.208297424      
110.55           0.999469228      0.2025673        0.00357415632    -81.3585673      0.00357415632    -81.3585673      0.999469228      0.2025673        
110.9            0.99946749       0.19685739       0.00347592528    -81.0892001      0.00347592528    -81.0892001      0.99946749       0.19685739       
111.25           0.999465727      0.191167504      0.00337812634    -80.8045165      0.00337812634    -80.8045165      0.999465727      0.191167504      
111.6            0.999463939      0.185497455      0.00328076318    -80.5032484      0.00328076318    -80.5032484      0.999463939      0.185497455      
111.95           0.999462127      0.179847059      0.00318384034    -80.1839855      0.00318384034    -80.1839855      0.999462127      0.179847059      
112.3            0.99946029       0.174216131      0.00308736332    -79.8451553      0.00308736332    -79.8451553      0.99946029       0.174216131      
112.65           0.999458429      0.168604493      0.00299133866    -79.4849997      0.00299133866    -79.4849997      0.999458429      0.168604493      
113              0.999456544      0.163011965      0.0028957742     -79.1015465      0.0028957742     -79.1015465      0.999456544      0.163011965      
113.35           0.999454635      0.157438371      0.00280067916    -78.6925777      0.00280067916    -78.6925777      0.999454635      0.157438371      
113.7            0.999452702      0.151883538      0.00270606446    -78.2555897      0.00270606446    -78.2555897      0.999452702      0.151883538      
114.05           0.999450746      0.146347295      0.00261194293    -77.7877475      0.00261194293    -77.7877475      0.999450746      0.146347295      
114.4            0.999448766      0.14082947       0.00251832965    -77.2858296      0.00251832965    -77.2858296      0.999448766      0.14082947       
114.75           0.999446763      0.135329898      0.00242524237    -76.7461613      0.00242524237    -76.7461613      0.999446763      0.135329898      
115.1            0.999444737      0.129848412      0.00233270196    -76.1645347      0.00233270196    -76.1645347      0.999444737      0.129848412      
115.45           0.999442688      0.124384848      0.00224073301    -75.5361121      0.00224073301    -75.5361121      0.999442688      0.124384848      
115.8            0.999440616      0.118939046      0.00214936455    -74.855308       0.00214936455    -74.855308       0.999440616      0.118939046      
116.15           0.999438521      0.113510846      0.00205863094    -74.1156444      0.00205863094    -74.1156444      0.999438521      0.113510846      
116.5            0.999436404      0.10810009       0.00196857302    -73.3095749      0.00196857302    -73.3095749      0.999436404      0.10810009       
116.85           0.999434264      0.102706622      0.00187923948    -72.4282654      0.00187923948    -72.4282654      0.999434264      0.102706622      
117.2            0.999432102      0.0973302888     0.00179068864    -71.4613256      0.00179068864    -71.4613256      0.999432102      0.0973302888     
117.55           0.999429918      0.0919709378     0.00170299068    -70.3964733      0.00170299068    -70.3964733      0.999429918      0.0919709378     
117.9            0.999427712      0.086628419      0.00161623059    -69.219119       0.00161623059    -69.219119       0.999427712      0.086628419      
118.25           0.999425484      0.0813025838     0.00153051181    -67.911849       0.00153051181    -67.911849       0.999425484      0.0813025838     
118.6            0.999423234      0.0759932855     0.00144596108    -66.4537846      0.00144596108    -66.4537846      0.999423234      0.0759932855     
118.95           0.999420963      0.0707003791     0.00136273469    -64.8197927      0.00136273469    -64.8197927      0.999420963      0.0707003791     
119.3            0.99941867       0.0654237213     0.00128102673    -62.9795277      0.00128102673    -62.9795277      0.99941867       0.0654237213     
119.65           0.999416356      0.0601631705     0.00120107977    -60.8962955      0.00120107977    -60.8962955      0.999416356      0.0601631705     
120              0.99941402       0.0549185867     0.00112319891    -58.5257681      0.00112319891    -58.5257681      0.99941402       0.0549185867     
120.35           0.999411663      0.0496898316     0.00104776999    -55.8146561      0.00104776999    -55.8146561      0.999411663      0.0496898316     
120.7            0.999409286      0.0444767685     0.000975282644   -52.6996066      0.000975282644   -52.6996066      0.999409286      0.0444767685     
121.05           0.999406887      0.0392792622     0.000906358677   -49.1068979      0.000906358677   -49.1068979      0.999406887      0.0392792622     
121.4            0.999404468      0.0340971791     0.0008417844     -44.9540208      0.0008417844     -44.9540208      0.999404468      0.0340971791     
121.75           0.999402028      0.0289303872     0.000782542488   -40.1550077      0.000782542488   -40.1550077      0.999402028      0.0289303872     
122.1            0.999399568      0.0237787559     0.000729832314   -34.6322107      0.000729832314   -34.6322107      0.999399568      0.0237787559     
122.45           0.999397087      0.0186421562     0.000685057871   -28.337335       0.000685057871   -28.337335       0.999397087      0.0186421562     
122.8            0.999394585      0.0135204606     0.000649752227   -21.2820554      0.000649752227   -21.2820554      0.999394585      0.0135204606     
123.15           0.999392064      0.00841354284    0.000625408821   -13.5712348      0.000625408821   -13.5712348      0.999392064      0.00841354284    
123.5            0.999389522      0.00332127832    0.000613221779   -5.42089027      0.000613221779   -5.42089027      0.999389522      0.00332127832    
123.85           0.999386961      -0.00175645626   0.000613804626   2.86102304       0.000613804626   2.86102304       0.999386961      -0.00175645626   
124.2            0.999384379      -0.00681978277   0.000627014755   10.9361788       0.000627014755   10.9361788       0.999384379      -0.00681978277   
124.55           0.999381778      -0.0118688217    0.000651983724   18.5133892       0.000651983724   18.5133892       0.999381778      -0.0118688217    
124.9            0.999379157      -0.0169036923    0.000687336497   25.4017668       0.000687336497   25.4017668       0.999379157      -0.0169036923    
125.25           0.999376517      -0.0219245123    0.000731481299   31.5200666       0.000731481299   31.5200666       0.999376517      -0.0219245123    
125.6            0.999373857      -0.0269313983    0.000782851317   36.8732326       0.000782851317   36.8732326       0.999373857      -0.0269313983    
125.95           0.999371177      -0.0319244655    0.000840047744   41.5185947       0.000840047744   41.5185947       0.999371177      -0.0319244655    
126.3            0.999368479      -0.0369038277    0.000901894434   45.5371632       0.000901894434   45.5371632       0.999368479      -0.0369038277    
126.65           0.999365761      -0.0418695978    0.000967437103   49.0148742       0.000967437103   49.0148742       0.999365761      -0.0418695978    
127              0.999363023      -0.0468218871    0.00103591655    52.0325401       0.00103591655    52.0325401       0.999363023      -0.0468218871    
127.35           0.999360267      -0.0517608058    0.00110673432    54.6615798       0.00110673432    54.6615798       0.999360267      -0.0517608058    
127.7            0.999357492      -0.0566864629    0.00117941976    56.9629966       0.00117941976    56.9629966       0.999357492      -0.0566864629    
128.05           0.999354699      -0.0615989663    0.00125360213    58.9879375       0.00125360213    58.9879375       0.999354699      -0.0615989663    
128.4            0.999351886      -0.0664984225    0.00132898803    60.7788823       0.00132898803    60.7788823       0.999351886      -0.0664984225    
128.75           0.999349055      -0.071384937     0.00140534392    62.3709778       0.00140534392    62.3709778       0.999349055      -0.071384937     
129.1            0.999346205      -0.0762586142    0.00148248262    63.7932947       0.00148248262    63.7932947       0.999346205      -0.0762586142    
129.45           0.999343336      -0.0811195573    0.00156025308    65.0699238       0.00156025308    65.0699238       0.999343336      -0.0811195573    
129.8            0.99934045       -0.0859678683    0.00163853249    66.2208951       0.00163853249    66.2208951       0.99934045       -0.0859678683    
130.15           0.999337544      -0.0908036481    0.00171722034    67.2629308       0.00171722034    67.2629308       0.999337544      -0.0908036481    
130.5            0.999334621      -0.0956269968    0.00179623378    68.2100559       0.00179623378    68.2100559       0.999334621      -0.0956269968    
130.85           0.99933168       -0.100438013     0.00187550409    69.0740905       0.00187550409    69.0740905       0.99933168       -0.100438013     
131.2            0.99932872       -0.105236795     0.00195497393    69.8650456       0.00195497393    69.8650456       0.99932872       -0.105236795     
131.55           0.999325742      -0.110023438     0.00203459519    70.5914417       0.00203459519    70.5914417       0.999325742      -0.110023438     
131.9            0.999322747      -0.11479804      0.00211432727    71.2605657       0.00211432727    71.2605657       0.999322747      -0.11479804      
132.25           0.999319733      -0.119560694     0.00219413573    71.878679        0.00219413573    71.878679        0.999319733      -0.119560694     
132.6            0.999316702      -0.124311494     0.00227399127    72.4511862       0.00227399127    72.4511862       0.999316702      -0.124311494     
132.95           0.999313653      -0.129050533     0.00235386881    72.9827727       0.00235386881    72.9827727       0.999313653      -0.129050533     
133.3            0.999310587      -0.133777903     0.00243374681    73.4775177       0.00243374681    73.4775177       0.999310587      -0.133777903     
133.65           0.999307503      -0.138493694     0.00251360674    73.9389869       0.00251360674    73.9389869       0.999307503      -0.138493694     
134              0.999304401      -0.143197996     0.00259343257    74.3703089       0.00259343257    74.3703089       0.999304401      -0.143197996     
134.35           0.999301282      -0.147890898     0.00267321038    74.7742391       0.00267321038    74.7742391       0.999301282      -0.147890898     
134.7            0.999298146      -0.152572488     0.00275292812    75.1532127       0.00275292812    75.1532127       0.999298146      -0.152572488     
135.05           0.999294992      -0.157242853     0.00283257527    75.509389        0.00283257527    75.509389        0.999294992      -0.157242853     
135.4            0.999291822      -0.161902079     0.00291214265    75.844689        0.00291214265    75.844689        0.999291822      -0.161902079     
135.75           0.999288634      -0.166550252     0.00299162224    76.1608266       0.00299162224    76.1608266       0.999288634      -0.166550252     
136.1            0.999285429      -0.171187455     0.00307100703    76.4593358       0.00307100703    76.4593358       0.999285429      -0.171187455     
136.45           0.999282207      -0.175813773     0.00315029088    76.7415929       0.00315029088    76.7415929       0.999282207      -0.175813773     
136.8            0.999278968      -0.180429287     0.00322946839    77.0088365       0.00322946839    77.0088365       0.999278968      -0.180429287     
137.15           0.999275712      -0.18503408      0.00330853485    77.2621838       0.00330853485    77.2621838       0.999275712      -0.18503408      
137.5            0.999272439      -0.189628232     0.00338748611    77.502645        0.00338748611    77.502645        0.999272439      -0.189628232     
137.85           0.99926915       -0.194211824     0.00346631855    77.7311358       0.00346631855    77.7311358       0.99926915       -0.194211824     
138.2            0.999265844      -0.198784935     0.00354502899    77.9484879       0.00354502899    77.9484879       0.999265844      -0.198784935     
138.55           0.999262521      -0.203347644     0.00362361467    78.1554585       0.00362361467    78.1554585       0.999262521      -0.203347644     
138.9            0.999259182      -0.207900028     0.00370207315    78.3527384       0.00370207315    78.3527384       0.999259182      -0.207900028     
139.25           0.999255826      -0.212442164     0.00378040234    78.5409588       0.00378040234    78.5409588       0.999255826      -0.212442164     
139.6            0.999252454      -0.216974129     0.00385860041    78.7206978       0.00385860041    78.7206978       0.999252454      -0.216974129     
139.95           0.999249065      -0.221495997     0.00393666578    78.8924858       0.00393666578    78.8924858       0.999249065      -0.221495997     
140              0.99924858       -0.222141159     0.00394780707    78.9164067       0.00394780707    78.9164067       0.99924858       -0.222141159     
