! Coilcraft 1812CS-682 Chip Inductor				
! 31 July 2002			
# MHZ S MA R 50
!Freq             MagS11           AngS11           MagS21           AngS21           MagS12           AngS12           MagS22           AngS22
1                0.372752041      56.5012263       0.852927965      -21.3728333      0.852927965      -21.3728333      0.372752041      56.5012263       
1.42             0.490205008      51.9874184       0.797828702      -28.9528393      0.797828702      -28.9528393      0.490205008      51.9874184       
1.84             0.585934047      47.1476017       0.739132678      -35.5320487      0.739132678      -35.5320487      0.585934047      47.1476017       
2.26             0.66202702       42.6469574       0.681456005      -41.1599548      0.681456005      -41.1599548      0.66202702       42.6469574       
2.68             0.72186835       38.6560954       0.627428494      -45.9443906      0.627428494      -45.9443906      0.72186835       38.6560954       
3.1              0.768862686      35.1815637       0.578204318      -50.0100075      0.578204318      -50.0100075      0.768862686      35.1815637       
3.52             0.805926486      32.1744671       0.534037362      -53.4757574      0.534037362      -53.4757574      0.805926486      32.1744671       
3.94             0.835378957      29.5717136       0.494707209      -56.445621       0.494707209      -56.445621       0.835378957      29.5717136       
4.36             0.85899883       27.3118675       0.459782452      -59.0065437      0.459782452      -59.0065437      0.85899883       27.3118675       
4.78             0.878128428      25.3406004       0.428766377      -61.2296161      0.428766377      -61.2296161      0.878128428      25.3406004       
5.2              0.893775718      23.6118547       0.40117032       -63.1723777      0.40117032       -63.1723777      0.893775718      23.6118547       
5.62             0.906698734      22.0873388       0.376546412      -64.881258       0.376546412      -64.881258       0.906698734      22.0873388       
6.04             0.917470533      20.7354788       0.354498902      -66.3937642      0.354498902      -66.3937642      0.917470533      20.7354788       
6.46             0.926527504      19.5302968       0.334684937      -67.7403061      0.334684937      -67.7403061      0.926527504      19.5302968       
6.88             0.934204768      18.4503925       0.31681059       -68.9456639      0.31681059       -68.9456639      0.934204768      18.4503925       
7.3              0.94076197       17.4780789       0.300625139      -70.030148       0.300625139      -70.030148       0.94076197       17.4780789       
7.72             0.946402091      16.5986746       0.28591508       -71.0105094      0.28591508       -71.0105094      0.946402091      16.5986746       
8.14             0.951285229      15.7999322       0.272498523      -71.9006501      0.272498523      -71.9006501      0.951285229      15.7999322       
8.56             0.955538744      15.0715808       0.26022024       -72.7121807      0.26022024       -72.7121807      0.955538744      15.0715808       
8.98             0.959264799      14.4049614       0.248947412      -73.4548572      0.248947412      -73.4548572      0.959264799      14.4049614       
9.4              0.962545992      13.7927346       0.23856604       -74.1369258      0.23856604       -74.1369258      0.962545992      13.7927346       
9.82             0.965449603      13.2286473       0.22897794       -74.7653962      0.22897794       -74.7653962      0.965449603      13.2286473       
10.24            0.968030831      12.7073451       0.220098251      -75.3462595      0.220098251      -75.3462595      0.968030831      12.7073451       
10.66            0.970335265      12.2242209       0.211853352      -75.8846622      0.211853352      -75.8846622      0.970335265      12.2242209       
11.08            0.972400799      11.7752918       0.204179145      -76.3850475      0.204179145      -76.3850475      0.972400799      11.7752918       
11.5             0.974259123      11.3570996       0.19701962       -76.851269       0.19701962       -76.851269       0.974259123      11.3570996       
11.92            0.975936887      10.9666289       0.190325663      -77.2866839      0.190325663      -77.2866839      0.975936887      10.9666289       
12.34            0.977456626      10.6012394       0.184054056      -77.694229       0.184054056      -77.694229       0.977456626      10.6012394       
12.76            0.978837491      10.2586107       0.178166645      -78.0764837      0.178166645      -78.0764837      0.978837491      10.2586107       
13.18            0.980095837      9.93669584       0.172629637      -78.435722       0.172629637      -78.435722       0.980095837      9.93669584       
13.6             0.981245693      9.63368283       0.167413012      -78.7739561      0.167413012      -78.7739561      0.981245693      9.63368283       
14.02            0.98229915       9.34796238       0.162490015      -79.0929721      0.162490015      -79.0929721      0.98229915       9.34796238       
14.44            0.983266665      9.07810065       0.157836741      -79.3943609      0.157836741      -79.3943609      0.983266665      9.07810065       
14.86            0.984157324      8.82281628       0.153431768      -79.679544       0.153431768      -79.679544       0.984157324      8.82281628       
15.28            0.984979046      8.58096083       0.149255846      -79.9497949      0.149255846      -79.9497949      0.984979046      8.58096083       
15.7             0.985738759      8.35150224       0.145291639      -80.2062578      0.145291639      -80.2062578      0.985738759      8.35150224       
16.12            0.986442545      8.13351053       0.141523491      -80.4499638      0.141523491      -80.4499638      0.986442545      8.13351053       
16.54            0.987095762      7.92614565       0.137937236      -80.6818439      0.137937236      -80.6818439      0.987095762      7.92614565       
16.96            0.98770314       7.72864693       0.134520019      -80.9027413      0.134520019      -80.9027413      0.98770314       7.72864693       
17.38            0.988268872      7.54032402       0.131260158      -81.113421       0.131260158      -81.113421       0.988268872      7.54032402       
17.8             0.988796681      7.36054903       0.12814701       -81.3145788      0.12814701       -81.3145788      0.988796681      7.36054903       
18.22            0.989289886      7.18874963       0.12517086       -81.5068491      0.12517086       -81.5068491      0.989289886      7.18874963       
18.64            0.98975145       7.02440312       0.122322825      -81.6908109      0.122322825      -81.6908109      0.98975145       7.02440312       
19.06            0.990184024      6.86703118       0.119594764      -81.8669943      0.119594764      -81.8669943      0.990184024      6.86703118       
19.48            0.990589991      6.71619533       0.116979209      -82.0358854      0.116979209      -82.0358854      0.990589991      6.71619533       
19.9             0.99097149       6.57149282       0.11446929       -82.1979302      0.11446929       -82.1979302      0.99097149       6.57149282       
20.32            0.991330453      6.43255317       0.112058683      -82.3535395      0.112058683      -82.3535395      0.991330453      6.43255317       
20.74            0.991668622      6.29903494       0.109741552      -82.5030916      0.109741552      -82.5030916      0.991668622      6.29903494       
21.16            0.991987576      6.17062303       0.10751251       -82.6469357      0.10751251       -82.6469357      0.991987576      6.17062303       
21.58            0.992288746      6.04702615       0.10536657       -82.7853948      0.10536657       -82.7853948      0.992288746      6.04702615       
22               0.992573431      5.92797462       0.103299112      -82.9187676      0.103299112      -82.9187676      0.992573431      5.92797462       
22.42            0.992842815      5.81321847       0.101305852      -83.0473313      0.101305852      -83.0473313      0.992842815      5.81321847       
22.84            0.993097978      5.70252562       0.0993828076     -83.1713432      0.0993828076     -83.1713432      0.993097978      5.70252562       
23.26            0.993339903      5.59568035       0.0975262765     -83.2910423      0.0975262765     -83.2910423      0.993339903      5.59568035       
23.68            0.993569493      5.49248186       0.0957328097     -83.4066513      0.0957328097     -83.4066513      0.993569493      5.49248186       
24.1             0.993787573      5.39274304       0.0939991912     -83.5183776      0.0939991912     -83.5183776      0.993787573      5.39274304       
24.52            0.993994901      5.29628931       0.0923224192     -83.6264149      0.0923224192     -83.6264149      0.993994901      5.29628931       
24.94            0.994192173      5.2029576        0.0906996879     -83.7309437      0.0906996879     -83.7309437      0.994192173      5.2029576        
25.36            0.99438003       5.1125954        0.0891283724     -83.8321334      0.0891283724     -83.8321334      0.99438003       5.1125954        
25.78            0.994559061      5.02505997       0.087606014      -83.9301421      0.087606014      -83.9301421      0.994559061      5.02505997       
26.2             0.994729812      4.9402175        0.0861303077     -84.0251183      0.0861303077     -84.0251183      0.994729812      4.9402175        
26.62            0.994892785      4.85794249       0.0846990902     -84.117201       0.0846990902     -84.117201       0.994892785      4.85794249       
27.04            0.995048446      4.77811709       0.0833103293     -84.206521       0.0833103293     -84.206521       0.995048446      4.77811709       
27.46            0.995197226      4.70063054       0.0819621143     -84.2932011      0.0819621143     -84.2932011      0.995197226      4.70063054       
27.88            0.995339525      4.62537861       0.0806526467     -84.3773568      0.0806526467     -84.3773568      0.995339525      4.62537861       
28.3             0.995475712      4.55226318       0.0793802325     -84.459097       0.0793802325     -84.459097       0.995475712      4.55226318       
28.72            0.995606133      4.48119176       0.0781432747     -84.5385241      0.0781432747     -84.5385241      0.995606133      4.48119176       
29.14            0.995731108      4.41207712       0.0769402664     -84.615735       0.0769402664     -84.615735       0.995731108      4.41207712       
29.56            0.995850936      4.3448369        0.0757697843     -84.6908208      0.0757697843     -84.6908208      0.995850936      4.3448369        
29.98            0.995965896      4.27939328       0.0746304837     -84.7638679      0.0746304837     -84.7638679      0.995965896      4.27939328       
30.4             0.996076245      4.21567269       0.0735210923     -84.8349578      0.0735210923     -84.8349578      0.996076245      4.21567269       
30.82            0.996182228      4.15360551       0.0724404062     -84.9041677      0.0724404062     -84.9041677      0.996182228      4.15360551       
31.24            0.996284071      4.09312581       0.0713872849     -84.9715707      0.0713872849     -84.9715707      0.996284071      4.09312581       
31.66            0.996381985      4.0341711        0.0703606472     -85.0372359      0.0703606472     -85.0372359      0.996381985      4.0341711        
32.08            0.996476169      3.97668214       0.0693594677     -85.1012289      0.0693594677     -85.1012289      0.996476169      3.97668214       
32.5             0.99656681       3.92060269       0.0683827731     -85.1636122      0.0683827731     -85.1636122      0.99656681       3.92060269       
32.92            0.996654082      3.86587937       0.0674296389     -85.2244447      0.0674296389     -85.2244447      0.996654082      3.86587937       
33.34            0.996738148      3.81246144       0.0664991863     -85.2837827      0.0664991863     -85.2837827      0.996738148      3.81246144       
33.76            0.996819163      3.76030065       0.0655905796     -85.3416795      0.0655905796     -85.3416795      0.996819163      3.76030065       
34.18            0.996897272      3.7093511        0.0647030238     -85.398186       0.0647030238     -85.398186       0.996897272      3.7093511        
34.6             0.996972611      3.65956909       0.0638357614     -85.4533505      0.0638357614     -85.4533505      0.996972611      3.65956909       
35.02            0.997045308      3.61091301       0.0629880712     -85.5072189      0.0629880712     -85.5072189      0.997045308      3.61091301       
35.44            0.997115484      3.56334318       0.0621592655     -85.5598352      0.0621592655     -85.5598352      0.997115484      3.56334318       
35.86            0.997183253      3.51682176       0.0613486882     -85.6112412      0.0613486882     -85.6112412      0.997183253      3.51682176       
36.28            0.997248723      3.47131265       0.0605557133     -85.6614766      0.0605557133     -85.6614766      0.997248723      3.47131265       
36.7             0.997311994      3.4267814        0.0597797432     -85.7105796      0.0597797432     -85.7105796      0.997311994      3.4267814        
37.12            0.997373165      3.38319508       0.0590202069     -85.7585865      0.0590202069     -85.7585865      0.997373165      3.38319508       
37.54            0.997432324      3.34052222       0.0582765584     -85.8055319      0.0582765584     -85.8055319      0.997432324      3.34052222       
37.96            0.997489558      3.29873275       0.0575482759     -85.8514491      0.0575482759     -85.8514491      0.997489558      3.29873275       
38.38            0.997544948      3.25779788       0.0568348599     -85.8963696      0.0568348599     -85.8963696      0.997544948      3.25779788       
38.8             0.997598571      3.21769008       0.0561358324     -85.9403239      0.0561358324     -85.9403239      0.997598571      3.21769008       
39.22            0.997650501      3.17838297       0.0554507357     -85.9833409      0.0554507357     -85.9833409      0.997650501      3.17838297       
39.64            0.997700806      3.13985128       0.054779131      -86.0254484      0.054779131      -86.0254484      0.997700806      3.13985128       
40.06            0.997749552      3.10207079       0.0541205979     -86.066673       0.0541205979     -86.066673       0.997749552      3.10207079       
40.48            0.997796802      3.06501829       0.0534747334     -86.1070401      0.0534747334     -86.1070401      0.997796802      3.06501829       
40.9             0.997842615      3.02867151       0.0528411505     -86.1465741      0.0528411505     -86.1465741      0.997842615      3.02867151       
41.32            0.997887047      2.99300905       0.052219478      -86.1852986      0.052219478      -86.1852986      0.997887047      2.99300905       
41.74            0.997930151      2.95801042       0.0516093594     -86.2232358      0.0516093594     -86.2232358      0.997930151      2.95801042       
42.16            0.997971979      2.92365588       0.0510104524     -86.2604074      0.0510104524     -86.2604074      0.997971979      2.92365588       
42.58            0.99801258       2.88992651       0.0504224279     -86.296834       0.0504224279     -86.296834       0.99801258       2.88992651       
43               0.998051998      2.8568041        0.0498449696     -86.3325355      0.0498449696     -86.3325355      0.998051998      2.8568041        
43.42            0.998090279      2.82427114       0.0492777733     -86.3675308      0.0492777733     -86.3675308      0.998090279      2.82427114       
43.84            0.998127464      2.79231079       0.0487205464     -86.4018384      0.0487205464     -86.4018384      0.998127464      2.79231079       
44.26            0.998163594      2.76090686       0.0481730073     -86.4354758      0.0481730073     -86.4354758      0.998163594      2.76090686       
44.68            0.998198706      2.73004373       0.0476348847     -86.4684598      0.0476348847     -86.4684598      0.998198706      2.73004373       
45.1             0.998232837      2.69970638       0.0471059176     -86.5008068      0.0471059176     -86.5008068      0.998232837      2.69970638       
45.52            0.998266022      2.66988035       0.0465858544     -86.5325324      0.0465858544     -86.5325324      0.998266022      2.66988035       
45.94            0.998298293      2.64055169       0.0460744527     -86.5636515      0.0460744527     -86.5636515      0.998298293      2.64055169       
46.36            0.998329684      2.61170694       0.0455714786     -86.5941787      0.0455714786     -86.5941787      0.998329684      2.61170694       
46.78            0.998360223      2.58333316       0.0450767067     -86.624128       0.0450767067     -86.624128       0.998360223      2.58333316       
47.2             0.998389941      2.55541782       0.0445899196     -86.6535125      0.0445899196     -86.6535125      0.998389941      2.55541782       
47.62            0.998418865      2.52794887       0.0441109075     -86.6823454      0.0441109075     -86.6823454      0.998418865      2.52794887       
48.04            0.998447022      2.50091465       0.0436394676     -86.7106389      0.0436394676     -86.7106389      0.998447022      2.50091465       
48.46            0.998474437      2.47430392       0.0431754045     -86.7384051      0.0431754045     -86.7384051      0.998474437      2.47430392       
48.88            0.998501134      2.44810581       0.0427185292     -86.7656554      0.0427185292     -86.7656554      0.998501134      2.44810581       
49.3             0.998527138      2.42230983       0.0422686591     -86.792401       0.0422686591     -86.792401       0.998527138      2.42230983       
49.72            0.99855247       2.39690585       0.0418256178     -86.8186526      0.0418256178     -86.8186526      0.99855247       2.39690585       
50.14            0.998577152      2.37188404       0.0413892348     -86.8444204      0.0413892348     -86.8444204      0.998577152      2.37188404       
50.56            0.998601204      2.34723494       0.040959345      -86.8697143      0.040959345      -86.8697143      0.998601204      2.34723494       
50.98            0.998624648      2.32294937       0.040535789      -86.8945441      0.040535789      -86.8945441      0.998624648      2.32294937       
51.4             0.9986475        2.29901846       0.0401184125     -86.9189188      0.0401184125     -86.9189188      0.9986475        2.29901846       
51.82            0.998669781      2.27543364       0.039707066      -86.9428473      0.039707066      -86.9428473      0.998669781      2.27543364       
52.24            0.998691507      2.25218657       0.0393016048     -86.9663384      0.0393016048     -86.9663384      0.998691507      2.25218657       
52.66            0.998712695      2.22926923       0.0389018891     -86.9894001      0.0389018891     -86.9894001      0.998712695      2.22926923       
53.08            0.998733362      2.20667381       0.038507783      -87.0120404      0.038507783      -87.0120404      0.998733362      2.20667381       
53.5             0.998753523      2.18439277       0.0381191553     -87.0342672      0.0381191553     -87.0342672      0.998753523      2.18439277       
53.92            0.998773193      2.16241879       0.0377358787     -87.0560877      0.0377358787     -87.0560877      0.998773193      2.16241879       
54.34            0.998792387      2.14074478       0.0373578296     -87.0775091      0.0373578296     -87.0775091      0.998792387      2.14074478       
54.76            0.998811118      2.11936386       0.0369848884     -87.0985383      0.0369848884     -87.0985383      0.998811118      2.11936386       
55.18            0.9988294        2.09826938       0.0366169391     -87.1191819      0.0366169391     -87.1191819      0.9988294        2.09826938       
55.6             0.998847245      2.07745485       0.0362538692     -87.1394463      0.0362538692     -87.1394463      0.998847245      2.07745485       
56.02            0.998864667      2.05691402       0.0358955694     -87.1593377      0.0358955694     -87.1593377      0.998864667      2.05691402       
56.44            0.998881677      2.03664079       0.0355419338     -87.178862       0.0355419338     -87.178862       0.998881677      2.03664079       
56.86            0.998898287      2.01662925       0.0351928596     -87.198025       0.0351928596     -87.198025       0.998898287      2.01662925       
57.28            0.998914508      1.99687368       0.0348482468     -87.2168321      0.0348482468     -87.2168321      0.998914508      1.99687368       
57.7             0.99893035       1.9773685        0.0345079985     -87.2352887      0.0345079985     -87.2352887      0.99893035       1.9773685        
58.12            0.998945824      1.9581083        0.0341720206     -87.2533999      0.0341720206     -87.2533999      0.998945824      1.9581083        
58.54            0.99896094       1.93908784       0.0338402216     -87.2711706      0.0338402216     -87.2711706      0.99896094       1.93908784       
58.96            0.998975707      1.920302         0.0335125125     -87.2886056      0.0335125125     -87.2886056      0.998975707      1.920302         
59.38            0.998990135      1.90174582       0.033188807      -87.3057094      0.033188807      -87.3057094      0.998990135      1.90174582       
59.8             0.999004233      1.88341449       0.0328690212     -87.3224863      0.0328690212     -87.3224863      0.999004233      1.88341449       
60.22            0.99901801       1.86530331       0.0325530733     -87.3389407      0.0325530733     -87.3389407      0.99901801       1.86530331       
60.64            0.999031473      1.84740772       0.032240884      -87.3550766      0.032240884      -87.3550766      0.999031473      1.84740772       
61.06            0.999044631      1.82972329       0.031932376      -87.3708978      0.031932376      -87.3708978      0.999044631      1.82972329       
61.48            0.999057493      1.81224572       0.0316274743     -87.386408       0.0316274743     -87.386408       0.999057493      1.81224572       
61.9             0.999070064      1.79497079       0.0313261057     -87.401611       0.0313261057     -87.401611       0.999070064      1.79497079       
62.32            0.999082353      1.77789443       0.0310281991     -87.41651        0.0310281991     -87.41651        0.999082353      1.77789443       
62.74            0.999094368      1.76101266       0.0307336853     -87.4311085      0.0307336853     -87.4311085      0.999094368      1.76101266       
63.16            0.999106113      1.74432162       0.0304424969     -87.4454094      0.0304424969     -87.4454094      0.999106113      1.74432162       
63.58            0.999117597      1.72781753       0.0301545683     -87.459416       0.0301545683     -87.459416       0.999117597      1.72781753       
64               0.999128826      1.71149673       0.0298698355     -87.4731309      0.0298698355     -87.4731309      0.999128826      1.71149673       
64.42            0.999139806      1.69535563       0.0295882362     -87.486557       0.0295882362     -87.486557       0.999139806      1.69535563       
64.84            0.999150542      1.67939077       0.02930971       -87.499697       0.02930971       -87.499697       0.999150542      1.67939077       
65.26            0.999161042      1.66359875       0.0290341975     -87.5125531      0.0290341975     -87.5125531      0.999161042      1.66359875       
65.68            0.999171309      1.64797626       0.0287616414     -87.525128       0.0287616414     -87.525128       0.999171309      1.64797626       
66.1             0.999181351      1.63252008       0.0284919853     -87.5374237      0.0284919853     -87.5374237      0.999181351      1.63252008       
66.52            0.999191172      1.61722708       0.0282251747     -87.5494424      0.0282251747     -87.5494424      0.999191172      1.61722708       
66.94            0.999200777      1.60209417       0.0279611562     -87.5611861      0.0279611562     -87.5611861      0.999200777      1.60209417       
67.36            0.999210172      1.5871184        0.0276998777     -87.5726568      0.0276998777     -87.5726568      0.999210172      1.5871184        
67.78            0.99921936       1.57229682       0.0274412885     -87.5838562      0.0274412885     -87.5838562      0.99921936       1.57229682       
68.2             0.999228348      1.55762662       0.0271853391     -87.5947859      0.0271853391     -87.5947859      0.999228348      1.55762662       
68.62            0.999237139      1.54310502       0.0269319812     -87.6054476      0.0269319812     -87.6054476      0.999237139      1.54310502       
69.04            0.999245738      1.52872931       0.0266811678     -87.6158426      0.0266811678     -87.6158426      0.999245738      1.52872931       
69.46            0.999254148      1.51449685       0.0264328528     -87.6259724      0.0264328528     -87.6259724      0.999254148      1.51449685       
69.88            0.999262375      1.50040506       0.0261869913     -87.6358382      0.0261869913     -87.6358382      0.999262375      1.50040506       
70.3             0.999270423      1.48645145       0.0259435395     -87.645441       0.0259435395     -87.645441       0.999270423      1.48645145       
70.72            0.999278294      1.47263354       0.0257024547     -87.654782       0.0257024547     -87.654782       0.999278294      1.47263354       
71.14            0.999285994      1.45894894       0.0254636952     -87.6638621      0.0254636952     -87.6638621      0.999285994      1.45894894       
71.56            0.999293525      1.44539531       0.02522722       -87.6726821      0.02522722       -87.6726821      0.999293525      1.44539531       
71.98            0.999300891      1.43197037       0.0249929894     -87.6812428      0.0249929894     -87.6812428      0.999300891      1.43197037       
72.4             0.999308097      1.41867187       0.0247609644     -87.6895447      0.0247609644     -87.6895447      0.999308097      1.41867187       
72.82            0.999315144      1.40549765       0.0245311071     -87.6975885      0.0245311071     -87.6975885      0.999315144      1.40549765       
73.24            0.999322037      1.39244556       0.0243033802     -87.7053745      0.0243033802     -87.7053745      0.999322037      1.39244556       
73.66            0.999328779      1.37951352       0.0240777475     -87.7129031      0.0240777475     -87.7129031      0.999328779      1.37951352       
74.08            0.999335372      1.3666995        0.0238541735     -87.7201745      0.0238541735     -87.7201745      0.999335372      1.3666995        
74.5             0.99934182       1.3540015        0.0236326235     -87.7271889      0.0236326235     -87.7271889      0.99934182       1.3540015        
74.92            0.999348126      1.34141759       0.0234130635     -87.7339463      0.0234130635     -87.7339463      0.999348126      1.34141759       
75.34            0.999354292      1.32894585       0.0231954604     -87.7404467      0.0231954604     -87.7404467      0.999354292      1.32894585       
75.76            0.999360322      1.31658442       0.0229797819     -87.7466899      0.0229797819     -87.7466899      0.999360322      1.31658442       
76.18            0.999366218      1.30433149       0.0227659961     -87.7526757      0.0227659961     -87.7526757      0.999366218      1.30433149       
76.6             0.999371983      1.29218527       0.022554072      -87.7584037      0.022554072      -87.7584037      0.999371983      1.29218527       
77.02            0.999377619      1.28014402       0.0223439794     -87.7638735      0.0223439794     -87.7638735      0.999377619      1.28014402       
77.44            0.999383129      1.26820605       0.0221356885     -87.7690845      0.0221356885     -87.7690845      0.999383129      1.26820605       
77.86            0.999388515      1.25636968       0.0219291702     -87.7740362      0.0219291702     -87.7740362      0.999388515      1.25636968       
78.28            0.999393779      1.24463328       0.0217243962     -87.7787278      0.0217243962     -87.7787278      0.999393779      1.24463328       
78.7             0.999398925      1.23299525       0.0215213386     -87.7831584      0.0215213386     -87.7831584      0.999398925      1.23299525       
79.12            0.999403954      1.22145404       0.0213199703     -87.7873272      0.0213199703     -87.7873272      0.999403954      1.22145404       
79.54            0.999408868      1.21000811       0.0211202644     -87.791233       0.0211202644     -87.791233       0.999408868      1.21000811       
79.96            0.99941367       1.19865596       0.020922195      -87.7948747      0.020922195      -87.7948747      0.99941367       1.19865596       
80.38            0.999418361      1.18739613       0.0207257365     -87.7982512      0.0207257365     -87.7982512      0.999418361      1.18739613       
80.8             0.999422944      1.17622718       0.0205308639     -87.801361       0.0205308639     -87.801361       0.999422944      1.17622718       
81.22            0.999427421      1.16514771       0.0203375526     -87.8042027      0.0203375526     -87.8042027      0.999427421      1.16514771       
81.64            0.999431793      1.15415634       0.0201457786     -87.8067747      0.0201457786     -87.8067747      0.999431793      1.15415634       
82.06            0.999436062      1.14325171       0.0199555185     -87.8090755      0.0199555185     -87.8090755      0.999436062      1.14325171       
82.48            0.999440231      1.13243251       0.0197667492     -87.8111031      0.0197667492     -87.8111031      0.999440231      1.13243251       
82.9             0.999444301      1.12169744       0.0195794482     -87.8128556      0.0195794482     -87.8128556      0.999444301      1.12169744       
83.32            0.999448273      1.11104523       0.0193935932     -87.8143312      0.0193935932     -87.8143312      0.999448273      1.11104523       
83.74            0.99945215       1.10047465       0.0192091628     -87.8155277      0.0192091628     -87.8155277      0.99945215       1.10047465       
84.16            0.999455933      1.08998446       0.0190261355     -87.8164428      0.0190261355     -87.8164428      0.999455933      1.08998446       
84.58            0.999459624      1.07957347       0.0188444907     -87.8170741      0.0188444907     -87.8170741      0.999459624      1.07957347       
85               0.999463224      1.06924052       0.0186642078     -87.8174193      0.0186642078     -87.8174193      0.999463224      1.06924052       
85.42            0.999466735      1.05898445       0.018485267      -87.8174757      0.018485267      -87.8174757      0.999466735      1.05898445       
85.84            0.999470159      1.04880414       0.0183076485     -87.8172405      0.0183076485     -87.8172405      0.999470159      1.04880414       
86.26            0.999473496      1.03869848       0.0181313332     -87.8167108      0.0181313332     -87.8167108      0.999473496      1.03869848       
86.68            0.999476749      1.0286664        0.0179563022     -87.8158838      0.0179563022     -87.8158838      0.999476749      1.0286664        
87.1             0.999479918      1.01870683       0.017782537      -87.8147563      0.017782537      -87.8147563      0.999479918      1.01870683       
87.52            0.999483005      1.00881872       0.0176100195     -87.8133249      0.0176100195     -87.8133249      0.999483005      1.00881872       
87.94            0.999486012      0.999001068      0.0174387319     -87.8115863      0.0174387319     -87.8115863      0.999486012      0.999001068      
88.36            0.999488939      0.989252858      0.0172686566     -87.809537       0.0172686566     -87.809537       0.999488939      0.989252858      
88.78            0.999491788      0.979573109      0.0170997767     -87.8071731      0.0170997767     -87.8071731      0.999491788      0.979573109      
89.2             0.999494561      0.969960857      0.0169320753     -87.8044909      0.0169320753     -87.8044909      0.999494561      0.969960857      
89.62            0.999497258      0.960415157      0.0167655358     -87.8014863      0.0167655358     -87.8014863      0.999497258      0.960415157      
90.04            0.99949988       0.950935077      0.0166001423     -87.7981551      0.0166001423     -87.7981551      0.99949988       0.950935077      
90.46            0.999502429      0.941519707      0.0164358786     -87.794493       0.0164358786     -87.794493       0.999502429      0.941519707      
90.88            0.999504906      0.932168152      0.0162727294     -87.7904955      0.0162727294     -87.7904955      0.999504906      0.932168152      
91.3             0.999507313      0.922879533      0.0161106793     -87.7861578      0.0161106793     -87.7861578      0.999507313      0.922879533      
91.72            0.999509649      0.913652988      0.0159497132     -87.7814751      0.0159497132     -87.7814751      0.999509649      0.913652988      
92.14            0.999511916      0.904487669      0.0157898165     -87.7764422      0.0157898165     -87.7764422      0.999511916      0.904487669      
92.56            0.999514116      0.895382745      0.0156309746     -87.771054       0.0156309746     -87.771054       0.999514116      0.895382745      
92.98            0.999516249      0.886337401      0.0154731734     -87.765305       0.0154731734     -87.765305       0.999516249      0.886337401      
93.4             0.999518316      0.877350833      0.0153163989     -87.7591895      0.0153163989     -87.7591895      0.999518316      0.877350833      
93.82            0.999520318      0.868422255      0.0151606374     -87.7527015      0.0151606374     -87.7527015      0.999520318      0.868422255      
94.24            0.999522256      0.859550893      0.0150058755     -87.7458351      0.0150058755     -87.7458351      0.999522256      0.859550893      
94.66            0.999524132      0.850735988      0.0148520999     -87.7385839      0.0148520999     -87.7385839      0.999524132      0.850735988      
95.08            0.999525945      0.841976793      0.0146992976     -87.7309413      0.0146992976     -87.7309413      0.999525945      0.841976793      
95.5             0.999527697      0.833272574      0.014547456      -87.7229005      0.014547456      -87.7229005      0.999527697      0.833272574      
95.92            0.999529389      0.824622613      0.0143965625     -87.7144544      0.0143965625     -87.7144544      0.999529389      0.824622613      
96.34            0.999531021      0.816026199      0.0142466047     -87.7055957      0.0142466047     -87.7055957      0.999531021      0.816026199      
96.76            0.999532595      0.807482639      0.0140975706     -87.6963169      0.0140975706     -87.6963169      0.999532595      0.807482639      
97.18            0.999534111      0.798991249      0.0139494484     -87.6866101      0.0139494484     -87.6866101      0.999534111      0.798991249      
97.6             0.99953557       0.790551356      0.0138022262     -87.6764671      0.0138022262     -87.6764671      0.99953557       0.790551356      
98.02            0.999536973      0.7821623        0.0136558927     -87.6658794      0.0136558927     -87.6658794      0.999536973      0.7821623        
98.44            0.999538321      0.773823433      0.0135104366     -87.6548382      0.0135104366     -87.6548382      0.999538321      0.773823433      
98.86            0.999539614      0.765534116      0.0133658469     -87.6433346      0.0133658469     -87.6433346      0.999539614      0.765534116      
99.28            0.999540853      0.757293722      0.0132221125     -87.6313589      0.0132221125     -87.6313589      0.999540853      0.757293722      
99.7             0.999542038      0.749101634      0.0130792228     -87.6189016      0.0130792228     -87.6189016      0.999542038      0.749101634      
100.12           0.999543171      0.740957246      0.0129371674     -87.6059523      0.0129371674     -87.6059523      0.999543171      0.740957246      
100.54           0.999544253      0.732859962      0.0127959358     -87.5925006      0.0127959358     -87.5925006      0.999544253      0.732859962      
100.96           0.999545283      0.724809195      0.0126555178     -87.5785355      0.0126555178     -87.5785355      0.999545283      0.724809195      
101.38           0.999546262      0.716804369      0.0125159035     -87.5640458      0.0125159035     -87.5640458      0.999546262      0.716804369      
101.8            0.999547192      0.708844917      0.0123770831     -87.5490196      0.0123770831     -87.5490196      0.999547192      0.708844917      
102.22           0.999548073      0.70093028       0.0122390469     -87.5334447      0.0122390469     -87.5334447      0.999548073      0.70093028       
102.64           0.999548905      0.69305991       0.0121017853     -87.5173085      0.0121017853     -87.5173085      0.999548905      0.69305991       
103.06           0.999549689      0.685233267      0.011965289      -87.5005977      0.011965289      -87.5005977      0.999549689      0.685233267      
103.48           0.999550425      0.677449821      0.0118295489     -87.4832989      0.0118295489     -87.4832989      0.999550425      0.677449821      
103.9            0.999551115      0.669709049      0.0116945559     -87.4653976      0.0116945559     -87.4653976      0.999551115      0.669709049      
104.32           0.999551759      0.662010436      0.0115603011     -87.4468792      0.0115603011     -87.4468792      0.999551759      0.662010436      
104.74           0.999552357      0.654353478      0.0114267757     -87.4277284      0.0114267757     -87.4277284      0.999552357      0.654353478      
105.16           0.99955291       0.646737675      0.0112939712     -87.4079292      0.0112939712     -87.4079292      0.99955291       0.646737675      
105.58           0.999553418      0.639162539      0.0111618791     -87.3874651      0.0111618791     -87.3874651      0.999553418      0.639162539      
106              0.999553883      0.631627588      0.011030491      -87.3663189      0.011030491      -87.3663189      0.999553883      0.631627588      
106.42           0.999554304      0.624132346      0.0108997989     -87.3444725      0.0108997989     -87.3444725      0.999554304      0.624132346      
106.84           0.999554682      0.616676348      0.0107697946     -87.3219075      0.0107697946     -87.3219075      0.999554682      0.616676348      
107.26           0.999555017      0.609259132      0.0106404703     -87.2986043      0.0106404703     -87.2986043      0.999555017      0.609259132      
107.68           0.999555311      0.601880248      0.010511818      -87.2745428      0.010511818      -87.2745428      0.999555311      0.601880248      
108.1            0.999555563      0.594539248      0.0103838303     -87.2497019      0.0103838303     -87.2497019      0.999555563      0.594539248      
108.52           0.999555773      0.587235696      0.0102564994     -87.2240598      0.0102564994     -87.2240598      0.999555773      0.587235696      
108.94           0.999555944      0.579969158      0.0101298181     -87.1975936      0.0101298181     -87.1975936      0.999555944      0.579969158      
109.36           0.999556074      0.572739209      0.010003779      -87.1702795      0.010003779      -87.1702795      0.999556074      0.572739209      
109.78           0.999556165      0.565545431      0.00987837487    -87.1420926      0.00987837487    -87.1420926      0.999556165      0.565545431      
110.2            0.999556216      0.558387412      0.00975359876    -87.113007       0.00975359876    -87.113007       0.999556216      0.558387412      
110.62           0.999556229      0.551264746      0.00962944368    -87.0829958      0.00962944368    -87.0829958      0.999556229      0.551264746      
111.04           0.999556203      0.544177031      0.00950590278    -87.0520307      0.00950590278    -87.0520307      0.999556203      0.544177031      
111.46           0.999556139      0.537123876      0.00938296935    -87.0200823      0.00938296935    -87.0200823      0.999556139      0.537123876      
111.88           0.999556038      0.53010489       0.00926063678    -86.9871197      0.00926063678    -86.9871197      0.999556038      0.53010489       
112.3            0.9995559        0.523119693      0.00913889855    -86.9531107      0.00913889855    -86.9531107      0.9995559        0.523119693      
112.72           0.999555724      0.516167908      0.00901774828    -86.9180217      0.00901774828    -86.9180217      0.999555724      0.516167908      
113.14           0.999555513      0.509249164      0.00889717966    -86.8818175      0.00889717966    -86.8818175      0.999555513      0.509249164      
113.56           0.999555265      0.502363095      0.00877718651    -86.8444612      0.00877718651    -86.8444612      0.999555265      0.502363095      
113.98           0.999554982      0.495509341      0.00865776275    -86.8059143      0.00865776275    -86.8059143      0.999554982      0.495509341      
114.4            0.999554664      0.488687548      0.00853890237    -86.7661362      0.00853890237    -86.7661362      0.999554664      0.488687548      
114.82           0.999554311      0.481897366      0.00842059951    -86.7250846      0.00842059951    -86.7250846      0.999554311      0.481897366      
115.24           0.999553923      0.47513845       0.00830284837    -86.682715       0.00830284837    -86.682715       0.999553923      0.47513845       
115.66           0.999553501      0.468410462      0.00818564327    -86.6389808      0.00818564327    -86.6389808      0.999553501      0.468410462      
116.08           0.999553046      0.461713065      0.00806897861    -86.593833       0.00806897861    -86.593833       0.999553046      0.461713065      
116.5            0.999552556      0.455045932      0.00795284891    -86.5472203      0.00795284891    -86.5472203      0.999552556      0.455045932      
116.92           0.999552034      0.448408735      0.00783724876    -86.4990884      0.00783724876    -86.4990884      0.999552034      0.448408735      
117.34           0.999551479      0.441801156      0.00772217285    -86.4493806      0.00772217285    -86.4493806      0.999551479      0.441801156      
117.76           0.999550891      0.435222879      0.00760761599    -86.398037       0.00760761599    -86.398037       0.999550891      0.435222879      
118.18           0.999550271      0.428673591      0.00749357306    -86.3449947      0.00749357306    -86.3449947      0.999550271      0.428673591      
118.6            0.999549619      0.422152986      0.00738003903    -86.2901872      0.00738003903    -86.2901872      0.999549619      0.422152986      
119.02           0.999548935      0.415660762      0.00726700898    -86.2335446      0.00726700898    -86.2335446      0.999548935      0.415660762      
119.44           0.99954822       0.409196621      0.00715447807    -86.1749931      0.00715447807    -86.1749931      0.99954822       0.409196621      
119.86           0.999547474      0.402760267      0.00704244157    -86.1144547      0.00704244157    -86.1144547      0.999547474      0.402760267      
120.28           0.999546698      0.396351411      0.00693089483    -86.0518471      0.00693089483    -86.0518471      0.999546698      0.396351411      
120.7            0.999545891      0.389969767      0.0068198333     -85.9870833      0.0068198333     -85.9870833      0.999545891      0.389969767      
121.12           0.999545053      0.383615053      0.00670925252    -85.9200711      0.00670925252    -85.9200711      0.999545053      0.383615053      
121.54           0.999544186      0.377286991      0.00659914813    -85.850713       0.00659914813    -85.850713       0.999544186      0.377286991      
121.96           0.999543289      0.370985307      0.00648951585    -85.7789057      0.00648951585    -85.7789057      0.999543289      0.370985307      
122.38           0.999542363      0.364709729      0.00638035154    -85.7045396      0.00638035154    -85.7045396      0.999542363      0.364709729      
122.8            0.999541408      0.358459991      0.0062716511     -85.6274983      0.0062716511     -85.6274983      0.999541408      0.358459991      
123.22           0.999540424      0.35223583       0.00616341058    -85.5476582      0.00616341058    -85.5476582      0.999540424      0.35223583       
123.64           0.999539411      0.346036987      0.0060556261     -85.464888       0.0060556261     -85.464888       0.999539411      0.346036987      
124.06           0.99953837       0.339863204      0.0059482939     -85.3790477      0.0059482939     -85.3790477      0.99953837       0.339863204      
124.48           0.9995373        0.33371423       0.00584141033    -85.2899883      0.00584141033    -85.2899883      0.9995373        0.33371423       
124.9            0.999536203      0.327589815      0.00573497183    -85.1975509      0.00573497183    -85.1975509      0.999536203      0.327589815      
125.32           0.999535078      0.321489713      0.00562897496    -85.1015659      0.00562897496    -85.1015659      0.999535078      0.321489713      
125.74           0.999533926      0.315413681      0.00552341642    -85.001852       0.00552341642    -85.001852       0.999533926      0.315413681      
126.16           0.999532746      0.309361481      0.00541829299    -84.8982153      0.00541829299    -84.8982153      0.999532746      0.309361481      
126.58           0.99953154       0.303332876      0.00531360161    -84.7904481      0.00531360161    -84.7904481      0.99953154       0.303332876      
127              0.999530307      0.297327632      0.00520933933    -84.6783278      0.00520933933    -84.6783278      0.999530307      0.297327632      
127.42           0.999529047      0.29134552       0.00510550334    -84.5616154      0.00510550334    -84.5616154      0.999529047      0.29134552       
127.84           0.999527761      0.285386313      0.00500209098    -84.440054       0.00500209098    -84.440054       0.999527761      0.285386313      
128.26           0.999526448      0.279449786      0.00489909974    -84.3133671      0.00489909974    -84.3133671      0.999526448      0.279449786      
128.68           0.99952511       0.273535719      0.00479652726    -84.1812568      0.00479652726    -84.1812568      0.99952511       0.273535719      
129.1            0.999523746      0.267643893      0.00469437136    -84.0434016      0.00469437136    -84.0434016      0.999523746      0.267643893      
129.52           0.999522357      0.261774093      0.00459263005    -83.8994542      0.00459263005    -83.8994542      0.999522357      0.261774093      
129.94           0.999520942      0.255926106      0.0044913015     -83.7490386      0.0044913015     -83.7490386      0.999520942      0.255926106      
130.36           0.999519502      0.250099723      0.00439038413    -83.5917473      0.00439038413    -83.5917473      0.999519502      0.250099723      
130.78           0.999518038      0.244294736      0.00428987657    -83.4271379      0.00428987657    -83.4271379      0.999518038      0.244294736      
131.2            0.999516548      0.23851094       0.00418977767    -83.2547294      0.00418977767    -83.2547294      0.999516548      0.23851094       
131.62           0.999515034      0.232748134      0.00409008658    -83.0739978      0.00409008658    -83.0739978      0.999515034      0.232748134      
132.04           0.999513496      0.227006119      0.00399080272    -82.8843712      0.00399080272    -82.8843712      0.999513496      0.227006119      
132.46           0.999511933      0.221284697      0.00389192584    -82.6852244      0.00389192584    -82.6852244      0.999511933      0.221284697      
132.88           0.999510346      0.215583674      0.00379345603    -82.4758728      0.00379345603    -82.4758728      0.999510346      0.215583674      
133.3            0.999508736      0.209902858      0.00369539377    -82.2555645      0.00369539377    -82.2555645      0.999508736      0.209902858      
133.72           0.999507101      0.20424206       0.00359773997    -82.0234728      0.00359773997    -82.0234728      0.999507101      0.20424206       
134.14           0.999505444      0.198601093      0.00350049601    -81.7786862      0.00350049601    -81.7786862      0.999505444      0.198601093      
134.56           0.999503762      0.192979771      0.00340366381    -81.5201975      0.00340366381    -81.5201975      0.999503762      0.192979771      
134.98           0.999502058      0.187377913      0.00330724591    -81.2468914      0.00330724591    -81.2468914      0.999502058      0.187377913      
135.4            0.999500331      0.181795339      0.00321124549    -80.9575291      0.00321124549    -80.9575291      0.999500331      0.181795339      
135.82           0.999498581      0.176231869      0.00311566654    -80.6507316      0.00311566654    -80.6507316      0.999498581      0.176231869      
136.24           0.999496808      0.170687329      0.00302051389    -80.3249594      0.00302051389    -80.3249594      0.999496808      0.170687329      
136.66           0.999495012      0.165161545      0.00292579341    -79.9784887      0.00292579341    -79.9784887      0.999495012      0.165161545      
137.08           0.999493194      0.159654345      0.00283151207    -79.6093836      0.00283151207    -79.6093836      0.999493194      0.159654345      
137.5            0.999491354      0.15416556       0.00273767822    -79.215463       0.00273767822    -79.215463       0.999491354      0.15416556       
137.92           0.999489492      0.148695022      0.0026443017     -78.7942613      0.0026443017     -78.7942613      0.999489492      0.148695022      
138.34           0.999487608      0.143242567      0.00255139419    -78.3429817      0.00255139419    -78.3429817      0.999487608      0.143242567      
138.76           0.999485701      0.137808031      0.00245896943    -77.8584394      0.00245896943    -77.8584394      0.999485701      0.137808031      
139.18           0.999483774      0.132391253      0.00236704367    -77.3369945      0.00236704367    -77.3369945      0.999483774      0.132391253      
139.6            0.999481824      0.126992073      0.00227563605    -76.7744692      0.00227563605    -76.7744692      0.999481824      0.126992073      
140.02           0.999479854      0.121610333      0.00218476924    -76.1660485      0.00218476924    -76.1660485      0.999479854      0.121610333      
140.44           0.999477862      0.116245879      0.00209447006    -75.5061573      0.00209447006    -75.5061573      0.999477862      0.116245879      
140.86           0.999475848      0.110898557      0.00200477039    -74.7883109      0.00200477039    -74.7883109      0.999475848      0.110898557      
141.28           0.999473814      0.105568214      0.00191570824    -74.004929       0.00191570824    -74.004929       0.999473814      0.105568214      
141.7            0.999471759      0.1002547        0.00182732907    -73.1471055      0.00182732907    -73.1471055      0.999471759      0.1002547        
142.12           0.999469683      0.0949578679     0.00173968757    -72.2043215      0.00173968757    -72.2043215      0.999469683      0.0949578679     
142.54           0.999467587      0.0896775701     0.00165284986    -71.1640859      0.00165284986    -71.1640859      0.999467587      0.0896775701     
142.96           0.99946547       0.0844136621     0.00156689631    -70.0114837      0.00156689631    -70.0114837      0.99946547       0.0844136621     
143.38           0.999463332      0.0791660007     0.00148192529    -68.7286088      0.00148192529    -68.7286088      0.999463332      0.0791660007     
143.8            0.999461175      0.0739344444     0.00139805799    -67.2938498      0.00139805799    -67.2938498      0.999461175      0.0739344444     
144.22           0.999458997      0.0687188534     0.00131544481    -65.6809961      0.00131544481    -65.6809961      0.999458997      0.0687188534     
144.64           0.999456799      0.0635190894     0.00123427383    -63.8581294      0.00123427383    -63.8581294      0.999456799      0.0635190894     
145.06           0.999454581      0.0583350159     0.00115478201    -61.7862739      0.00115478201    -61.7862739      0.999454581      0.0583350159     
145.48           0.999452343      0.0531664978     0.00107727013    -59.4178127      0.00107727013    -59.4178127      0.999452343      0.0531664978     
145.9            0.999450086      0.0480134017     0.00100212252    -56.6947567      0.00100212252    -56.6947567      0.999450086      0.0480134017     
146.32           0.999447809      0.0428755956     0.000929832619   -53.5471295      0.000929832619   -53.5471295      0.999447809      0.0428755956     
146.74           0.999445513      0.0377529491     0.000861035408   -49.8920921      0.000861035408   -49.8920921      0.999445513      0.0377529491     
147.16           0.999443197      0.0326453332     0.000796545659   -45.6350846      0.000796545659   -45.6350846      0.999443197      0.0326453332     
147.58           0.999440862      0.0275526206     0.000737397727   -40.675322       0.000737397727   -40.675322       0.999440862      0.0275526206     
148              0.999438508      0.0224746851     0.000684874383   -34.9192751      0.000684874383   -34.9192751      0.999438508      0.0224746851     
148.42           0.999436134      0.0174114022     0.000640499165   -28.3062829      0.000640499165   -28.3062829      0.999436134      0.0174114022     
148.84           0.999433742      0.0123626488     0.000605951969   -20.8474434      0.000605951969   -20.8474434      0.999433742      0.0123626488     
149.26           0.999431331      0.00732830287    0.000582867269   -12.6686763      0.000582867269   -12.6686763      0.999431331      0.00732830287    
149.68           0.999428901      0.00230824415    0.000572517217   -4.03277269      0.000572517217   -4.03277269      0.999428901      0.00230824415    
150.1            0.999426453      -0.00269764647   0.000575475589   4.69022972       0.000575475589   4.69022972       0.999426453      -0.00269764647   
150.52           0.999423985      -0.00768948674   0.000591433742   13.1079896       0.000591433742   13.1079896       0.999423985      -0.00768948674   
150.94           0.9994215        -0.0126673931    0.000619285033   20.9036953       0.000619285033   20.9036953       0.9994215        -0.0126673931    
151.36           0.999418996      -0.0176314807    0.000657424509   27.8921177       0.000657424509   27.8921177       0.999418996      -0.0176314807    
151.78           0.999416474      -0.0225818634    0.000704094659   34.0169962       0.000704094659   34.0169962       0.999416474      -0.0225818634    
152.2            0.999413933      -0.0275186538    0.000757640334   39.3131666       0.000757640334   39.3131666       0.999413933      -0.0275186538    
152.62           0.999411374      -0.0324419633    0.000816636659   43.8638282       0.000816636659   43.8638282       0.999411374      -0.0324419633    
153.04           0.999408798      -0.0373519021    0.000879920612   47.7688906       0.000879920612   47.7688906       0.999408798      -0.0373519021    
153.46           0.999406203      -0.042248579     0.00094657085    51.1266704       0.00094657085    51.1266704       0.999406203      -0.042248579     
153.88           0.999403591      -0.0471321018    0.00101586822    54.0254361       0.00101586822    54.0254361       0.999403591      -0.0471321018    
154.3            0.99940096       -0.0520025771    0.00108725432    56.5407341       0.00108725432    56.5407341       0.99940096       -0.0520025771    
154.72           0.999398313      -0.0568601103    0.0011602953     58.7355955       0.0011602953     58.7355955       0.999398313      -0.0568601103    
155.14           0.999395647      -0.0617048057    0.0012346526     60.6619367       0.0012346526     60.6619367       0.999395647      -0.0617048057    
155.56           0.999392964      -0.0665367664    0.00131006037    62.3622876       0.00131006037    62.3622876       0.999392964      -0.0665367664    
155.98           0.999390264      -0.0713560945    0.0013863083     63.8714577       0.0013863083     63.8714577       0.999390264      -0.0713560945    
156.4            0.999387546      -0.0761628908    0.00146322867    65.2179917       0.00146322867    65.2179917       0.999387546      -0.0761628908    
156.82           0.999384811      -0.0809572553    0.00154068667    66.425381        0.00154068667    66.425381        0.999384811      -0.0809572553    
157.24           0.999382058      -0.0857392867    0.00161857312    67.513047        0.00161857312    67.513047        0.999382058      -0.0857392867    
157.66           0.999379289      -0.0905090828    0.00169679887    68.4971287       0.00169679887    68.4971287       0.999379289      -0.0905090828    
158.08           0.999376502      -0.0952667402    0.00177529066    69.3911106       0.00177529066    69.3911106       0.999376502      -0.0952667402    
158.5            0.999373699      -0.100012355     0.00185398782    70.2063209       0.00185398782    70.2063209       0.999373699      -0.100012355     
158.92           0.999370879      -0.104746021     0.00193283986    70.9523286       0.00193283986    70.9523286       0.999370879      -0.104746021     
159.34           0.999368041      -0.109467832     0.00201180444    71.6372597       0.00201180444    71.6372597       0.999368041      -0.109467832     
159.76           0.999365187      -0.114177882     0.00209084594    72.2680506       0.00209084594    72.2680506       0.999365187      -0.114177882     
160.18           0.999362317      -0.118876261     0.00216993417    72.850652        0.00216993417    72.850652        0.999362317      -0.118876261     
160.6            0.999359429      -0.12356306      0.00224904347    73.3901933       0.00224904347    73.3901933       0.999359429      -0.12356306      
161.02           0.999356526      -0.12823837      0.00232815192    73.8911162       0.00232815192    73.8911162       0.999356526      -0.12823837      
161.44           0.999353605      -0.132902278     0.00240724074    74.3572837       0.00240724074    74.3572837       0.999353605      -0.132902278     
161.86           0.999350669      -0.137554874     0.00248629376    74.7920697       0.00248629376    74.7920697       0.999350669      -0.137554874     
162.28           0.999347716      -0.142196244     0.00256529705    75.1984325       0.00256529705    75.1984325       0.999347716      -0.142196244     
162.7            0.999344746      -0.146826473     0.00264423852    75.5789755       0.00264423852    75.5789755       0.999344746      -0.146826473     
163.12           0.999341761      -0.151445648     0.00272310772    75.9359985       0.00272310772    75.9359985       0.999341761      -0.151445648     
163.54           0.999338759      -0.156053853     0.00280189554    76.2715399       0.00280189554    76.2715399       0.999338759      -0.156053853     
163.96           0.999335741      -0.160651171     0.00288059407    76.587412        0.00288059407    76.587412        0.999335741      -0.160651171     
164.38           0.999332707      -0.165237684     0.00295919641    76.8852318       0.00295919641    76.8852318       0.999332707      -0.165237684     
164.8            0.999329657      -0.169813476     0.00303769652    77.1664453       0.00303769652    77.1664453       0.999329657      -0.169813476     
165.22           0.999326592      -0.174378625     0.00311608915    77.4323503       0.00311608915    77.4323503       0.999326592      -0.174378625     
165.64           0.99932351       -0.178933214     0.0031943697     77.684114        0.0031943697     77.684114        0.99932351       -0.178933214     
166.06           0.999320413      -0.18347732      0.00327253416    77.9227891       0.00327253416    77.9227891       0.999320413      -0.18347732      
166.48           0.9993173        -0.188011023     0.00335057901    78.1493273       0.00335057901    78.1493273       0.9993173        -0.188011023     
166.9            0.999314171      -0.192534399     0.00342850121    78.3645912       0.00342850121    78.3645912       0.999314171      -0.192534399     
167.32           0.999311026      -0.197047527     0.00350629809    78.5693643       0.00350629809    78.5693643       0.999311026      -0.197047527     
167.74           0.999307867      -0.201550483     0.00358396736    78.7643596       0.00358396736    78.7643596       0.999307867      -0.201550483     
168.16           0.999304691      -0.206043341     0.00366150699    78.9502276       0.00366150699    78.9502276       0.999304691      -0.206043341     
168.58           0.9993015        -0.210526176     0.00373891528    79.1275627       0.00373891528    79.1275627       0.9993015        -0.210526176     
169              0.999298294      -0.214999063     0.00381619074    79.2969092       0.00381619074    79.2969092       0.999298294      -0.214999063     
169.42           0.999295072      -0.219462074     0.0038933321     79.4587665       0.0038933321     79.4587665       0.999295072      -0.219462074     
169.84           0.999291835      -0.223915282     0.00397033831    79.6135935       0.00397033831    79.6135935       0.999291835      -0.223915282     
170              0.999290598      -0.225609179     0.00399963827    79.6708152       0.00399963827    79.6708152       0.999290598      -0.225609179     
