! Coilcraft 1812CS-183 Chip Inductor				
! 31 July 2002			
# MHZ S MA R 50
!Freq             MagS11           AngS11           MagS21           AngS21           MagS12           AngS12           MagS22           AngS22
1                0.701362833      37.23902         0.612515055      -43.8616702      0.612515055      -43.8616702      0.701362833      37.23902         
1.17             0.752708592      33.9151682       0.563274173      -48.2118346      0.563274173      -48.2118346      0.752708592      33.9151682       
1.34             0.793078451      31.0040558       0.519065921      -51.9076154      0.519065921      -51.9076154      0.793078451      31.0040558       
1.51             0.825033735      28.4695488       0.479744606      -55.0631188      0.479744606      -55.0631188      0.825033735      28.4695488       
1.68             0.850555763      26.2631408       0.444901278      -57.7743241      0.444901278      -57.7743241      0.850555763      26.2631408       
1.85             0.871142749      24.3368799       0.414037203      -60.1197781      0.414037203      -60.1197781      0.871142749      24.3368799       
2.02             0.887918219      22.6479321       0.386652181      -62.1629449      0.386652181      -62.1629449      0.887918219      22.6479321       
2.19             0.901724524      21.1596773       0.362284539      -63.954876       0.362284539      -63.954876       0.901724524      21.1596773       
2.36             0.913195992      19.8414366       0.340525622      -65.5366586      0.340525622      -65.5366586      0.913195992      19.8414366       
2.53             0.922813636      18.6677332       0.321021684      -66.9414718      0.321021684      -66.9414718      0.922813636      18.6677332       
2.7              0.930945268      17.6174651       0.303470098      -68.196244       0.303470098      -68.196244       0.930945268      17.6174651       
2.87             0.937874674      16.6731394       0.287613433      -69.32296        0.287613433      -69.32296        0.937874674      16.6731394       
3.04             0.943822831      15.8202135       0.273233147      -70.3396837      0.273233147      -70.3396837      0.943822831      15.8202135       
3.21             0.948963371      15.0465496       0.260143645      -71.2613538      0.260143645      -71.2613538      0.948963371      15.0465496       
3.38             0.953433945      14.3419696       0.248187041      -72.1004051      0.248187041      -72.1004051      0.953433945      14.3419696       
3.55             0.957344606      13.6978974       0.237228656      -72.8672536      0.237228656      -72.8672536      0.957344606      13.6978974       
3.72             0.960784064      13.1070697       0.227153241      -73.5706777      0.227153241      -73.5706777      0.960784064      13.1070697       
3.89             0.963824377      12.5633046       0.217861817      -74.2181197      0.217861817      -74.2181197      0.963824377      12.5633046       
4.06             0.96652451       12.0613143       0.209269065      -74.8159237      0.209269065      -74.8159237      0.96652451       12.0613143       
4.23             0.96893305       11.5965544       0.20130116       -75.3695274      0.20130116       -75.3695274      0.96893305       11.5965544       
4.4              0.971090291      11.1651011       0.193893981      -75.8836148      0.193893981      -75.8836148      0.971090291      11.1651011       
4.57             0.973029865      10.7635515       0.186991628      -76.3622401      0.186991628      -76.3622401      0.973029865      10.7635515       
4.74             0.974779999      10.3889419       0.180545186      -76.8089284      0.180545186      -76.8089284      0.974779999      10.3889419       
4.91             0.976364523      10.0386805       0.174511704      -77.2267582      0.174511704      -77.2267582      0.976364523      10.0386805       
5.08             0.977803655      9.71049224       0.168853338      -77.6184287      0.168853338      -77.6184287      0.977803655      9.71049224       
5.25             0.979114635      9.40237229       0.163536628      -77.9863161      0.163536628      -77.9863161      0.979114635      9.40237229       
5.42             0.980312236      9.11254804       0.158531902      -78.3325193      0.158531902      -78.3325193      0.980312236      9.11254804       
5.59             0.981409167      8.83944679       0.153812761      -78.6588997      0.153812761      -78.6588997      0.981409167      8.83944679       
5.76             0.982416413      8.58166875       0.149355653      -78.9671126      0.149355653      -78.9671126      0.982416413      8.58166875       
5.93             0.983343503      8.33796425       0.145139503      -79.2586353      0.145139503      -79.2586353      0.983343503      8.33796425       
6.1              0.984198739      8.10721437       0.141145402      -79.53479        0.141145402      -79.53479        0.984198739      8.10721437       
6.27             0.984989374      7.88841446       0.137356342      -79.7967634      0.137356342      -79.7967634      0.984989374      7.88841446       
6.44             0.985721772      7.6806601        0.133756983      -80.0456236      0.133756983      -80.0456236      0.985721772      7.6806601        
6.61             0.986401533      7.48313499       0.13033346       -80.2823343      0.13033346       -80.2823343      0.986401533      7.48313499       
6.78             0.987033598      7.29510062       0.127073211      -80.5077674      0.127073211      -80.5077674      0.987033598      7.29510062       
6.95             0.987622345      7.11588729       0.123964826      -80.7227135      0.123964826      -80.7227135      0.987622345      7.11588729       
7.12             0.988171657      6.94488631       0.120997925      -80.9278909      0.120997925      -80.9278909      0.988171657      6.94488631       
7.29             0.988684996      6.78154333       0.118163043      -81.123954       0.118163043      -81.123954       0.988684996      6.78154333       
7.46             0.989165447      6.62535241       0.115451531      -81.3114998      0.115451531      -81.3114998      0.989165447      6.62535241       
7.63             0.989615775      6.47585089       0.112855472      -81.4910745      0.112855472      -81.4910745      0.989615775      6.47585089       
7.8              0.990038457      6.33261491       0.110367609      -81.6631783      0.110367609      -81.6631783      0.990038457      6.33261491       
7.97             0.990435723      6.19525544       0.107981273      -81.8282705      0.107981273      -81.8282705      0.990435723      6.19525544       
8.14             0.990809579      6.06341481       0.105690326      -81.9867733      0.105690326      -81.9867733      0.990809579      6.06341481       
8.31             0.99116184       5.93676361       0.103489115      -82.1390755      0.103489115      -82.1390755      0.99116184       5.93676361       
8.48             0.991494145      5.81499799       0.10137242       -82.285536       0.10137242       -82.285536       0.991494145      5.81499799       
8.65             0.991807982      5.69783724       0.0993354129     -82.4264862      0.0993354129     -82.4264862      0.991807982      5.69783724       
8.82             0.992104702      5.58502164       0.0973736273     -82.5622328      0.0973736273     -82.5622328      0.992104702      5.58502164       
8.99             0.992385533      5.47631052       0.0954829205     -82.6930602      0.0954829205     -82.6930602      0.992385533      5.47631052       
9.16             0.992651596      5.3714806        0.0936594467     -82.819232       0.0936594467     -82.819232       0.992651596      5.3714806        
9.33             0.992903914      5.27032441       0.0918996311     -82.9409934      0.0918996311     -82.9409934      0.992903914      5.27032441       
9.5              0.993143423      5.17264894       0.0902001463     -83.0585724      0.0902001463     -83.0585724      0.993143423      5.17264894       
9.67             0.993370979      5.07827442       0.0885578915     -83.1721815      0.0885578915     -83.1721815      0.993370979      5.07827442       
9.84             0.993587369      4.98703319       0.0869699735     -83.2820188      0.0869699735     -83.2820188      0.993587369      4.98703319       
10.01            0.993793316      4.89876872       0.0854336901     -83.3882694      0.0854336901     -83.3882694      0.993793316      4.89876872       
10.18            0.993989484      4.81333467       0.0839465141     -83.4911063      0.0839465141     -83.4911063      0.993989484      4.81333467       
10.35            0.994176484      4.73059411       0.08250608       -83.5906912      0.08250608       -83.5906912      0.994176484      4.73059411       
10.52            0.994354883      4.65041878       0.0811101709     -83.687176       0.0811101709     -83.687176       0.994354883      4.65041878       
10.69            0.994525202      4.57268841       0.0797567073     -83.7807029      0.0797567073     -83.7807029      0.994525202      4.57268841       
10.86            0.994687924      4.49729007       0.0784437367     -83.8714053      0.0784437367     -83.8714053      0.994687924      4.49729007       
11.03            0.994843495      4.4241177        0.077169424      -83.9594087      0.077169424      -83.9594087      0.994843495      4.4241177        
11.2             0.99499233       4.35307154       0.0759320427     -84.0448312      0.0759320427     -84.0448312      0.99499233       4.35307154       
11.37            0.995134813      4.28405766       0.0747299672     -84.1277839      0.0747299672     -84.1277839      0.995134813      4.28405766       
11.54            0.995271302      4.21698759       0.0735616658     -84.2083713      0.0735616658     -84.2083713      0.995271302      4.21698759       
11.71            0.99540213       4.15177791       0.0724256935     -84.2866922      0.0724256935     -84.2866922      0.99540213       4.15177791       
11.88            0.995527606      4.08834988       0.0713206864     -84.3628398      0.0713206864     -84.3628398      0.995527606      4.08834988       
12.05            0.995648017      4.02662912       0.0702453559     -84.436902       0.0702453559     -84.436902       0.995648017      4.02662912       
12.22            0.995763635      3.96654535       0.0691984837     -84.508962       0.0691984837     -84.508962       0.995763635      3.96654535       
12.39            0.995874709      3.90803205       0.068178917      -84.5790984      0.068178917      -84.5790984      0.995874709      3.90803205       
12.56            0.995981476      3.85102628       0.0671855643     -84.6473857      0.0671855643     -84.6473857      0.995981476      3.85102628       
12.73            0.996084155      3.79546839       0.0662173913     -84.7138944      0.0662173913     -84.7138944      0.996084155      3.79546839       
12.9             0.996182951      3.74130183       0.0652734171     -84.7786915      0.0652734171     -84.7786915      0.996182951      3.74130183       
13.07            0.996278059      3.68847296       0.0643527112     -84.8418403      0.0643527112     -84.8418403      0.996278059      3.68847296       
13.24            0.996369658      3.63693083       0.0634543899     -84.9034011      0.0634543899     -84.9034011      0.996369658      3.63693083       
13.41            0.99645792       3.58662708       0.0625776134     -84.963431       0.0625776134     -84.963431       0.99645792       3.58662708       
13.58            0.996543004      3.5375157        0.0617215835     -85.0219844      0.0617215835     -85.0219844      0.996543004      3.5375157        
13.75            0.99662506       3.48955295       0.0608855408     -85.079113       0.0608855408     -85.079113       0.99662506       3.48955295       
13.92            0.996704229      3.44269719       0.0600687624     -85.1348659      0.0600687624     -85.1348659      0.996704229      3.44269719       
14.09            0.996780645      3.39690876       0.0592705596     -85.1892901      0.0592705596     -85.1892901      0.996780645      3.39690876       
14.26            0.996854433      3.35214988       0.0584902763     -85.24243        0.0584902763     -85.24243        0.996854433      3.35214988       
14.43            0.996925711      3.30838452       0.0577272866     -85.2943282      0.0577272866     -85.2943282      0.996925711      3.30838452       
14.6             0.996994592      3.26557831       0.0569809936     -85.3450252      0.0569809936     -85.3450252      0.996994592      3.26557831       
14.77            0.99706118       3.22369844       0.0562508274     -85.3945597      0.0562508274     -85.3945597      0.99706118       3.22369844       
14.94            0.997125575      3.18271359       0.0555362436     -85.4429686      0.0555362436     -85.4429686      0.997125575      3.18271359       
15.11            0.997187872      3.14259381       0.0548367219     -85.4902871      0.0548367219     -85.4902871      0.997187872      3.14259381       
15.28            0.99724816       3.10331051       0.0541517652     -85.5365489      0.0541517652     -85.5365489      0.99724816       3.10331051       
15.45            0.997306523      3.0648363        0.0534808976     -85.5817862      0.0534808976     -85.5817862      0.997306523      3.0648363        
15.62            0.997363041      3.02714499       0.0528236639     -85.6260298      0.0528236639     -85.6260298      0.997363041      3.02714499       
15.79            0.99741779       2.99021151       0.0521796282     -85.6693091      0.0521796282     -85.6693091      0.99741779       2.99021151       
15.96            0.997470842      2.95401185       0.051548373      -85.7116522      0.051548373      -85.7116522      0.997470842      2.95401185       
16.13            0.997522265      2.91852298       0.050929498      -85.7530862      0.050929498      -85.7530862      0.997522265      2.91852298       
16.3             0.997572124      2.88372285       0.0503226195     -85.7936369      0.0503226195     -85.7936369      0.997572124      2.88372285       
16.47            0.997620481      2.84959028       0.0497273697     -85.833329       0.0497273697     -85.833329       0.997620481      2.84959028       
16.64            0.997667394      2.81610499       0.0491433954     -85.8721863      0.0491433954     -85.8721863      0.997667394      2.81610499       
16.81            0.997712919      2.78324748       0.0485703575     -85.9102315      0.0485703575     -85.9102315      0.997712919      2.78324748       
16.98            0.997757109      2.75099903       0.0480079305     -85.9474865      0.0480079305     -85.9474865      0.997757109      2.75099903       
17.15            0.997800014      2.71934167       0.0474558015     -85.983972       0.0474558015     -85.983972       0.997800014      2.71934167       
17.32            0.997841683      2.6882581        0.04691367       -86.0197084      0.04691367       -86.0197084      0.997841683      2.6882581        
17.49            0.997882161      2.65773172       0.0463812469     -86.0547147      0.0463812469     -86.0547147      0.997882161      2.65773172       
17.66            0.997921491      2.62774655       0.045858254      -86.0890096      0.045858254      -86.0890096      0.997921491      2.62774655       
17.83            0.997959716      2.5982872        0.0453444239     -86.1226108      0.0453444239     -86.1226108      0.997959716      2.5982872        
18               0.997996875      2.56933889       0.044839499      -86.1555354      0.044839499      -86.1555354      0.997996875      2.56933889       
18.17            0.998033006      2.54088735       0.0443432313     -86.1877998      0.0443432313     -86.1877998      0.998033006      2.54088735       
18.34            0.998068146      2.51291888       0.043855382      -86.2194199      0.043855382      -86.2194199      0.998068146      2.51291888       
18.51            0.998102328      2.48542023       0.0433757207     -86.2504107      0.0433757207     -86.2504107      0.998102328      2.48542023       
18.68            0.998135587      2.45837866       0.0429040257     -86.2807869      0.0429040257     -86.2807869      0.998135587      2.45837866       
18.85            0.998167953      2.43178189       0.0424400829     -86.3105626      0.0424400829     -86.3105626      0.998167953      2.43178189       
19.02            0.998199458      2.40561805       0.0419836861     -86.3397512      0.0419836861     -86.3397512      0.998199458      2.40561805       
19.19            0.998230129      2.37987571       0.0415346361     -86.3683657      0.0415346361     -86.3683657      0.998230129      2.37987571       
19.36            0.998259995      2.35454383       0.0410927407     -86.3964187      0.0410927407     -86.3964187      0.998259995      2.35454383       
19.53            0.998289082      2.32961176       0.0406578143     -86.4239221      0.0406578143     -86.4239221      0.998289082      2.32961176       
19.7             0.998317416      2.3050692        0.0402296778     -86.4508876      0.0402296778     -86.4508876      0.998317416      2.3050692        
19.87            0.998345022      2.28090621       0.0398081581     -86.4773263      0.0398081581     -86.4773263      0.998345022      2.28090621       
20.04            0.998371922      2.25711318       0.0393930879     -86.503249       0.0393930879     -86.503249       0.998371922      2.25711318       
20.21            0.998398139      2.23368084       0.0389843055     -86.528666       0.0389843055     -86.528666       0.998398139      2.23368084       
20.38            0.998423694      2.21060019       0.0385816545     -86.5535872      0.0385816545     -86.5535872      0.998423694      2.21060019       
20.55            0.998448609      2.18786257       0.0381849837     -86.5780224      0.0381849837     -86.5780224      0.998448609      2.18786257       
20.72            0.998472903      2.16545956       0.0377941469     -86.6019806      0.0377941469     -86.6019806      0.998472903      2.16545956       
20.89            0.998496595      2.14338305       0.0374090025     -86.6254708      0.0374090025     -86.6254708      0.998496595      2.14338305       
21.06            0.998519704      2.12162517       0.0370294135     -86.6485016      0.0370294135     -86.6485016      0.998519704      2.12162517       
21.23            0.998542247      2.10017829       0.0366552472     -86.6710813      0.0366552472     -86.6710813      0.998542247      2.10017829       
21.4             0.998564242      2.07903506       0.0362863752     -86.6932177      0.0362863752     -86.6932177      0.998564242      2.07903506       
21.57            0.998585703      2.05818831       0.035922673      -86.7149186      0.035922673      -86.7149186      0.998585703      2.05818831       
21.74            0.998606648      2.03763114       0.03556402       -86.7361914      0.03556402       -86.7361914      0.998606648      2.03763114       
21.91            0.998627091      2.01735682       0.0352102994     -86.757043       0.0352102994     -86.757043       0.998627091      2.01735682       
22.08            0.998647047      1.99735887       0.0348613979     -86.7774805      0.0348613979     -86.7774805      0.998647047      1.99735887       
22.25            0.99866653       1.97763096       0.0345172056     -86.7975103      0.0345172056     -86.7975103      0.99866653       1.97763096       
22.42            0.998685553      1.958167         0.0341776161     -86.8171389      0.0341776161     -86.8171389      0.998685553      1.958167         
22.59            0.998704129      1.93896104       0.0338425258     -86.8363723      0.0338425258     -86.8363723      0.998704129      1.93896104       
22.76            0.99872227       1.92000734       0.0335118347     -86.8552163      0.0335118347     -86.8552163      0.99872227       1.92000734       
22.93            0.99873999       1.9013003        0.0331854452     -86.8736767      0.0331854452     -86.8736767      0.99873999       1.9013003        
23.1             0.998757299      1.8828345        0.0328632631     -86.8917589      0.0328632631     -86.8917589      0.998757299      1.8828345        
23.27            0.998774208      1.86460469       0.0325451965     -86.909468       0.0325451965     -86.909468       0.998774208      1.86460469       
23.44            0.998790729      1.84660574       0.0322311563     -86.9268092      0.0322311563     -86.9268092      0.998790729      1.84660574       
23.61            0.998806872      1.82883269       0.0319210561     -86.9437873      0.0319210561     -86.9437873      0.998806872      1.82883269       
23.78            0.998822647      1.81128072       0.0316148117     -86.9604068      0.0316148117     -86.9604068      0.998822647      1.81128072       
23.95            0.998838064      1.79394514       0.0313123415     -86.9766722      0.0313123415     -86.9766722      0.998838064      1.79394514       
24.12            0.998853132      1.77682138       0.031013566      -86.9925879      0.031013566      -86.9925879      0.998853132      1.77682138       
24.29            0.99886786       1.75990504       0.030718408      -87.0081578      0.030718408      -87.0081578      0.99886786       1.75990504       
24.46            0.998882257      1.74319178       0.0304267926     -87.023386       0.0304267926     -87.023386       0.998882257      1.74319178       
24.63            0.998896332      1.72667743       0.0301386466     -87.0382761      0.0301386466     -87.0382761      0.998896332      1.72667743       
24.8             0.998910092      1.71035792       0.0298538991     -87.0528318      0.0298538991     -87.0528318      0.998910092      1.71035792       
24.97            0.998923546      1.69422927       0.029572481      -87.0670565      0.029572481      -87.0670565      0.998923546      1.69422927       
25.14            0.998936702      1.67828763       0.029294325      -87.0809535      0.029294325      -87.0809535      0.998936702      1.67828763       
25.31            0.998949566      1.66252925       0.0290193658     -87.0945259      0.0290193658     -87.0945259      0.998949566      1.66252925       
25.48            0.998962146      1.64695048       0.0287475396     -87.1077766      0.0287475396     -87.1077766      0.998962146      1.64695048       
25.65            0.998974449      1.63154774       0.0284787845     -87.1207087      0.0284787845     -87.1207087      0.998974449      1.63154774       
25.82            0.998986482      1.61631759       0.0282130401     -87.1333246      0.0282130401     -87.1333246      0.998986482      1.61631759       
25.99            0.998998251      1.60125665       0.0279502475     -87.1456271      0.0279502475     -87.1456271      0.998998251      1.60125665       
26.16            0.999009763      1.58636163       0.0276903494     -87.1576185      0.0276903494     -87.1576185      0.999009763      1.58636163       
26.33            0.999021023      1.57162932       0.0274332901     -87.1693012      0.0274332901     -87.1693012      0.999021023      1.57162932       
26.5             0.999032037      1.55705662       0.0271790152     -87.1806772      0.0271790152     -87.1806772      0.999032037      1.55705662       
26.67            0.999042812      1.54264047       0.0269274716     -87.1917487      0.0269274716     -87.1917487      0.999042812      1.54264047       
26.84            0.999053353      1.52837791       0.0266786077     -87.2025175      0.0266786077     -87.2025175      0.999053353      1.52837791       
27.01            0.999063665      1.51426606       0.0264323731     -87.2129855      0.0264323731     -87.2129855      0.999063665      1.51426606       
27.18            0.999073753      1.50030209       0.0261887186     -87.2231543      0.0261887186     -87.2231543      0.999073753      1.50030209       
27.35            0.999083624      1.48648326       0.0259475965     -87.2330255      0.0259475965     -87.2330255      0.999083624      1.48648326       
27.52            0.99909328       1.47280688       0.0257089598     -87.2426005      0.0257089598     -87.2426005      0.99909328       1.47280688       
27.69            0.999102728      1.45927034       0.0254727632     -87.2518807      0.0254727632     -87.2518807      0.999102728      1.45927034       
27.86            0.999111972      1.4458711        0.0252389621     -87.2608672      0.0252389621     -87.2608672      0.999111972      1.4458711        
28.03            0.999121016      1.43260666       0.025007513      -87.2695611      0.025007513      -87.2695611      0.999121016      1.43260666       
28.2             0.999129865      1.41947458       0.0247783737     -87.2779634      0.0247783737     -87.2779634      0.999129865      1.41947458       
28.37            0.999138523      1.40647251       0.0245515028     -87.2860751      0.0245515028     -87.2860751      0.999138523      1.40647251       
28.54            0.999146994      1.39359812       0.02432686       -87.2938968      0.02432686       -87.2938968      0.999146994      1.39359812       
28.71            0.999155282      1.38084915       0.0241044058     -87.3014292      0.0241044058     -87.3014292      0.999155282      1.38084915       
28.88            0.999163391      1.3682234        0.0238841017     -87.3086729      0.0238841017     -87.3086729      0.999163391      1.3682234        
29.05            0.999171325      1.35571871       0.0236659102     -87.3156282      0.0236659102     -87.3156282      0.999171325      1.35571871       
29.22            0.999179088      1.34333297       0.0234497945     -87.3222956      0.0234497945     -87.3222956      0.999179088      1.34333297       
29.39            0.999186683      1.33106413       0.0232357188     -87.3286753      0.0232357188     -87.3286753      0.999186683      1.33106413       
29.56            0.999194113      1.31891017       0.023023648      -87.3347674      0.023023648      -87.3347674      0.999194113      1.31891017       
29.73            0.999201382      1.30686913       0.0228135479     -87.3405719      0.0228135479     -87.3405719      0.999201382      1.30686913       
29.9             0.999208493      1.2949391        0.0226053851     -87.3460887      0.0226053851     -87.3460887      0.999208493      1.2949391        
30.07            0.99921545       1.28311819       0.0223991267     -87.3513177      0.0223991267     -87.3513177      0.99921545       1.28311819       
30.24            0.999222255      1.27140456       0.0221947409     -87.3562585      0.0221947409     -87.3562585      0.999222255      1.27140456       
30.41            0.999228911      1.25979644       0.0219921963     -87.3609107      0.0219921963     -87.3609107      0.999228911      1.25979644       
30.58            0.999235422      1.24829206       0.0217914624     -87.3652739      0.0217914624     -87.3652739      0.999235422      1.24829206       
30.75            0.99924179       1.2368897        0.0215925093     -87.3693474      0.0215925093     -87.3693474      0.99924179       1.2368897        
30.92            0.999248019      1.22558769       0.0213953077     -87.3731306      0.0213953077     -87.3731306      0.999248019      1.22558769       
31.09            0.99925411       1.21438439       0.021199829      -87.3766225      0.021199829      -87.3766225      0.99925411       1.21438439       
31.26            0.999260066      1.20327819       0.0210060454     -87.3798224      0.0210060454     -87.3798224      0.999260066      1.20327819       
31.43            0.999265891      1.19226753       0.0208139292     -87.3827291      0.0208139292     -87.3827291      0.999265891      1.19226753       
31.6             0.999271586      1.18135086       0.0206234539     -87.3853415      0.0206234539     -87.3853415      0.999271586      1.18135086       
31.77            0.999277154      1.17052667       0.0204345931     -87.3876584      0.0204345931     -87.3876584      0.999277154      1.17052667       
31.94            0.999282597      1.15979351       0.0202473212     -87.3896784      0.0202473212     -87.3896784      0.999282597      1.15979351       
32.11            0.999287918      1.14914993       0.0200616132     -87.3914001      0.0200616132     -87.3914001      0.999287918      1.14914993       
32.28            0.999293119      1.13859451       0.0198774442     -87.3928218      0.0198774442     -87.3928218      0.999293119      1.13859451       
32.45            0.999298201      1.12812587       0.0196947904     -87.393942       0.0196947904     -87.393942       0.999298201      1.12812587       
32.62            0.999303168      1.11774267       0.0195136282     -87.3947587      0.0195136282     -87.3947587      0.999303168      1.11774267       
32.79            0.999308022      1.10744357       0.0193339344     -87.3952702      0.0193339344     -87.3952702      0.999308022      1.10744357       
32.96            0.999312763      1.09722728       0.0191556864     -87.3954742      0.0191556864     -87.3954742      0.999312763      1.09722728       
33.13            0.999317395      1.08709253       0.0189788621     -87.3953688      0.0189788621     -87.3953688      0.999317395      1.08709253       
33.3             0.999321919      1.07703807       0.0188034398     -87.3949516      0.0188034398     -87.3949516      0.999321919      1.07703807       
33.47            0.999326338      1.06706269       0.0186293983     -87.3942203      0.0186293983     -87.3942203      0.999326338      1.06706269       
33.64            0.999330652      1.05716519       0.0184567167     -87.3931723      0.0184567167     -87.3931723      0.999330652      1.05716519       
33.81            0.999334864      1.04734439       0.0182853746     -87.3918049      0.0182853746     -87.3918049      0.999334864      1.04734439       
33.98            0.999338976      1.03759915       0.018115352      -87.3901155      0.018115352      -87.3901155      0.999338976      1.03759915       
34.15            0.999342989      1.02792834       0.0179466293     -87.3881011      0.0179466293     -87.3881011      0.999342989      1.02792834       
34.32            0.999346905      1.01833087       0.0177791873     -87.3857587      0.0177791873     -87.3857587      0.999346905      1.01833087       
34.49            0.999350725      1.00880565       0.0176130072     -87.3830851      0.0176130072     -87.3830851      0.999350725      1.00880565       
34.66            0.999354452      0.999351617      0.0174480705     -87.3800771      0.0174480705     -87.3800771      0.999354452      0.999351617      
34.83            0.999358086      0.989967735      0.0172843591     -87.3767311      0.0172843591     -87.3767311      0.999358086      0.989967735      
35               0.99936163       0.980652986      0.0171218553     -87.3730436      0.0171218553     -87.3730436      0.99936163       0.980652986      
35.17            0.999365084      0.971406369      0.0169605416     -87.3690108      0.0169605416     -87.3690108      0.999365084      0.971406369      
35.34            0.99936845       0.962226904      0.016800401      -87.3646289      0.016800401      -87.3646289      0.99936845       0.962226904      
35.51            0.99937173       0.95311363       0.0166414167     -87.3598939      0.0166414167     -87.3598939      0.99937173       0.95311363       
35.68            0.999374925      0.944065603      0.0164835723     -87.3548014      0.0164835723     -87.3548014      0.999374925      0.944065603      
35.85            0.999378036      0.935081898      0.0163268518     -87.3493472      0.0163268518     -87.3493472      0.999378036      0.935081898      
36.02            0.999381065      0.926161607      0.0161712392     -87.3435268      0.0161712392     -87.3435268      0.999381065      0.926161607      
36.19            0.999384013      0.917303839      0.0160167191     -87.3373353      0.0160167191     -87.3373353      0.999384013      0.917303839      
36.36            0.99938688       0.90850772       0.0158632763     -87.3307681      0.0158632763     -87.3307681      0.99938688       0.90850772       
36.53            0.99938967       0.899772391      0.0157108958     -87.3238199      0.0157108958     -87.3238199      0.99938967       0.899772391      
36.7             0.999392382      0.891097011      0.015559563      -87.3164856      0.015559563      -87.3164856      0.999392382      0.891097011      
36.87            0.999395017      0.882480752      0.0154092635     -87.3087598      0.0154092635     -87.3087598      0.999395017      0.882480752      
37.04            0.999397578      0.873922803      0.0152599831     -87.3006368      0.0152599831     -87.3006368      0.999397578      0.873922803      
37.21            0.999400064      0.865422368      0.0151117081     -87.2921107      0.0151117081     -87.2921107      0.999400064      0.865422368      
37.38            0.999402478      0.856978664      0.0149644248     -87.2831757      0.0149644248     -87.2831757      0.999402478      0.856978664      
37.55            0.99940482       0.848590923      0.0148181198     -87.2738254      0.0148181198     -87.2738254      0.99940482       0.848590923      
37.72            0.999407092      0.840258391      0.0146727801     -87.2640533      0.0146727801     -87.2640533      0.999407092      0.840258391      
37.89            0.999409293      0.831980326      0.0145283927     -87.2538528      0.0145283927     -87.2538528      0.999409293      0.831980326      
38.06            0.999411426      0.823756002      0.0143849451     -87.243217       0.0143849451     -87.243217       0.999411426      0.823756002      
38.23            0.999413492      0.815584703      0.0142424247     -87.2321386      0.0142424247     -87.2321386      0.999413492      0.815584703      
38.4             0.99941549       0.807465728      0.0141008194     -87.2206104      0.0141008194     -87.2206104      0.99941549       0.807465728      
38.57            0.999417423      0.799398387      0.0139601173     -87.2086245      0.0139601173     -87.2086245      0.999417423      0.799398387      
38.74            0.999419291      0.791382002      0.0138203065     -87.1961732      0.0138203065     -87.1961732      0.999419291      0.791382002      
38.91            0.999421095      0.783415908      0.0136813754     -87.1832481      0.0136813754     -87.1832481      0.999421095      0.783415908      
39.08            0.999422836      0.77549945       0.0135433128     -87.1698408      0.0135433128     -87.1698408      0.999422836      0.77549945       
39.25            0.999424515      0.767631985      0.0134061074     -87.1559424      0.0134061074     -87.1559424      0.999424515      0.767631985      
39.42            0.999426132      0.759812882      0.0132697483     -87.141544       0.0132697483     -87.141544       0.999426132      0.759812882      
39.59            0.999427689      0.75204152       0.0131342248     -87.1266361      0.0131342248     -87.1266361      0.999427689      0.75204152       
39.76            0.999429187      0.744317288      0.0129995262     -87.1112089      0.0129995262     -87.1112089      0.999429187      0.744317288      
39.93            0.999430625      0.736639586      0.0128656421     -87.0952524      0.0128656421     -87.0952524      0.999430625      0.736639586      
40.1             0.999432005      0.729007825      0.0127325624     -87.0787562      0.0127325624     -87.0787562      0.999432005      0.729007825      
40.27            0.999433328      0.721421424      0.0126002769     -87.0617095      0.0126002769     -87.0617095      0.999433328      0.721421424      
40.44            0.999434594      0.713879814      0.0124687758     -87.0441012      0.0124687758     -87.0441012      0.999434594      0.713879814      
40.61            0.999435805      0.706382433      0.0123380493     -87.0259196      0.0123380493     -87.0259196      0.999435805      0.706382433      
40.78            0.99943696       0.698928731      0.012208088      -87.0071528      0.012208088      -87.0071528      0.99943696       0.698928731      
40.95            0.999438061      0.691518165      0.0120788825     -86.9877885      0.0120788825     -86.9877885      0.999438061      0.691518165      
41.12            0.999439108      0.684150203      0.0119504235     -86.9678138      0.0119504235     -86.9678138      0.999439108      0.684150203      
41.29            0.999440102      0.676824319      0.0118227019     -86.9472155      0.0118227019     -86.9472155      0.999440102      0.676824319      
41.46            0.999441044      0.669539998      0.0116957089     -86.9259797      0.0116957089     -86.9259797      0.999441044      0.669539998      
41.63            0.999441934      0.662296733      0.0115694358     -86.9040923      0.0115694358     -86.9040923      0.999441934      0.662296733      
41.8             0.999442773      0.655094024      0.0114438737     -86.8815385      0.0114438737     -86.8815385      0.999442773      0.655094024      
41.97            0.999443561      0.647931381      0.0113190144     -86.858303       0.0113190144     -86.858303       0.999443561      0.647931381      
42.14            0.9994443        0.640808319      0.0111948495     -86.8343699      0.0111948495     -86.8343699      0.9994443        0.640808319      
42.31            0.999444989      0.633724364      0.0110713707     -86.8097228      0.0110713707     -86.8097228      0.999444989      0.633724364      
42.48            0.999445629      0.626679048      0.0109485701     -86.7843447      0.0109485701     -86.7843447      0.999445629      0.626679048      
42.65            0.999446222      0.619671911      0.0108264397     -86.7582179      0.0108264397     -86.7582179      0.999446222      0.619671911      
42.82            0.999446767      0.612702499      0.0107049717     -86.731324       0.0107049717     -86.731324       0.999446767      0.612702499      
42.99            0.999447265      0.605770366      0.0105841584     -86.703644       0.0105841584     -86.703644       0.999447265      0.605770366      
43.16            0.999447716      0.598875074      0.0104639923     -86.6751583      0.0104639923     -86.6751583      0.999447716      0.598875074      
43.33            0.999448122      0.592016191      0.0103444661     -86.6458462      0.0103444661     -86.6458462      0.999448122      0.592016191      
43.5             0.999448482      0.585193291      0.0102255724     -86.6156865      0.0102255724     -86.6156865      0.999448482      0.585193291      
43.67            0.999448798      0.578405956      0.010107304      -86.584657       0.010107304      -86.584657       0.999448798      0.578405956      
43.84            0.999449069      0.571653773      0.00998965394    -86.5527349      0.00998965394    -86.5527349      0.999449069      0.571653773      
44.01            0.999449296      0.564936337      0.00987261525    -86.5198963      0.00987261525    -86.5198963      0.999449296      0.564936337      
44.18            0.99944948       0.558253248      0.00975618111    -86.4861162      0.00975618111    -86.4861162      0.99944948       0.558253248      
44.35            0.999449621      0.551604114      0.00964034482    -86.451369       0.00964034482    -86.451369       0.999449621      0.551604114      
44.52            0.999449719      0.544988545      0.00952509979    -86.4156278      0.00952509979    -86.4156278      0.999449719      0.544988545      
44.69            0.999449776      0.538406161      0.00941043953    -86.3788646      0.00941043953    -86.3788646      0.999449776      0.538406161      
44.86            0.999449791      0.531856586      0.00929635767    -86.3410503      0.00929635767    -86.3410503      0.999449791      0.531856586      
45.03            0.999449765      0.525339451      0.00918284794    -86.3021548      0.00918284794    -86.3021548      0.999449765      0.525339451      
45.2             0.999449699      0.518854389      0.00906990416    -86.2621464      0.00906990416    -86.2621464      0.999449699      0.518854389      
45.37            0.999449592      0.512401043      0.00895752029    -86.2209923      0.00895752029    -86.2209923      0.999449592      0.512401043      
45.54            0.999449446      0.505979059      0.00884569036    -86.1786583      0.00884569036    -86.1786583      0.999449446      0.505979059      
45.71            0.99944926       0.499588087      0.00873440851    -86.1351087      0.00873440851    -86.1351087      0.99944926       0.499588087      
45.88            0.999449035      0.493227786      0.00862366898    -86.0903061      0.00862366898    -86.0903061      0.999449035      0.493227786      
46.05            0.999448772      0.486897816      0.00851346611    -86.0442117      0.00851346611    -86.0442117      0.999448772      0.486897816      
46.22            0.99944847       0.480597844      0.00840379435    -85.996785       0.00840379435    -85.996785       0.99944847       0.480597844      
46.39            0.999448131      0.474327543      0.00829464821    -85.9479835      0.00829464821    -85.9479835      0.999448131      0.474327543      
46.56            0.999447755      0.468086588      0.00818602233    -85.8977629      0.00818602233    -85.8977629      0.999447755      0.468086588      
46.73            0.999447341      0.46187466       0.00807791143    -85.846077       0.00807791143    -85.846077       0.999447341      0.46187466       
46.9             0.999446891      0.455691446      0.00797031033    -85.7928773      0.00797031033    -85.7928773      0.999446891      0.455691446      
47.07            0.999446404      0.449536635      0.00786321394    -85.7381131      0.00786321394    -85.7381131      0.999446404      0.449536635      
47.24            0.999445882      0.443409923      0.00775661725    -85.6817315      0.00775661725    -85.6817315      0.999445882      0.443409923      
47.41            0.999445323      0.437311008      0.00765051537    -85.6236768      0.00765051537    -85.6236768      0.999445323      0.437311008      
47.58            0.99944473       0.431239594      0.00754490348    -85.5638909      0.00754490348    -85.5638909      0.99944473       0.431239594      
47.75            0.999444102      0.425195388      0.00743977685    -85.5023128      0.00743977685    -85.5023128      0.999444102      0.425195388      
47.92            0.999443439      0.419178102      0.00733513085    -85.4388783      0.00733513085    -85.4388783      0.999443439      0.419178102      
48.09            0.999442742      0.413187453      0.00723096094    -85.3735205      0.00723096094    -85.3735205      0.999442742      0.413187453      
48.26            0.999442011      0.407223159      0.00712726267    -85.3061686      0.00712726267    -85.3061686      0.999442011      0.407223159      
48.43            0.999441246      0.401284945      0.00702403167    -85.2367487      0.00702403167    -85.2367487      0.999441246      0.401284945      
48.6             0.999440448      0.395372539      0.00692126368    -85.1651828      0.00692126368    -85.1651828      0.999440448      0.395372539      
48.77            0.999439617      0.389485671      0.00681895452    -85.091389       0.00681895452    -85.091389       0.999439617      0.389485671      
48.94            0.999438753      0.383624077      0.00671710011    -85.015281       0.00671710011    -85.015281       0.999438753      0.383624077      
49.11            0.999437857      0.377787496      0.00661569644    -84.9367679      0.00661569644    -84.9367679      0.999437857      0.377787496      
49.28            0.999436928      0.371975671      0.00651473962    -84.855754       0.00651473962    -84.855754       0.999436928      0.371975671      
49.45            0.999435968      0.366188346      0.00641422584    -84.7721384      0.00641422584    -84.7721384      0.999435968      0.366188346      
49.62            0.999434976      0.360425272      0.0063141514     -84.6858145      0.0063141514     -84.6858145      0.999434976      0.360425272      
49.79            0.999433953      0.354686202      0.00621451267    -84.5966697      0.00621451267    -84.5966697      0.999433953      0.354686202      
49.96            0.999432899      0.348970891      0.00611530615    -84.5045851      0.00611530615    -84.5045851      0.999432899      0.348970891      
50.13            0.999431814      0.3432791        0.00601652841    -84.409435       0.00601652841    -84.409435       0.999431814      0.3432791        
50.3             0.999430698      0.337610591      0.00591817615    -84.3110863      0.00591817615    -84.3110863      0.999430698      0.337610591      
50.47            0.999429552      0.331965131      0.00582024616    -84.209398       0.00582024616    -84.209398       0.999429552      0.331965131      
50.64            0.999428376      0.326342487      0.00572273534    -84.1042206      0.00572273534    -84.1042206      0.999428376      0.326342487      
50.81            0.999427171      0.320742433      0.00562564071    -83.9953955      0.00562564071    -83.9953955      0.999427171      0.320742433      
50.98            0.999425935      0.315164744      0.00552895938    -83.8827545      0.00552895938    -83.8827545      0.999425935      0.315164744      
51.15            0.999424671      0.309609198      0.0054326886     -83.7661185      0.0054326886     -83.7661185      0.999424671      0.309609198      
51.32            0.999423377      0.304075576      0.00533682574    -83.6452973      0.00533682574    -83.6452973      0.999423377      0.304075576      
51.49            0.999422055      0.298563662      0.0052413683     -83.5200882      0.0052413683     -83.5200882      0.999422055      0.298563662      
51.66            0.999420704      0.293073244      0.00514631391    -83.3902753      0.00514631391    -83.3902753      0.999420704      0.293073244      
51.83            0.999419325      0.28760411       0.00505166032    -83.2556281      0.00505166032    -83.2556281      0.999419325      0.28760411       
52               0.999417917      0.282156054      0.00495740546    -83.1159008      0.00495740546    -83.1159008      0.999417917      0.282156054      
52.17            0.999416482      0.276728871      0.0048635474     -82.9708304      0.0048635474     -82.9708304      0.999416482      0.276728871      
52.34            0.999415019      0.271322358      0.00477008436    -82.8201354      0.00477008436    -82.8201354      0.999415019      0.271322358      
52.51            0.999413528      0.265936316      0.00467701475    -82.6635146      0.00467701475    -82.6635146      0.999413528      0.265936316      
52.68            0.99941201       0.260570547      0.00458433716    -82.5006446      0.00458433716    -82.5006446      0.99941201       0.260570547      
52.85            0.999410465      0.255224859      0.00449205036    -82.3311783      0.00449205036    -82.3311783      0.999410465      0.255224859      
53.02            0.999408893      0.249899057      0.00440015336    -82.1547425      0.00440015336    -82.1547425      0.999408893      0.249899057      
53.19            0.999407295      0.244592954      0.00430864536    -81.9709356      0.00430864536    -81.9709356      0.999407295      0.244592954      
53.36            0.99940567       0.239306362      0.00421752582    -81.7793246      0.00421752582    -81.7793246      0.99940567       0.239306362      
53.53            0.999404018      0.234039096      0.00412679445    -81.5794423      0.00412679445    -81.5794423      0.999404018      0.234039096      
53.7             0.999402341      0.228790973      0.00403645126    -81.3707836      0.00403645126    -81.3707836      0.999402341      0.228790973      
53.87            0.999400637      0.223561815      0.00394649654    -81.152802       0.00394649654    -81.152802       0.999400637      0.223561815      
54.04            0.999398908      0.218351443      0.00385693093    -80.9249051      0.00385693093    -80.9249051      0.999398908      0.218351443      
54.21            0.999397153      0.213159681      0.00376775544    -80.6864496      0.00376775544    -80.6864496      0.999397153      0.213159681      
54.38            0.999395373      0.207986356      0.00367897147    -80.4367363      0.00367897147    -80.4367363      0.999395373      0.207986356      
54.55            0.999393568      0.202831297      0.00359058085    -80.1750034      0.00359058085    -80.1750034      0.999393568      0.202831297      
54.72            0.999391737      0.197694336      0.0035025859     -79.9004201      0.0035025859     -79.9004201      0.999391737      0.197694336      
54.89            0.999389882      0.192575303      0.0034149895     -79.6120782      0.0034149895     -79.6120782      0.999389882      0.192575303      
55.06            0.999388002      0.187474036      0.0033277951     -79.3089831      0.0033277951     -79.3089831      0.999388002      0.187474036      
55.23            0.999386098      0.182390371      0.00324100682    -78.9900441      0.00324100682    -78.9900441      0.999386098      0.182390371      
55.4             0.999384169      0.177324148      0.00315462952    -78.654062       0.00315462952    -78.654062       0.999384169      0.177324148      
55.57            0.999382216      0.172275206      0.0030686689     -78.2997161      0.0030686689     -78.2997161      0.999382216      0.172275206      
55.74            0.999380238      0.16724339       0.0029831316     -77.9255485      0.0029831316     -77.9255485      0.999380238      0.16724339       
55.91            0.999378237      0.162228544      0.0028980253     -77.5299465      0.0028980253     -77.5299465      0.999378237      0.162228544      
56.08            0.999376213      0.157230515      0.00281335889    -77.1111221      0.00281335889    -77.1111221      0.999376213      0.157230515      
56.25            0.999374164      0.152249152      0.00272914262    -76.6670881      0.00272914262    -76.6670881      0.999374164      0.152249152      
56.42            0.999372092      0.147284305      0.0026453883     -76.1956307      0.0026453883     -76.1956307      0.999372092      0.147284305      
56.59            0.999369997      0.142335827      0.0025621095     -75.6942771      0.0025621095     -75.6942771      0.999369997      0.142335827      
56.76            0.999367879      0.137403571      0.00247932186    -75.1602586      0.00247932186    -75.1602586      0.999367879      0.137403571      
56.93            0.999365738      0.132487393      0.00239704337    -74.590466       0.00239704337    -74.590466       0.999365738      0.132487393      
57.1             0.999363574      0.127587152      0.00231529473    -73.9813988      0.00231529473    -73.9813988      0.999363574      0.127587152      
57.27            0.999361387      0.122702705      0.00223409986    -73.3291046      0.00223409986    -73.3291046      0.999361387      0.122702705      
57.44            0.999359177      0.117833915      0.00215348637    -72.6291075      0.00215348637    -72.6291075      0.999359177      0.117833915      
57.61            0.999356945      0.112980643      0.00207348622    -71.8763243      0.00207348622    -71.8763243      0.999356945      0.112980643      
57.78            0.999354691      0.108142754      0.00199413651    -71.0649646      0.00199413651    -71.0649646      0.999354691      0.108142754      
57.95            0.999352415      0.103320114      0.00191548039    -70.1884137      0.00191548039    -70.1884137      0.999352415      0.103320114      
58.12            0.999350116      0.0985125891     0.00183756825    -69.2390921      0.00183756825    -69.2390921      0.999350116      0.0985125891     
58.29            0.999347796      0.093720049      0.00176045905    -68.2082919      0.00176045905    -68.2082919      0.999347796      0.093720049      
58.46            0.999345453      0.0889423639     0.00168422207    -67.0859816      0.00168422207    -67.0859816      0.999345453      0.0889423639     
58.63            0.999343089      0.0841794057     0.00160893899    -65.8605787      0.00160893899    -65.8605787      0.999343089      0.0841794057     
58.8             0.999340704      0.0794310479     0.00153470647    -64.5186847      0.00153470647    -64.5186847      0.999340704      0.0794310479     
58.97            0.999338297      0.0746971653     0.00146163935    -63.0447817      0.00146163935    -63.0447817      0.999338297      0.0746971653     
59.14            0.999335869      0.0699776341     0.00138987453    -61.4208914      0.00138987453    -61.4208914      0.999335869      0.0699776341     
59.31            0.999333419      0.065272332      0.0013195758     -59.6262074      0.0013195758     -59.6262074      0.999333419      0.065272332      
59.48            0.999330949      0.0605811382     0.00125093971    -57.6367218      0.00125093971    -57.6367218      0.999330949      0.0605811382     
59.65            0.999328457      0.0559039331     0.00118420267    -55.4248905      0.00118420267    -55.4248905      0.999328457      0.0559039331     
59.82            0.999325945      0.0512405987     0.00111964929    -52.9594198      0.00111964929    -52.9594198      0.999325945      0.0512405987     
59.99            0.999323412      0.0465910179     0.00105762211    -50.2053117      0.00105762211    -50.2053117      0.999323412      0.0465910179     
60.16            0.999320858      0.0419550755     0.000998532038   -47.12439        0.000998532038   -47.12439        0.999320858      0.0419550755     
60.33            0.999318283      0.0373326571     0.00094286885    -43.6766415      0.00094286885    -43.6766415      0.999318283      0.0373326571     
60.5             0.999315689      0.03272365       0.000891209559   -39.8228222      0.000891209559   -39.8228222      0.999315689      0.03272365       
60.67            0.999313074      0.0281279423     0.000844221492   -35.5288526      0.000844221492   -35.5288526      0.999313074      0.0281279423     
60.84            0.999310438      0.0235454238     0.000802654895   -30.7724196      0.000802654895   -30.7724196      0.999310438      0.0235454238     
61.01            0.999307783      0.0189759853     0.000767318555   -25.5517173      0.000767318555   -25.5517173      0.999307783      0.0189759853     
61.18            0.999305107      0.0144195188     0.000739032172   -19.8951978      0.000739032172   -19.8951978      0.999305107      0.0144195188     
61.35            0.999302412      0.00987591766    0.000718553218   -13.8696423      0.000718553218   -13.8696423      0.999302412      0.00987591766    
61.52            0.999299697      0.00534507624    0.000706485151   -7.58254621      0.000706485151   -7.58254621      0.999299697      0.00534507624    
61.69            0.999296962      0.000826890161   0.000703186048   -1.17517515      0.000703186048   -1.17517515      0.999296962      0.000826890161   
61.86            0.999294207      -0.00367874382   0.000708704916   5.19424604       0.000708704916   5.19424604       0.999294207      -0.00367874382   
62.03            0.999291433      -0.00817192781   0.00072276877    11.3729455       0.00072276877    11.3729455       0.999291433      -0.00817192781   
62.2             0.99928864       -0.0126527628    0.000744825766   17.2341707       0.000744825766   17.2341707       0.99928864       -0.0126527628    
62.37            0.999285827      -0.0171213487    0.000774128486   22.6895412       0.000774128486   22.6895412       0.999285827      -0.0171213487    
62.54            0.999282995      -0.0215777844    0.000809829972   27.6912365       0.000809829972   27.6912365       0.999282995      -0.0215777844    
62.71            0.999280144      -0.0260221675    0.00085106826    32.2263745       0.00085106826    32.2263745       0.999280144      -0.0260221675    
62.88            0.999277273      -0.0304545946    0.000897026625   36.3077028       0.000897026625   36.3077028       0.999277273      -0.0304545946    
63.05            0.999274384      -0.0348751616    0.000946968146   39.9640955       0.000946968146   39.9640955       0.999274384      -0.0348751616    
63.22            0.999271476      -0.0392839629    0.00100024972    43.2327676       0.00100024972    43.2327676       0.999271476      -0.0392839629    
63.39            0.999268549      -0.0436810921    0.00105632244    46.1537546       0.00105632244    46.1537546       0.999268549      -0.0436810921    
63.56            0.999265603      -0.0480666418    0.00111472443    48.7664326       0.00111472443    48.7664326       0.999265603      -0.0480666418    
63.73            0.999262639      -0.0524407037    0.00117507026    51.1075755       0.00117507026    51.1075755       0.999262639      -0.0524407037    
63.9             0.999259656      -0.0568033682    0.00123703972    53.2104509       0.00123703972    53.2104509       0.999259656      -0.0568033682    
64.07            0.999256654      -0.0611547251    0.00130036712    55.1045564       0.00130036712    55.1045564       0.999256654      -0.0611547251    
64.24            0.999253634      -0.0654948631    0.00136483186    56.8157195       0.00136483186    56.8157195       0.999253634      -0.0654948631    
64.41            0.999250596      -0.0698238699    0.00143025042    58.3663813       0.00143025042    58.3663813       0.999250596      -0.0698238699    
64.58            0.99924754       -0.0741418323    0.00149646966    59.7759574       0.00149646966    59.7759574       0.99924754       -0.0741418323    
64.75            0.999244465      -0.0784488363    0.00156336133    61.0612125       0.00156336133    61.0612125       0.999244465      -0.0784488363    
64.92            0.999241373      -0.0827449669    0.00163081761    62.2366172       0.00163081761    62.2366172       0.999241373      -0.0827449669    
65.09            0.999238262      -0.0870303083    0.00169874747    63.3146716       0.00169874747    63.3146716       0.999238262      -0.0870303083    
65.26            0.999235133      -0.0913049436    0.00176707376    64.3061905       0.00176707376    64.3061905       0.999235133      -0.0913049436    
65.43            0.999231987      -0.0955689553    0.00183573077    65.2205504       0.00183573077    65.2205504       0.999231987      -0.0955689553    
65.6             0.999228822      -0.0998224248    0.00190466235    66.0659007       0.00190466235    66.0659007       0.999228822      -0.0998224248    
65.77            0.99922564       -0.104065433     0.00197382032    66.8493436       0.00197382032    66.8493436       0.99922564       -0.104065433     
65.94            0.999222441      -0.10829806      0.00204316317    67.5770861       0.00204316317    67.5770861       0.999222441      -0.10829806      
66.11            0.999219223      -0.112520384     0.002112655      68.2545694       0.002112655      68.2545694       0.999219223      -0.112520384     
66.28            0.999215989      -0.116732483     0.00218226469    68.8865765       0.00218226469    68.8865765       0.999215989      -0.116732483     
66.45            0.999212736      -0.120934436     0.00225196514    69.477325        0.00225196514    69.477325        0.999212736      -0.120934436     
66.62            0.999209467      -0.125126318     0.00232173268    70.0305447       0.00232173268    70.0305447       0.999209467      -0.125126318     
66.79            0.99920618       -0.129308206     0.00239154659    70.5495431       0.00239154659    70.5495431       0.99920618       -0.129308206     
66.96            0.999202875      -0.133480175     0.0024613887     71.0372619       0.0024613887     71.0372619       0.999202875      -0.133480175     
67.13            0.999199554      -0.137642298     0.00253124298    71.4963241       0.00253124298    71.4963241       0.999199554      -0.137642298     
67.3             0.999196216      -0.14179465      0.00260109533    71.9290752       0.00260109533    71.9290752       0.999196216      -0.14179465      
67.47            0.99919286       -0.145937303     0.00267093325    72.3376179       0.00267093325    72.3376179       0.99919286       -0.145937303     
67.64            0.999189487      -0.15007033      0.00274074568    72.7238414       0.00274074568    72.7238414       0.999189487      -0.15007033      
67.81            0.999186098      -0.154193801     0.00281052282    73.089448        0.00281052282    73.089448        0.999186098      -0.154193801     
67.98            0.999182692      -0.158307787     0.00288025593    73.4359744       0.00288025593    73.4359744       0.999182692      -0.158307787     
68.15            0.999179268      -0.162412359     0.00294993727    73.7648114       0.00294993727    73.7648114       0.999179268      -0.162412359     
68.32            0.999175828      -0.166507585     0.0030195599     74.0772202       0.0030195599     74.0772202       0.999175828      -0.166507585     
68.49            0.999172372      -0.170593534     0.00308911766    74.3743471       0.00308911766    74.3743471       0.999172372      -0.170593534     
68.66            0.999168899      -0.174670274     0.00315860504    74.6572359       0.00315860504    74.6572359       0.999168899      -0.174670274     
68.83            0.999165409      -0.178737872     0.00322801712    74.9268389       0.00322801712    74.9268389       0.999165409      -0.178737872     
69               0.999161902      -0.182796394     0.00329734949    75.1840268       0.00329734949    75.1840268       0.999161902      -0.182796394     
69.17            0.99915838       -0.186845907     0.00336659823    75.4295967       0.00336659823    75.4295967       0.99915838       -0.186845907     
69.34            0.99915484       -0.190886476     0.00343575982    75.66428         0.00343575982    75.66428         0.99915484       -0.190886476     
69.51            0.999151285      -0.194918165     0.00350483112    75.8887488       0.00350483112    75.8887488       0.999151285      -0.194918165     
69.68            0.999147713      -0.198941038     0.00357380931    76.1036216       0.00357380931    76.1036216       0.999147713      -0.198941038     
69.85            0.999144125      -0.202955158     0.00364269189    76.3094687       0.00364269189    76.3094687       0.999144125      -0.202955158     
70               0.999140945      -0.206489811     0.00370338945    76.484024        0.00370338945    76.484024        0.999140945      -0.206489811     
