! Coilcraft 1812CS-153 Chip Inductor				
! 31 July 2002			
# MHZ S MA R 50
!Freq             MagS11           AngS11           MagS21           AngS21           MagS12           AngS12           MagS22           AngS22
1                0.643038804      41.7872832       0.674217085      -39.4609173      0.674217085      -39.4609173      0.643038804      41.7872832       
1.22             0.713077437      37.5597015       0.614768211      -44.9969038      0.614768211      -44.9969038      0.713077437      37.5597015       
1.44             0.766626838      33.8758243       0.561013905      -49.6126493      0.561013905      -49.6126493      0.766626838      33.8758243       
1.66             0.807748963      30.7131525       0.513379192      -53.4749689      0.513379192      -53.4749689      0.807748963      30.7131525       
1.88             0.839619332      28.0061269       0.471556145      -56.7280228      0.471556145      -56.7280228      0.839619332      28.0061269       
2.1              0.864603945      25.6834254       0.434940943      -59.4896632      0.434940943      -59.4896632      0.864603945      25.6834254       
2.32             0.884431695      23.6804947       0.402859075      -61.8537831      0.402859075      -61.8537831      0.884431695      23.6804947       
2.54             0.90036013       21.9427313       0.374668124      -63.8944252      0.374668124      -63.8944252      0.90036013       21.9427313       
2.76             0.913307064      20.4252489       0.349797109      -65.6698792      0.349797109      -65.6698792      0.913307064      20.4252489       
2.98             0.923947516      19.09157         0.327755498      -67.2261733      0.327755498      -67.2261733      0.923947516      19.09157         
3.2              0.932782848      17.9121373       0.308128983      -68.5998598      0.308128983      -68.5998598      0.932782848      17.9121373       
3.42             0.940189501      16.8629632       0.290570391      -69.8201702      0.290570391      -69.8201702      0.940189501      16.8629632       
3.64             0.946453282      15.9245027       0.274789584      -70.9106617      0.274789584      -70.9106617      0.946453282      15.9245027       
3.86             0.951793579      15.0807451       0.260543987      -71.8904678      0.260543987      -71.8904678      0.951793579      15.0807451       
4.08             0.956380609      14.3184972       0.247630329      -72.775251       0.247630329      -72.775251       0.956380609      14.3184972       
4.3              0.960347783      13.6268191       0.235877695      -73.5779294      0.235877695      -73.5779294      0.960347783      13.6268191       
4.52             0.963800687      12.9965828       0.2251418        -74.3092358      0.2251418        -74.3092358      0.963800687      12.9965828       
4.74             0.96682365       12.4201251       0.2153003        -74.9781494      0.2153003        -74.9781494      0.96682365       12.4201251       
4.96             0.969484605      11.8909742       0.206248988      -75.5922315      0.206248988      -75.5922315      0.969484605      11.8909742       
5.18             0.97183872       11.4036331       0.197898699      -76.1578894      0.197898699      -76.1578894      0.97183872       11.4036331       
5.4              0.97393114       10.9534069       0.190172793      -76.6805845      0.190172793      -76.6805845      0.97393114       10.9534069       
5.62             0.975799073      10.5362652       0.183005105      -77.1649979      0.183005105      -77.1649979      0.975799073      10.5362652       
5.84             0.97747339       10.1487304       0.176338266      -77.6151624      0.176338266      -77.6151624      0.97747339       10.1487304       
6.06             0.978979867      9.78778838       0.170122331      -78.0345699      0.170122331      -78.0345699      0.978979867      9.78778838       
6.28             0.980340154      9.45081437       0.164313644      -78.426258       0.164313644      -78.426258       0.980340154      9.45081437       
6.5              0.981572538      9.13551343       0.158873897      -78.7928803      0.158873897      -78.7928803      0.981572538      9.13551343       
6.72             0.982692544      8.8398708        0.153769358      -79.1367652      0.153769358      -79.1367652      0.982692544      8.8398708        
6.94             0.983713424      8.56211095       0.148970214      -79.459963       0.148970214      -79.459963       0.983713424      8.56211095       
7.16             0.984646535      8.30066357       0.144450034      -79.7642866      0.144450034      -79.7642866      0.984646535      8.30066357       
7.38             0.98550166       8.05413501       0.140185306      -80.051344       0.140185306      -80.051344       0.98550166       8.05413501       
7.6              0.98628726       7.82128446       0.136155051      -80.3225665      0.136155051      -80.3225665      0.98628726       7.82128446       
7.82             0.98701068       7.6010037        0.132340498      -80.5792321      0.132340498      -80.5792321      0.98701068       7.6010037        
8.04             0.98767832       7.39230003       0.128724804      -80.8224854      0.128724804      -80.8224854      0.98767832       7.39230003       
8.26             0.988295782      7.19428176       0.125292813      -81.0533542      0.125292813      -81.0533542      0.988295782      7.19428176       
8.48             0.988867979      7.00614574       0.122030858      -81.2727644      0.122030858      -81.2727644      0.988867979      7.00614574       
8.7              0.989399239      6.82716676       0.118926578      -81.4815518      0.118926578      -81.4815518      0.989399239      6.82716676       
8.92             0.989893386      6.65668835       0.115968771      -81.6804729      0.115968771      -81.6804729      0.989893386      6.65668835       
9.14             0.990353806      6.49411495       0.113147263      -81.870214       0.113147263      -81.870214       0.990353806      6.49411495       
9.36             0.990783508      6.33890495       0.110452792      -82.0513993      0.110452792      -82.0513993      0.990783508      6.33890495       
9.58             0.991185172      6.19056485       0.107876909      -82.2245976      0.107876909      -82.2245976      0.991185172      6.19056485       
9.8              0.991561193      6.04864403       0.105411894      -82.390328       0.105411894      -82.390328       0.991561193      6.04864403       
10.02            0.991913713      5.91273018       0.103050675      -82.5490659      0.103050675      -82.5490659      0.991913713      5.91273018       
10.24            0.992244657      5.78244542       0.100786768      -82.7012466      0.100786768      -82.7012466      0.992244657      5.78244542       
10.46            0.992555756      5.65744272       0.0986142109     -82.8472702      0.0986142109     -82.8472702      0.992555756      5.65744272       
10.68            0.99284857       5.53740286       0.096527518      -82.9875045      0.096527518      -82.9875045      0.99284857       5.53740286       
10.9             0.993124508      5.42203173       0.0945216306     -83.1222887      0.0945216306     -83.1222887      0.993124508      5.42203173       
11.12            0.993384846      5.31105791       0.0925918775     -83.2519356      0.0925918775     -83.2519356      0.993384846      5.31105791       
11.34            0.993630741      5.20423049       0.0907339385     -83.3767344      0.0907339385     -83.3767344      0.993630741      5.20423049       
11.56            0.993863246      5.10131725       0.0889438125     -83.4969528      0.0889438125     -83.4969528      0.993863246      5.10131725       
11.78            0.994083317      5.00210291       0.0872177885     -83.612839       0.0872177885     -83.612839       0.994083317      5.00210291       
12               0.994291827      4.90638764       0.0855524199     -83.7246236      0.0855524199     -83.7246236      0.994291827      4.90638764       
12.22            0.994489574      4.81398567       0.083944502      -83.8325205      0.083944502      -83.8325205      0.994489574      4.81398567       
12.44            0.994677288      4.72472413       0.0823910504     -83.9367292      0.0823910504     -83.9367292      0.994677288      4.72472413       
12.66            0.994855636      4.63844192       0.0808892832     -84.0374354      0.0808892832     -84.0374354      0.994855636      4.63844192       
12.88            0.995025234      4.55498874       0.0794366038     -84.1348125      0.0794366038     -84.1348125      0.995025234      4.55498874       
13.1             0.995186644      4.47422419       0.0780305861     -84.2290223      0.0780305861     -84.2290223      0.995186644      4.47422419       
13.32            0.995340385      4.39601699       0.0766689604     -84.3202162      0.0766689604     -84.3202162      0.995340385      4.39601699       
13.54            0.995486937      4.32024424       0.0753496013     -84.4085359      0.0753496013     -84.4085359      0.995486937      4.32024424       
13.76            0.99562674       4.24679076       0.0740705165     -84.4941141      0.0740705165     -84.4941141      0.99562674       4.24679076       
13.98            0.995760202      4.17554851       0.0728298365     -84.5770756      0.0728298365     -84.5770756      0.995760202      4.17554851       
14.2             0.9958877        4.10641605       0.0716258051     -84.6575372      0.0716258051     -84.6575372      0.9958877        4.10641605       
14.42            0.996009585      4.03929801       0.0704567716     -84.7356087      0.0704567716     -84.7356087      0.996009585      4.03929801       
14.64            0.996126181      3.97410469       0.0693211822     -84.8113937      0.0693211822     -84.8113937      0.996126181      3.97410469       
14.86            0.996237787      3.91075162       0.0682175736     -84.8849895      0.0682175736     -84.8849895      0.996237787      3.91075162       
15.08            0.996344685      3.84915916       0.0671445665     -84.9564878      0.0671445665     -84.9564878      0.996344685      3.84915916       
15.3             0.996447134      3.78925224       0.0661008593     -85.0259751      0.0661008593     -85.0259751      0.996447134      3.78925224       
15.52            0.996545377      3.73095995       0.0650852231     -85.093533       0.0650852231     -85.093533       0.996545377      3.73095995       
15.74            0.99663964       3.67421531       0.0640964966     -85.1592387      0.0640964966     -85.1592387      0.99663964       3.67421531       
15.96            0.996730133      3.61895497       0.0631335813     -85.2231651      0.0631335813     -85.2231651      0.996730133      3.61895497       
16.18            0.996817054      3.56511901       0.0621954377     -85.2853811      0.0621954377     -85.2853811      0.996817054      3.56511901       
16.4             0.996900587      3.51265066       0.0612810813     -85.345952       0.0612810813     -85.345952       0.996900587      3.51265066       
16.62            0.996980904      3.46149614       0.0603895787     -85.4049398      0.0603895787     -85.4049398      0.996980904      3.46149614       
16.84            0.997058167      3.41160443       0.0595200447     -85.4624029      0.0595200447     -85.4624029      0.997058167      3.41160443       
17.06            0.997132527      3.36292713       0.0586716392     -85.518397       0.0586716392     -85.518397       0.997132527      3.36292713       
17.28            0.997204126      3.31541827       0.0578435642     -85.5729749      0.0578435642     -85.5729749      0.997204126      3.31541827       
17.5             0.997273098      3.26903416       0.0570350613     -85.6261867      0.0570350613     -85.6261867      0.997273098      3.26903416       
17.72            0.997339568      3.22373327       0.0562454092     -85.6780801      0.0562454092     -85.6780801      0.997339568      3.22373327       
17.94            0.997403653      3.17947608       0.0554739217     -85.7287002      0.0554739217     -85.7287002      0.997403653      3.17947608       
18.16            0.997465466      3.13622496       0.0547199453     -85.7780903      0.0547199453     -85.7780903      0.997465466      3.13622496       
18.38            0.99752511       3.09394408       0.0539828574     -85.8262913      0.0539828574     -85.8262913      0.99752511       3.09394408       
18.6             0.997582683      3.05259928       0.0532620647     -85.8733422      0.0532620647     -85.8733422      0.997582683      3.05259928       
18.82            0.99763828       3.01215798       0.052557001      -85.9192803      0.052557001      -85.9192803      0.99763828       3.01215798       
19.04            0.997691986      2.97258909       0.0518671262     -85.964141       0.0518671262     -85.964141       0.997691986      2.97258909       
19.26            0.997743887      2.93386294       0.0511919245     -86.0079582      0.0511919245     -86.0079582      0.997743887      2.93386294       
19.48            0.997794058      2.89595118       0.0505309033     -86.0507641      0.0505309033     -86.0507641      0.997794058      2.89595118       
19.7             0.997842575      2.85882672       0.0498835916     -86.0925896      0.0498835916     -86.0925896      0.997842575      2.85882672       
19.92            0.997889508      2.82246364       0.0492495391     -86.133464       0.0492495391     -86.133464       0.997889508      2.82246364       
20.14            0.997934923      2.78683717       0.0486283148     -86.1734155      0.0486283148     -86.1734155      0.997934923      2.78683717       
20.36            0.997978883      2.75192358       0.0480195063     -86.2124709      0.0480195063     -86.2124709      0.997978883      2.75192358       
20.58            0.998021447      2.71770017       0.0474227187     -86.250656       0.0474227187     -86.250656       0.998021447      2.71770017       
20.8             0.998062673      2.68414516       0.0468375736     -86.2879952      0.0468375736     -86.2879952      0.998062673      2.68414516       
21.02            0.998102613      2.65123771       0.0462637082     -86.3245121      0.0462637082     -86.3245121      0.998102613      2.65123771       
21.24            0.998141319      2.61895782       0.0457007746     -86.3602291      0.0457007746     -86.3602291      0.998141319      2.61895782       
21.46            0.998178838      2.58728629       0.0451484392     -86.3951678      0.0451484392     -86.3951678      0.998178838      2.58728629       
21.68            0.998215218      2.55620473       0.0446063816     -86.4293489      0.0446063816     -86.4293489      0.998215218      2.55620473       
21.9             0.998250502      2.52569545       0.0440742945     -86.462792       0.0440742945     -86.462792       0.998250502      2.52569545       
22.12            0.998284731      2.49574147       0.0435518823     -86.4955161      0.0435518823     -86.4955161      0.998284731      2.49574147       
22.34            0.998317946      2.46632648       0.0430388612     -86.5275393      0.0430388612     -86.5275393      0.998317946      2.46632648       
22.56            0.998350183      2.4374348        0.0425349583     -86.558879       0.0425349583     -86.558879       0.998350183      2.4374348        
22.78            0.99838148       2.40905135       0.0420399113     -86.5895519      0.0420399113     -86.5895519      0.99838148       2.40905135       
23               0.99841187       2.38116162       0.0415534676     -86.619574       0.0415534676     -86.619574       0.99841187       2.38116162       
23.22            0.998441386      2.35375165       0.0410753844     -86.6489605      0.0410753844     -86.6489605      0.998441386      2.35375165       
23.44            0.998470059      2.32680801       0.0406054277     -86.6777263      0.0406054277     -86.6777263      0.998470059      2.32680801       
23.66            0.99849792       2.30031774       0.0401433721     -86.7058855      0.0401433721     -86.7058855      0.99849792       2.30031774       
23.88            0.998524996      2.27426839       0.0396890008     -86.7334515      0.0396890008     -86.7334515      0.998524996      2.27426839       
24.1             0.998551315      2.24864793       0.0392421046     -86.7604375      0.0392421046     -86.7604375      0.998551315      2.24864793       
24.32            0.998576903      2.22344479       0.0388024817     -86.7868558      0.0388024817     -86.7868558      0.998576903      2.22344479       
24.54            0.998601785      2.19864778       0.0383699377     -86.8127185      0.0383699377     -86.8127185      0.998601785      2.19864778       
24.76            0.998625985      2.17424615       0.037944285      -86.838037       0.037944285      -86.838037       0.998625985      2.17424615       
24.98            0.998649525      2.15022948       0.0375253426     -86.8628225      0.0375253426     -86.8628225      0.998649525      2.15022948       
25.2             0.998672427      2.12658774       0.0371129357     -86.8870855      0.0371129357     -86.8870855      0.998672427      2.12658774       
25.42            0.998694713      2.10331124       0.0367068955     -86.9108362      0.0367068955     -86.9108362      0.998694713      2.10331124       
25.64            0.998716402      2.08039063       0.0363070591     -86.9340843      0.0363070591     -86.9340843      0.998716402      2.08039063       
25.86            0.998737514      2.05781685       0.035913269      -86.9568394      0.035913269      -86.9568394      0.998737514      2.05781685       
26.08            0.998758066      2.03558117       0.035525373      -86.9791103      0.035525373      -86.9791103      0.998758066      2.03558117       
26.3             0.998778077      2.01367513       0.035143224      -87.0009057      0.035143224      -87.0009057      0.998778077      2.01367513       
26.52            0.998797564      1.99209058       0.0347666795     -87.0222339      0.0347666795     -87.0222339      0.998797564      1.99209058       
26.74            0.998816542      1.9708196        0.0343956022     -87.0431028      0.0343956022     -87.0431028      0.998816542      1.9708196        
26.96            0.998835028      1.94985455       0.0340298587     -87.0635202      0.0340298587     -87.0635202      0.998835028      1.94985455       
27.18            0.998853036      1.92918804       0.0336693201     -87.0834933      0.0336693201     -87.0834933      0.998853036      1.92918804       
27.4             0.998870582      1.90881289       0.0333138618     -87.1030292      0.0333138618     -87.1030292      0.998870582      1.90881289       
27.62            0.998887678      1.88872218       0.032963363      -87.1221345      0.032963363      -87.1221345      0.998887678      1.88872218       
27.84            0.998904338      1.86890919       0.0326177065     -87.1408158      0.0326177065     -87.1408158      0.998904338      1.86890919       
28.06            0.998920575      1.84936741       0.0322767791     -87.1590791      0.0322767791     -87.1590791      0.998920575      1.84936741       
28.28            0.998936402      1.83009053       0.0319404709     -87.1769305      0.0319404709     -87.1769305      0.998936402      1.83009053       
28.5             0.998951829      1.81107244       0.0316086755     -87.1943756      0.0316086755     -87.1943756      0.998951829      1.81107244       
28.72            0.998966869      1.79230722       0.0312812895     -87.2114198      0.0312812895     -87.2114198      0.998966869      1.79230722       
28.94            0.998981533      1.77378912       0.030958213      -87.2280682      0.030958213      -87.2280682      0.998981533      1.77378912       
29.16            0.998995831      1.75551257       0.0306393487     -87.2443259      0.0306393487     -87.2443259      0.998995831      1.75551257       
29.38            0.999009774      1.73747216       0.0303246026     -87.2601974      0.0303246026     -87.2601974      0.999009774      1.73747216       
29.6             0.999023371      1.71966265       0.0300138831     -87.2756874      0.0300138831     -87.2756874      0.999023371      1.71966265       
29.82            0.999036631      1.70207894       0.0297071016     -87.2908001      0.0297071016     -87.2908001      0.999036631      1.70207894       
30.04            0.999049565      1.68471608       0.0294041718     -87.3055395      0.0294041718     -87.3055395      0.999049565      1.68471608       
30.26            0.99906218       1.66756928       0.0291050103     -87.3199096      0.0291050103     -87.3199096      0.99906218       1.66756928       
30.48            0.999074485      1.65063388       0.0288095356     -87.333914       0.0288095356     -87.333914       0.999074485      1.65063388       
30.7             0.999086489      1.63390535       0.0285176689     -87.3475561      0.0285176689     -87.3475561      0.999086489      1.63390535       
30.92            0.9990982        1.61737927       0.0282293335     -87.3608393      0.0282293335     -87.3608393      0.9990982        1.61737927       
31.14            0.999109625      1.60105139       0.0279444549     -87.3737668      0.0279444549     -87.3737668      0.999109625      1.60105139       
31.36            0.999120771      1.58491754       0.0276629606     -87.3863413      0.0276629606     -87.3863413      0.999120771      1.58491754       
31.58            0.999131646      1.56897367       0.0273847802     -87.3985657      0.0273847802     -87.3985657      0.999131646      1.56897367       
31.8             0.999142256      1.55321586       0.0271098451     -87.4104425      0.0271098451     -87.4104425      0.999142256      1.55321586       
32.02            0.999152609      1.53764029       0.0268380888     -87.4219742      0.0268380888     -87.4219742      0.999152609      1.53764029       
32.24            0.999162711      1.52224323       0.0265694464     -87.433163       0.0265694464     -87.433163       0.999162711      1.52224323       
32.46            0.999172567      1.50702107       0.026303855      -87.4440109      0.026303855      -87.4440109      0.999172567      1.50702107       
32.68            0.999182185      1.49197028       0.0260412531     -87.45452        0.0260412531     -87.45452        0.999182185      1.49197028       
32.9             0.999191569      1.47708745       0.0257815809     -87.4646919      0.0257815809     -87.4646919      0.999191569      1.47708745       
33.12            0.999200726      1.46236922       0.0255247804     -87.4745283      0.0255247804     -87.4745283      0.999200726      1.46236922       
33.34            0.999209661      1.44781236       0.025270795      -87.4840307      0.025270795      -87.4840307      0.999209661      1.44781236       
33.56            0.999218379      1.4334137        0.0250195694     -87.4932002      0.0250195694     -87.4932002      0.999218379      1.4334137        
33.78            0.999226886      1.41917016       0.0247710499     -87.5020382      0.0247710499     -87.5020382      0.999226886      1.41917016       
34               0.999235186      1.40507873       0.0245251844     -87.5105455      0.0245251844     -87.5105455      0.999235186      1.40507873       
34.22            0.999243284      1.39113649       0.0242819217     -87.5187231      0.0242819217     -87.5187231      0.999243284      1.39113649       
34.44            0.999251186      1.3773406        0.0240412122     -87.5265717      0.0240412122     -87.5265717      0.999251186      1.3773406        
34.66            0.999258894      1.36368826       0.0238030074     -87.5340917      0.0238030074     -87.5340917      0.999258894      1.36368826       
34.88            0.999266415      1.35017678       0.0235672602     -87.5412838      0.0235672602     -87.5412838      0.999266415      1.35017678       
35.1             0.999273751      1.33680351       0.0233339246     -87.5481481      0.0233339246     -87.5481481      0.999273751      1.33680351       
35.32            0.999280908      1.32356588       0.0231029556     -87.5546848      0.0231029556     -87.5546848      0.999280908      1.32356588       
35.54            0.999287888      1.31046137       0.0228743094     -87.5608939      0.0228743094     -87.5608939      0.999287888      1.31046137       
35.76            0.999294697      1.29748754       0.0226479435     -87.5667753      0.0226479435     -87.5667753      0.999294697      1.29748754       
35.98            0.999301338      1.28464199       0.022423816      -87.5723286      0.022423816      -87.5723286      0.999301338      1.28464199       
36.2             0.999307814      1.2719224        0.0222018864     -87.5775535      0.0222018864     -87.5775535      0.999307814      1.2719224        
36.42            0.999314129      1.25932648       0.021982115      -87.5824494      0.021982115      -87.5824494      0.999314129      1.25932648       
36.64            0.999320286      1.24685202       0.0217644631     -87.5870155      0.0217644631     -87.5870155      0.999320286      1.24685202       
36.86            0.999326289      1.23449684       0.0215488928     -87.5912512      0.0215488928     -87.5912512      0.999326289      1.23449684       
37.08            0.999332141      1.22225883       0.0213353674     -87.5951553      0.0213353674     -87.5951553      0.999332141      1.22225883       
37.3             0.999337845      1.21013593       0.0211238507     -87.5987268      0.0211238507     -87.5987268      0.999337845      1.21013593       
37.52            0.999343405      1.1981261        0.0209143076     -87.6019643      0.0209143076     -87.6019643      0.999343405      1.1981261        
37.74            0.999348822      1.18622739       0.0207067036     -87.6048665      0.0207067036     -87.6048665      0.999348822      1.18622739       
37.96            0.999354101      1.17443786       0.0205010053     -87.6074318      0.0205010053     -87.6074318      0.999354101      1.17443786       
38.18            0.999359243      1.16275564       0.0202971798     -87.6096585      0.0202971798     -87.6096585      0.999359243      1.16275564       
38.4             0.999364252      1.15117887       0.0200951951     -87.6115448      0.0200951951     -87.6115448      0.999364252      1.15117887       
38.62            0.999369131      1.13970578       0.0198950199     -87.6130886      0.0198950199     -87.6130886      0.999369131      1.13970578       
38.84            0.999373881      1.12833459       0.0196966235     -87.6142877      0.0196966235     -87.6142877      0.999373881      1.12833459       
39.06            0.999378505      1.11706359       0.019499976      -87.61514        0.019499976      -87.61514        0.999378505      1.11706359       
39.28            0.999383007      1.1058911        0.0193050481     -87.6156428      0.0193050481     -87.6156428      0.999383007      1.1058911        
39.5             0.999387387      1.09481548       0.0191118114     -87.6157937      0.0191118114     -87.6157937      0.999387387      1.09481548       
39.72            0.999391649      1.08383513       0.0189202377     -87.6155897      0.0189202377     -87.6155897      0.999391649      1.08383513       
39.94            0.999395794      1.07294848       0.0187302998     -87.615028       0.0187302998     -87.615028       0.999395794      1.07294848       
40.16            0.999399826      1.06215399       0.0185419709     -87.6141054      0.0185419709     -87.6141054      0.999399826      1.06215399       
40.38            0.999403745      1.05145015       0.0183552248     -87.6128187      0.0183552248     -87.6128187      0.999403745      1.05145015       
40.6             0.999407555      1.0408355        0.0181700359     -87.6111644      0.0181700359     -87.6111644      0.999407555      1.0408355        
40.82            0.999411257      1.03030861       0.0179863792     -87.6091389      0.0179863792     -87.6091389      0.999411257      1.03030861       
41.04            0.999414852      1.01986805       0.0178042301     -87.6067383      0.0178042301     -87.6067383      0.999414852      1.01986805       
41.26            0.999418344      1.00951246       0.0176235647     -87.6039587      0.0176235647     -87.6039587      0.999418344      1.00951246       
41.48            0.999421734      0.999240489      0.0174443595     -87.6007959      0.0174443595     -87.6007959      0.999421734      0.999240489      
41.7             0.999425023      0.989050814      0.0172665915     -87.5972455      0.0172665915     -87.5972455      0.999425023      0.989050814      
41.92            0.999428214      0.978942145      0.0170902382     -87.593303       0.0170902382     -87.593303       0.999428214      0.978942145      
42.14            0.999431308      0.968913216      0.0169152776     -87.5889635      0.0169152776     -87.5889635      0.999431308      0.968913216      
42.36            0.999434307      0.958962788      0.016741688      -87.5842221      0.016741688      -87.5842221      0.999434307      0.958962788      
42.58            0.999437212      0.949089647      0.0165694485     -87.5790737      0.0165694485     -87.5790737      0.999437212      0.949089647      
42.8             0.999440026      0.939292606      0.0163985382     -87.5735127      0.0163985382     -87.5735127      0.999440026      0.939292606      
43.02            0.999442749      0.9295705        0.0162289369     -87.5675336      0.0162289369     -87.5675336      0.999442749      0.9295705        
43.24            0.999445383      0.919922188      0.0160606247     -87.5611305      0.0160606247     -87.5611305      0.999445383      0.919922188      
43.46            0.99944793       0.910346553      0.0158935823     -87.5542973      0.0158935823     -87.5542973      0.99944793       0.910346553      
43.68            0.999450391      0.9008425        0.0157277905     -87.5470277      0.0157277905     -87.5470277      0.999450391      0.9008425        
43.9             0.999452768      0.891408956      0.0155632307     -87.5393151      0.0155632307     -87.5393151      0.999452768      0.891408956      
44.12            0.999455061      0.882044869      0.0153998846     -87.5311526      0.0153998846     -87.5311526      0.999455061      0.882044869      
44.34            0.999457273      0.872749208      0.0152377342     -87.5225331      0.0152377342     -87.5225331      0.999457273      0.872749208      
44.56            0.999459405      0.863520962      0.015076762      -87.5134492      0.015076762      -87.5134492      0.999459405      0.863520962      
44.78            0.999461457      0.854359141      0.0149169507     -87.5038933      0.0149169507     -87.5038933      0.999461457      0.854359141      
45               0.999463432      0.845262773      0.0147582835     -87.4938574      0.0147582835     -87.4938574      0.999463432      0.845262773      
45.22            0.999465329      0.836230906      0.0146007438     -87.4833331      0.0146007438     -87.4833331      0.999465329      0.836230906      
45.44            0.999467152      0.827262605      0.0144443153     -87.472312       0.0144443153     -87.472312       0.999467152      0.827262605      
45.66            0.999468899      0.818356955      0.0142889821     -87.4607851      0.0142889821     -87.4607851      0.999468899      0.818356955      
45.88            0.999470574      0.809513057      0.0141347286     -87.4487431      0.0141347286     -87.4487431      0.999470574      0.809513057      
46.1             0.999472177      0.800730029      0.0139815396     -87.4361765      0.0139815396     -87.4361765      0.999472177      0.800730029      
46.32            0.999473709      0.792007007      0.0138293999     -87.4230752      0.0138293999     -87.4230752      0.999473709      0.792007007      
46.54            0.999475171      0.783343142      0.0136782948     -87.4094291      0.0136782948     -87.4094291      0.999475171      0.783343142      
46.76            0.999476563      0.774737602      0.0135282099     -87.3952273      0.0135282099     -87.3952273      0.999476563      0.774737602      
46.98            0.999477889      0.76618957       0.0133791311     -87.3804587      0.0133791311     -87.3804587      0.999477889      0.76618957       
47.2             0.999479147      0.757698244      0.0132310443     -87.3651118      0.0132310443     -87.3651118      0.999479147      0.757698244      
47.42            0.999480339      0.749262838      0.0130839359     -87.3491746      0.0130839359     -87.3491746      0.999480339      0.749262838      
47.64            0.999481466      0.740882578      0.0129377926     -87.3326347      0.0129377926     -87.3326347      0.999481466      0.740882578      
47.86            0.99948253       0.732556708      0.0127926013     -87.3154792      0.0127926013     -87.3154792      0.99948253       0.732556708      
48.08            0.99948353       0.724284482      0.0126483489     -87.2976947      0.0126483489     -87.2976947      0.99948353       0.724284482      
48.3             0.999484468      0.71606517       0.0125050229     -87.2792672      0.0125050229     -87.2792672      0.999484468      0.71606517       
48.52            0.999485344      0.707898055      0.0123626107     -87.2601825      0.0123626107     -87.2601825      0.999485344      0.707898055      
48.74            0.99948616       0.699782431      0.0122211003     -87.2404254      0.0122211003     -87.2404254      0.99948616       0.699782431      
48.96            0.999486916      0.691717608      0.0120804797     -87.2199804      0.0120804797     -87.2199804      0.999486916      0.691717608      
49.18            0.999487614      0.683702905      0.011940737      -87.1988315      0.011940737      -87.1988315      0.999487614      0.683702905      
49.4             0.999488253      0.675737655      0.0118018608     -87.1769617      0.0118018608     -87.1769617      0.999488253      0.675737655      
49.62            0.999488835      0.667821203      0.0116638397     -87.1543537      0.0116638397     -87.1543537      0.999488835      0.667821203      
49.84            0.99948936       0.659952904      0.0115266626     -87.1309893      0.0115266626     -87.1309893      0.99948936       0.659952904      
50.06            0.99948983       0.652132126      0.0113903186     -87.1068498      0.0113903186     -87.1068498      0.99948983       0.652132126      
50.28            0.999490244      0.644358247      0.0112547969     -87.0819154      0.0112547969     -87.0819154      0.999490244      0.644358247      
50.5             0.999490604      0.636630656      0.011120087      -87.056166       0.011120087      -87.056166       0.999490604      0.636630656      
50.72            0.99949091       0.628948753      0.0109861786     -87.0295802      0.0109861786     -87.0295802      0.99949091       0.628948753      
50.94            0.999491164      0.621311948      0.0108530615     -87.002136       0.0108530615     -87.002136       0.999491164      0.621311948      
51.16            0.999491365      0.613719661      0.0107207258     -86.9738106      0.0107207258     -86.9738106      0.999491365      0.613719661      
51.38            0.999491514      0.606171322      0.0105891616     -86.94458        0.0105891616     -86.94458        0.999491514      0.606171322      
51.6             0.999491612      0.598666372      0.0104583593     -86.9144194      0.0104583593     -86.9144194      0.999491612      0.598666372      
51.82            0.99949166       0.591204259      0.0103283095     -86.8833029      0.0103283095     -86.8833029      0.99949166       0.591204259      
52.04            0.999491657      0.583784443      0.0101990029     -86.8512035      0.0101990029     -86.8512035      0.999491657      0.583784443      
52.26            0.999491606      0.576406391      0.0100704304     -86.8180932      0.0100704304     -86.8180932      0.999491606      0.576406391      
52.48            0.999491506      0.569069579      0.00994258295    -86.7839425      0.00994258295    -86.7839425      0.999491506      0.569069579      
52.7             0.999491358      0.561773494      0.00981545188    -86.748721       0.00981545188    -86.748721       0.999491358      0.561773494      
52.92            0.999491163      0.554517629      0.0096890285     -86.7123967      0.0096890285     -86.7123967      0.999491163      0.554517629      
53.14            0.99949092       0.547301486      0.00956330435    -86.6749363      0.00956330435    -86.6749363      0.99949092       0.547301486      
53.36            0.999490631      0.540124577      0.00943827108    -86.6363052      0.00943827108    -86.6363052      0.999490631      0.540124577      
53.58            0.999490296      0.532986419      0.00931392052    -86.5964669      0.00931392052    -86.5964669      0.999490296      0.532986419      
53.8             0.999489916      0.52588654       0.00919024464    -86.5553835      0.00919024464    -86.5553835      0.999489916      0.52588654       
54.02            0.999489491      0.518824472      0.00906723555    -86.5130155      0.00906723555    -86.5130155      0.999489491      0.518824472      
54.24            0.999489022      0.511799759      0.00894488551    -86.4693213      0.00894488551    -86.4693213      0.999489022      0.511799759      
54.46            0.999488509      0.504811949      0.00882318691    -86.4242575      0.00882318691    -86.4242575      0.999488509      0.504811949      
54.68            0.999487953      0.497860599      0.00870213228    -86.3777787      0.00870213228    -86.3777787      0.999487953      0.497860599      
54.9             0.999487353      0.490945271      0.0085817143     -86.3298373      0.0085817143     -86.3298373      0.999487353      0.490945271      
55.12            0.999486712      0.484065537      0.00846192577    -86.2803835      0.00846192577    -86.2803835      0.999486712      0.484065537      
55.34            0.999486028      0.477220974      0.00834275963    -86.2293651      0.00834275963    -86.2293651      0.999486028      0.477220974      
55.56            0.999485303      0.470411166      0.00822420896    -86.1767272      0.00822420896    -86.1767272      0.999485303      0.470411166      
55.78            0.999484536      0.463635702      0.00810626696    -86.1224124      0.00810626696    -86.1224124      0.999484536      0.463635702      
56               0.999483729      0.456894181      0.00798892695    -86.0663603      0.00798892695    -86.0663603      0.999483729      0.456894181      
56.22            0.999482882      0.450186206      0.00787218241    -86.0085075      0.00787218241    -86.0085075      0.999482882      0.450186206      
56.44            0.999481995      0.443511385      0.00775602691    -85.9487873      0.00775602691    -85.9487873      0.999481995      0.443511385      
56.66            0.999481069      0.436869335      0.00764045418    -85.8871297      0.00764045418    -85.8871297      0.999481069      0.436869335      
56.88            0.999480103      0.430259676      0.00752545805    -85.8234609      0.00752545805    -85.8234609      0.999480103      0.430259676      
57.1             0.999479099      0.423682037      0.00741103249    -85.7577033      0.00741103249    -85.7577033      0.999479099      0.423682037      
57.32            0.999478057      0.41713605       0.00729717159    -85.6897749      0.00729717159    -85.6897749      0.999478057      0.41713605       
57.54            0.999476977      0.410621354      0.00718386957    -85.6195896      0.00718386957    -85.6195896      0.999476977      0.410621354      
57.76            0.999475859      0.404137593      0.00707112076    -85.5470563      0.00707112076    -85.5470563      0.999475859      0.404137593      
57.98            0.999474704      0.397684416      0.00695891964    -85.4720791      0.00695891964    -85.4720791      0.999474704      0.397684416      
58.2             0.999473512      0.391261479      0.00684726078    -85.3945562      0.00684726078    -85.3945562      0.999473512      0.391261479      
58.42            0.999472284      0.384868441      0.00673613892    -85.3143805      0.00673613892    -85.3143805      0.999472284      0.384868441      
58.64            0.99947102       0.378504967      0.00662554888    -85.2314385      0.00662554888    -85.2314385      0.99947102       0.378504967      
58.86            0.99946972       0.372170728      0.00651548565    -85.1456098      0.00651548565    -85.1456098      0.99946972       0.372170728      
59.08            0.999468385      0.365865399      0.00640594431    -85.0567672      0.00640594431    -85.0567672      0.999468385      0.365865399      
59.3             0.999467014      0.359588659      0.00629692011    -84.9647755      0.00629692011    -84.9647755      0.999467014      0.359588659      
59.52            0.999465609      0.353340193      0.00618840841    -84.8694914      0.00618840841    -84.8694914      0.999465609      0.353340193      
59.74            0.999464169      0.34711969       0.0060804047     -84.7707625      0.0060804047     -84.7707625      0.999464169      0.34711969       
59.96            0.999462695      0.340926844      0.00597290463    -84.6684269      0.00597290463    -84.6684269      0.999462695      0.340926844      
60.18            0.999461188      0.334761354      0.00586590397    -84.5623122      0.00586590397    -84.5623122      0.999461188      0.334761354      
60.4             0.999459646      0.328622922      0.00575939865    -84.4522349      0.00575939865    -84.4522349      0.999459646      0.328622922      
60.62            0.999458072      0.322511255      0.00565338474    -84.3379992      0.00565338474    -84.3379992      0.999458072      0.322511255      
60.84            0.999456464      0.316426065      0.00554785846    -84.2193962      0.00554785846    -84.2193962      0.999456464      0.316426065      
61.06            0.999454824      0.310367066      0.00544281622    -84.0962027      0.00544281622    -84.0962027      0.999454824      0.310367066      
61.28            0.999453151      0.304333978      0.00533825455    -83.9681799      0.00533825455    -83.9681799      0.999453151      0.304333978      
61.5             0.999451446      0.298326525      0.0052341702     -83.8350722      0.0052341702     -83.8350722      0.999451446      0.298326525      
61.72            0.999449709      0.292344434      0.00513056006    -83.6966055      0.00513056006    -83.6966055      0.999449709      0.292344434      
61.94            0.999447941      0.286387437      0.00502742123    -83.5524859      0.00502742123    -83.5524859      0.999447941      0.286387437      
62.16            0.999446141      0.280455268      0.00492475103    -83.4023972      0.00492475103    -83.4023972      0.999446141      0.280455268      
62.38            0.99944431       0.274547666      0.00482254695    -83.2459996      0.00482254695    -83.2459996      0.99944431       0.274547666      
62.6             0.999442448      0.268664375      0.00472080674    -83.0829267      0.00472080674    -83.0829267      0.999442448      0.268664375      
62.82            0.999440556      0.262805139      0.00461952837    -82.9127836      0.00461952837    -82.9127836      0.999440556      0.262805139      
63.04            0.999438633      0.256969709      0.00451871009    -82.7351436      0.00451871009    -82.7351436      0.999438633      0.256969709      
63.26            0.99943668       0.251157838      0.0044183504     -82.549545       0.0044183504     -82.549545       0.99943668       0.251157838      
63.48            0.999434697      0.245369283      0.00431844811    -82.3554877      0.00431844811    -82.3554877      0.999434697      0.245369283      
63.7             0.999432684      0.239603803      0.00421900235    -82.1524291      0.00421900235    -82.1524291      0.999432684      0.239603803      
63.92            0.999430642      0.233861161      0.00412001261    -81.9397796      0.00412001261    -81.9397796      0.999430642      0.233861161      
64.14            0.999428571      0.228141125      0.00402147874    -81.7168972      0.00402147874    -81.7168972      0.999428571      0.228141125      
64.36            0.999426471      0.222443464      0.00392340102    -81.4830818      0.00392340102    -81.4830818      0.999426471      0.222443464      
64.58            0.999424342      0.21676795       0.00382578019    -81.2375687      0.00382578019    -81.2375687      0.999424342      0.21676795       
64.8             0.999422184      0.21111436       0.00372861749    -80.9795211      0.00372861749    -80.9795211      0.999422184      0.21111436       
65.02            0.999419998      0.205482473      0.00363191473    -80.7080211      0.00363191473    -80.7080211      0.999419998      0.205482473      
65.24            0.999417783      0.19987207       0.00353567431    -80.4220602      0.00353567431    -80.4220602      0.999417783      0.19987207       
65.46            0.999415541      0.194282937      0.00343989935    -80.1205282      0.00343989935    -80.1205282      0.999415541      0.194282937      
65.68            0.999413271      0.188714861      0.00334459375    -79.8021995      0.00334459375    -79.8021995      0.999413271      0.188714861      
65.9             0.999410973      0.183167633      0.00324976226    -79.4657192      0.00324976226    -79.4657192      0.999410973      0.183167633      
66.12            0.999408648      0.177641045      0.00315541062    -79.1095847      0.00315541062    -79.1095847      0.999408648      0.177641045      
66.34            0.999406296      0.172134895      0.0030615457     -78.7321264      0.0030615457     -78.7321264      0.999406296      0.172134895      
66.56            0.999403916      0.166648982      0.00296817561    -78.3314841      0.00296817561    -78.3314841      0.999403916      0.166648982      
66.78            0.99940151       0.161183105      0.00287530992    -77.9055793      0.00287530992    -77.9055793      0.99940151       0.161183105      
67               0.999399077      0.155737071      0.00278295987    -77.4520841      0.00278295987    -77.4520841      0.999399077      0.155737071      
67.22            0.999396618      0.150310685      0.00269113859    -76.9683825      0.00269113859    -76.9683825      0.999396618      0.150310685      
67.44            0.999394132      0.144903756      0.00259986142    -76.4515271      0.00259986142    -76.4515271      0.999394132      0.144903756      
67.66            0.99939162       0.139516096      0.0025091463     -75.8981859      0.0025091463     -75.8981859      0.99939162       0.139516096      
67.88            0.999389082      0.13414752       0.00241901412    -75.3045805      0.00241901412    -75.3045805      0.999389082      0.13414752       
68.1             0.999386519      0.128797843      0.00232948932    -74.6664114      0.00232948932    -74.6664114      0.999386519      0.128797843      
68.32            0.999383929      0.123466886      0.00224060048    -73.9787697      0.00224060048    -73.9787697      0.999383929      0.123466886      
68.54            0.999381314      0.118154468      0.00215238108    -73.2360307      0.00215238108    -73.2360307      0.999381314      0.118154468      
68.76            0.999378674      0.112860413      0.00206487044    -72.4317259      0.00206487044    -72.4317259      0.999378674      0.112860413      
68.98            0.999376009      0.107584547      0.00197811488    -71.558389       0.00197811488    -71.558389       0.999376009      0.107584547      
69.2             0.999373318      0.102326699      0.00189216914    -70.6073703      0.00189216914    -70.6073703      0.999373318      0.102326699      
69.42            0.999370603      0.0970866973     0.00180709815    -69.568612       0.00180709815    -69.568612       0.999370603      0.0970866973     
69.64            0.999367863      0.0918643755     0.0017229792     -68.4303775      0.0017229792     -68.4303775      0.999367863      0.0918643755     
69.86            0.999365098      0.0866595676     0.00163990476    -67.1789254      0.00163990476    -67.1789254      0.999365098      0.0866595676     
70.08            0.999362309      0.08147211       0.00155798591    -65.7981193      0.00155798591    -65.7981193      0.999362309      0.08147211       
70.3             0.999359496      0.0763018415     0.00147735674    -64.2689656      0.00147735674    -64.2689656      0.999359496      0.0763018415     
70.52            0.999356659      0.0711486024     0.0013981799     -62.5690759      0.0013981799     -62.5690759      0.999356659      0.0711486024     
70.74            0.999353797      0.0660122354     0.00132065358    -60.6720586      0.00132065358    -60.6720586      0.999353797      0.0660122354     
70.96            0.999350912      0.0608925849     0.00124502029    -58.5468664      0.00124502029    -58.5468664      0.999350912      0.0608925849     
71.18            0.999348002      0.0557894974     0.0011715778     -56.1571625      0.0011715778     -56.1571625      0.999348002      0.0557894974     
71.4             0.99934507       0.0507028212     0.00110069251    -53.4608357      0.00110069251    -53.4608357      0.99934507       0.0507028212     
71.62            0.999342113      0.0456324065     0.00103281525    -50.4099106      0.00103281525    -50.4099106      0.999342113      0.0456324065     
71.84            0.999339134      0.0405781053     0.00096849907    -46.9512775      0.00096849907    -46.9512775      0.999339134      0.0405781053     
72.06            0.999336131      0.0355397715     0.000908417041   -43.0289203      0.000908417041   -43.0289203      0.999336131      0.0355397715     
72.28            0.999333105      0.0305172606     0.000853376268   -38.5886096      0.000853376268   -38.5886096      0.999333105      0.0305172606     
72.5             0.999330056      0.02551043       0.000804320708   -33.5861816      0.000804320708   -33.5861816      0.999330056      0.02551043       
72.72            0.999326984      0.0205191389     0.000762311438   -28.0001668      0.000762311438   -28.0001668      0.999326984      0.0205191389     
72.94            0.999323889      0.015543248      0.000728470302   -21.8480384      0.000728470302   -21.8480384      0.999323889      0.015543248      
73.16            0.999320772      0.0105826199     0.000703876292   -15.2023077      0.000703876292   -15.2023077      0.999320772      0.0105826199     
73.38            0.999317632      0.00563711852    0.000689419077   -8.19899535      0.000689419077   -8.19899535      0.999317632      0.00563711852    
73.6             0.99931447       0.00070660979    0.000685640506   -1.02993247      0.000685640506   -1.02993247      0.99931447       0.00070660979    
73.82            0.999311286      -0.00420903898   0.000692618228   6.08424          0.000692618228   6.08424          0.999311286      -0.00420903898   
74.04            0.999308079      -0.00910995884   0.000709941847   12.9326366       0.000709941847   12.9326366       0.999308079      -0.00910995884   
74.26            0.999304851      -0.0139962793    0.000736793423   19.348662        0.000736793423   19.348662        0.999304851      -0.0139962793    
74.48            0.9993016        -0.0188681283    0.000772096295   25.2277527       0.000772096295   25.2277527       0.9993016        -0.0188681283    
74.7             0.999298327      -0.0237256324    0.000814674807   30.5262144       0.000814674807   30.5262144       0.999298327      -0.0237256324    
74.92            0.999295033      -0.0285689165    0.000863380942   35.2478844       0.000863380942   35.2478844       0.999295033      -0.0285689165    
75.14            0.999291717      -0.0333981041    0.000917171948   39.4272464       0.000917171948   39.4272464       0.999291717      -0.0333981041    
75.36            0.99928838       -0.0382133172    0.000975144544   43.1147155       0.000975144544   43.1147155       0.99928838       -0.0382133172    
75.58            0.999285021      -0.0430146766    0.0010365397     46.366186        0.0010365397     46.366186        0.999285021      -0.0430146766    
75.8             0.99928164       -0.0478023014    0.00110073136    49.2366518       0.00110073136    49.2366518       0.99928164       -0.0478023014    
76.02            0.999278239      -0.0525763095    0.00116720847    51.7768632       0.00116720847    51.7768632       0.999278239      -0.0525763095    
76.24            0.999274816      -0.0573368174    0.00123555587    54.0319387       0.00123555587    54.0319387       0.999274816      -0.0573368174    
76.46            0.999271372      -0.0620839402    0.00130543661    56.0411059       0.00130543661    56.0411059       0.999271372      -0.0620839402    
76.68            0.999267908      -0.0668177918    0.00137657678    57.8380257       0.00137657678    57.8380257       0.999267908      -0.0668177918    
76.9             0.999264422      -0.0715384847    0.00144875301    59.4513731       0.00144875301    59.4513731       0.999264422      -0.0715384847    
77.12            0.999260916      -0.07624613      0.00152178237    60.9054907       0.00152178237    60.9054907       0.999260916      -0.07624613      
77.34            0.999257388      -0.0809408378    0.00159551431    62.2210252       0.00159551431    62.2210252       0.999257388      -0.0809408378    
77.56            0.999253841      -0.0856227168    0.00166982429    63.4155023       0.00166982429    63.4155023       0.999253841      -0.0856227168    
77.78            0.999250273      -0.0902918744    0.00174460875    64.5038273       0.00174460875    64.5038273       0.999250273      -0.0902918744    
78               0.999246684      -0.0949484169    0.00181978113    65.498711        0.00181978113    65.498711        0.999246684      -0.0949484169    
78.22            0.999243075      -0.0995924494    0.00189526868    66.4110272       0.00189526868    66.4110272       0.999243075      -0.0995924494    
78.44            0.999239446      -0.104224076     0.00197100998    67.2501103       0.00197100998    67.2501103       0.999239446      -0.104224076     
78.66            0.999235796      -0.108843399     0.00204695295    68.0240025       0.00204695295    68.0240025       0.999235796      -0.108843399     
78.88            0.999232126      -0.11345052      0.00212305319    68.7396582       0.00212305319    68.7396582       0.999232126      -0.11345052      
79.1             0.999228437      -0.118045539     0.0021992727     69.4031136       0.0021992727     69.4031136       0.999228437      -0.118045539     
79.32            0.999224727      -0.122628557     0.00227557886    70.0196269       0.00227557886    70.0196269       0.999224727      -0.122628557     
79.54            0.999220998      -0.12719967      0.00235194353    70.593795        0.00235194353    70.593795        0.999220998      -0.12719967      
79.76            0.999217249      -0.131758977     0.00242834236    71.1296512       0.00242834236    71.1296512       0.999217249      -0.131758977     
79.98            0.99921348       -0.136306573     0.00250475423    71.6307459       0.00250475423    71.6307459       0.99921348       -0.136306573     
80.2             0.999209691      -0.140842554     0.00258116075    72.1002149       0.00258116075    72.1002149       0.999209691      -0.140842554     
80.42            0.999205883      -0.145367012     0.00265754589    72.5408367       0.00265754589    72.5408367       0.999205883      -0.145367012     
80.64            0.999202056      -0.149880042     0.00273389559    72.9550807       0.00273389559    72.9550807       0.999202056      -0.149880042     
80.86            0.999198209      -0.154381735     0.00281019756    73.3451478       0.00281019756    73.3451478       0.999198209      -0.154381735     
81.08            0.999194342      -0.158872182     0.00288644099    73.7130055       0.00288644099    73.7130055       0.999194342      -0.158872182     
81.3             0.999190457      -0.163351473     0.00296261638    74.0604175       0.00296261638    74.0604175       0.999190457      -0.163351473     
81.52            0.999186552      -0.167819697     0.00303871535    74.3889684       0.00303871535    74.3889684       0.999186552      -0.167819697     
81.74            0.999182628      -0.172276942     0.00311473052    74.7000861       0.00311473052    74.7000861       0.999182628      -0.172276942     
81.96            0.999178685      -0.176723295     0.00319065536    74.99506         0.00319065536    74.99506         0.999178685      -0.176723295     
82.18            0.999174723      -0.181158841     0.00326648412    75.2750573       0.00326648412    75.2750573       0.999174723      -0.181158841     
82.4             0.999170742      -0.185583667     0.00334221172    75.5411369       0.00334221172    75.5411369       0.999170742      -0.185583667     
82.62            0.999166742      -0.189997857     0.00341783365    75.7942616       0.00341783365    75.7942616       0.999166742      -0.189997857     
82.84            0.999162723      -0.194401494     0.00349334594    76.0353083       0.00349334594    76.0353083       0.999162723      -0.194401494     
83.06            0.999158686      -0.19879466      0.0035687451     76.2650776       0.0035687451     76.2650776       0.999158686      -0.19879466      
83.28            0.99915463       -0.203177436     0.00364402802    76.4843018       0.00364402802    76.4843018       0.99915463       -0.203177436     
83.5             0.999150555      -0.207549905     0.00371919198    76.6936516       0.00371919198    76.6936516       0.999150555      -0.207549905     
83.72            0.999146462      -0.211912146     0.0037942346     76.8937428       0.0037942346     76.8937428       0.999146462      -0.211912146     
83.94            0.99914235       -0.216264237     0.00386915377    77.0851415       0.00386915377    77.0851415       0.99914235       -0.216264237     
84.16            0.99913822       -0.220606257     0.00394394765    77.2683691       0.00394394765    77.2683691       0.99913822       -0.220606257     
84.38            0.999134072      -0.224938284     0.00401861466    77.4439065       0.00401861466    77.4439065       0.999134072      -0.224938284     
84.6             0.999129905      -0.229260394     0.0040931534     77.6121978       0.0040931534     77.6121978       0.999129905      -0.229260394     
84.82            0.99912572       -0.233572662     0.00416756269    77.7736541       0.00416756269    77.7736541       0.99912572       -0.233572662     
85.04            0.999121517      -0.237875164     0.0042418415     77.9286561       0.0042418415     77.9286561       0.999121517      -0.237875164     
85.26            0.999117295      -0.242167975     0.00431598898    78.0775571       0.00431598898    78.0775571       0.999117295      -0.242167975     
85.48            0.999113056      -0.246451167     0.0043900044     78.220685        0.0043900044     78.220685        0.999113056      -0.246451167     
85.7             0.999108798      -0.250724814     0.00446388718    78.3583452       0.00446388718    78.3583452       0.999108798      -0.250724814     
85.92            0.999104523      -0.254988986     0.00453763683    78.4908218       0.00453763683    78.4908218       0.999104523      -0.254988986     
86.14            0.999100229      -0.259243756     0.00461125299    78.61838         0.00461125299    78.61838         0.999100229      -0.259243756     
86.36            0.999095918      -0.263489195     0.00468473538    78.741267        0.00468473538    78.741267        0.999095918      -0.263489195     
86.58            0.999091589      -0.267725371     0.00475808381    78.8597141       0.00475808381    78.8597141       0.999091589      -0.267725371     
86.8             0.999087242      -0.271952354     0.00483129818    78.9739375       0.00483129818    78.9739375       0.999087242      -0.271952354     
87.02            0.999082877      -0.276170212     0.00490437845    79.0841399       0.00490437845    79.0841399       0.999082877      -0.276170212     
87.24            0.999078495      -0.280379014     0.00497732464    79.1905112       0.00497732464    79.1905112       0.999078495      -0.280379014     
87.46            0.999074095      -0.284578825     0.00505013684    79.2932295       0.00505013684    79.2932295       0.999074095      -0.284578825     
87.68            0.999069678      -0.288769712     0.0051228152     79.3924623       0.0051228152     79.3924623       0.999069678      -0.288769712     
87.9             0.999065243      -0.292951742     0.00519535991    79.488367        0.00519535991    79.488367        0.999065243      -0.292951742     
88.12            0.99906079       -0.297124978     0.00526777121    79.5810917       0.00526777121    79.5810917       0.99906079       -0.297124978     
88.34            0.99905632       -0.301289486     0.00534004937    79.670776        0.00534004937    79.670776        0.99905632       -0.301289486     
88.56            0.999051833      -0.305445329     0.00541219471    79.7575513       0.00541219471    79.7575513       0.999051833      -0.305445329     
88.78            0.999047329      -0.30959257      0.00548420759    79.8415418       0.00548420759    79.8415418       0.999047329      -0.30959257      
89               0.999042807      -0.313731271     0.00555608837    79.9228646       0.00555608837    79.9228646       0.999042807      -0.313731271     
89.22            0.999038268      -0.317861495     0.00562783748    80.0016305       0.00562783748    80.0016305       0.999038268      -0.317861495     
89.44            0.999033712      -0.321983302     0.00569945534    80.0779443       0.00569945534    80.0779443       0.999033712      -0.321983302     
89.66            0.999029138      -0.326096754     0.00577094242    80.151905        0.00577094242    80.151905        0.999029138      -0.326096754     
89.88            0.999024548      -0.330201909     0.00584229921    80.2236065       0.00584229921    80.2236065       0.999024548      -0.330201909     
90               0.999022037      -0.33243761      0.00588116634    80.2617963       0.00588116634    80.2617963       0.999022037      -0.33243761      
