! Coilcraft 1812CS-332 Chip Inductor				
! 31 July 2002			
# MHZ S MA R 50
!Freq             MagS11           AngS11           MagS21           AngS21           MagS12           AngS12           MagS22           AngS22
1                0.200904984      65.4894592       0.934701915      -11.2780715      0.934701915      -11.2780715      0.200904984      65.4894592       
1.65             0.315281313      63.2091776       0.90287648       -18.1624981      0.90287648       -18.1624981      0.315281313      63.2091776       
2.3              0.417738663      58.9600794       0.862382799      -24.5217313      0.862382799      -24.5217313      0.417738663      58.9600794       
2.95             0.506393031      54.4220106       0.816813484      -30.280244       0.816813484      -30.280244       0.506393031      54.4220106       
3.6              0.581381         50.0807451       0.769318449      -35.4217665      0.769318449      -35.4217665      0.581381         50.0807451       
4.25             0.643924412      46.0984625       0.722230585      -39.9717958      0.722230585      -39.9717958      0.643924412      46.0984625       
4.9              0.695703853      42.5157948       0.677059568      -43.9796509      0.677059568      -43.9796509      0.695703853      42.5157948       
5.55             0.738464698      39.3220231       0.634651408      -47.5046684      0.634651408      -47.5046684      0.738464698      39.3220231       
6.2              0.773810806      36.4852975       0.595382844      -50.6073316      0.595382844      -50.6073316      0.773810806      36.4852975       
6.85             0.803122585      33.9668557       0.559328994      -53.3443915      0.559328994      -53.3443915      0.803122585      33.9668557       
7.5              0.827544591      31.7277642       0.526387111      -55.766668       0.526387111      -55.766668       0.827544591      31.7277642       
8.15             0.848005838      29.7319257       0.496359913      -57.9184376      0.496359913      -57.9184376      0.848005838      29.7319257       
8.8              0.865251813      27.9471987       0.46900815       -59.8376596      0.46900815       -59.8376596      0.865251813      27.9471987       
9.45             0.87987764       26.3455869       0.444081964      -61.5565859      0.444081964      -61.5565859      0.87987764       26.3455869       
10.1             0.892357872      24.9029962       0.421338505      -63.1024979      0.421338505      -63.1024979      0.892357872      24.9029962       
10.75            0.903071489      23.5988181       0.400550982      -64.4984398      0.400550982      -64.4984398      0.903071489      23.5988181       
11.4             0.912322126      22.4154716       0.381512614      -65.7638874      0.381512614      -65.7638874      0.912322126      22.4154716       
12.05            0.920354098      21.3379625       0.364037614      -66.915332       0.364037614      -66.915332       0.920354098      21.3379625       
12.7             0.927364973      20.3534874       0.347960572      -67.9667757      0.347960572      -67.9667757      0.927364973      20.3534874       
13.35            0.93351537       19.4510902       0.333135012      -68.9301466      0.333135012      -68.9301466      0.93351537       19.4510902       
14               0.938936599      18.6213694       0.31943162       -69.8156429      0.31943162       -69.8156429      0.938936599      18.6213694       
14.65            0.943736603      17.8562323       0.306736379      -70.6320168      0.306736379      -70.6320168      0.943736603      17.8562323       
15.3             0.948004616      17.1486889       0.294948779      -71.3868089      0.294948779      -71.3868089      0.948004616      17.1486889       
15.95            0.951814802      16.4926809       0.283980166      -72.0865412      0.283980166      -72.0865412      0.951814802      16.4926809       
16.6             0.955229129      15.8829387       0.273752244      -72.7368766      0.273752244      -72.7368766      0.955229129      15.8829387       
17.25            0.958299642      15.3148628       0.26419576       -73.3427504      0.26419576       -73.3427504      0.958299642      15.3148628       
17.9             0.961070266      14.7844245       0.255249342      -73.9084801      0.255249342      -73.9084801      0.961070266      14.7844245       
18.55            0.963578251      14.2880833       0.246858496      -74.4378556      0.246858496      -74.4378556      0.963578251      14.2880833       
19.2             0.965855331      13.8227174       0.238974727      -74.9342157      0.238974727      -74.9342157      0.965855331      13.8227174       
19.85            0.967928657      13.385565        0.231554786      -75.4005113      0.231554786      -75.4005113      0.967928657      13.385565        
20.5             0.96982156       12.974176        0.224560014      -75.839359       0.224560014      -75.839359       0.96982156       12.974176        
21.15            0.971554166      12.5863696       0.217955778      -76.2530858      0.217955778      -76.2530858      0.971554166      12.5863696       
21.8             0.973143904      12.2201995       0.211710982      -76.6437676      0.211710982      -76.6437676      0.973143904      12.2201995       
22.45            0.974605922      11.8739238       0.205797644      -77.0132615      0.205797644      -77.0132615      0.974605922      11.8739238       
23.1             0.975953434      11.5459793       0.200190528      -77.3632331      0.200190528      -77.3632331      0.975953434      11.5459793       
23.75            0.977198004      11.2349599       0.19486683       -77.6951806      0.19486683       -77.6951806      0.977198004      11.2349599       
24.4             0.978349785      10.939597        0.189805897      -78.0104545      0.189805897      -78.0104545      0.978349785      10.939597        
25.05            0.979417719      10.6587443       0.184988987      -78.3102756      0.184988987      -78.3102756      0.979417719      10.6587443       
25.7             0.980409704      10.3913628       0.18039906       -78.5957496      0.18039906       -78.5957496      0.980409704      10.3913628       
26.35            0.981332735      10.1365091       0.176020593      -78.8678802      0.176020593      -78.8678802      0.981332735      10.1365091       
27               0.982193029      9.89332487       0.17183942       -79.1275809      0.17183942       -79.1275809      0.982193029      9.89332487       
27.65            0.982996118      9.66102747       0.167842587      -79.3756843      0.167842587      -79.3756843      0.982996118      9.66102747       
28.3             0.983746943      9.43890185       0.16401823       -79.6129507      0.16401823       -79.6129507      0.983746943      9.43890185       
28.95            0.984449926      9.22629356       0.160355465      -79.8400763      0.160355465      -79.8400763      0.984449926      9.22629356       
29.6             0.985109033      9.02260255       0.156844291      -80.0576992      0.156844291      -80.0576992      0.985109033      9.02260255       
30.25            0.985727828      8.82727765       0.1534755        -80.2664054      0.1534755        -80.2664054      0.985727828      8.82727765       
30.9             0.986309524      8.63981176       0.150240607      -80.4667342      0.150240607      -80.4667342      0.986309524      8.63981176       
31.55            0.98685702       8.45973757       0.147131778      -80.6591823      0.147131778      -80.6591823      0.98685702       8.45973757       
32.2             0.987372939      8.28662378       0.144141768      -80.8442083      0.144141768      -80.8442083      0.987372939      8.28662378       
32.85            0.987859659      8.12007171       0.141263873      -81.022236       0.141263873      -81.022236       0.987859659      8.12007171       
33.5             0.988319336      7.95971232       0.138491876      -81.1936578      0.138491876      -81.1936578      0.988319336      7.95971232       
34.15            0.988753935      7.80520352       0.135820006      -81.3588373      0.135820006      -81.3588373      0.988753935      7.80520352       
34.8             0.989165243      7.65622774       0.133242899      -81.5181121      0.133242899      -81.5181121      0.989165243      7.65622774       
35.45            0.989554894      7.51248986       0.130755565      -81.671796       0.130755565      -81.671796       0.989554894      7.51248986       
36.1             0.989924379      7.37371521       0.128353351      -81.8201809      0.128353351      -81.8201809      0.989924379      7.37371521       
36.75            0.990275064      7.23964787       0.12603192       -81.9635388      0.12603192       -81.9635388      0.990275064      7.23964787       
37.4             0.990608201      7.11004911       0.123787222      -82.1021236      0.123787222      -82.1021236      0.990608201      7.11004911       
38.05            0.990924942      6.98469595       0.121615468      -82.2361723      0.121615468      -82.2361723      0.990924942      6.98469595       
38.7             0.991226343      6.86337994       0.119513115      -82.3659065      0.119513115      -82.3659065      0.991226343      6.86337994       
39.35            0.991513377      6.74590597       0.117476843      -82.4915336      0.117476843      -82.4915336      0.991513377      6.74590597       
40               0.991786944      6.63209121       0.115503537      -82.6132479      0.115503537      -82.6132479      0.991786944      6.63209121       
40.65            0.992047871      6.52176422       0.113590275      -82.7312318      0.113590275      -82.7312318      0.992047871      6.52176422       
41.3             0.992296925      6.41476401       0.111734312      -82.8456563      0.111734312      -82.8456563      0.992296925      6.41476401       
41.95            0.992534815      6.31093933       0.109933064      -82.9566824      0.109933064      -82.9566824      0.992534815      6.31093933       
42.6             0.992762196      6.2101479        0.108184103      -83.0644612      0.108184103      -83.0644612      0.992762196      6.2101479        
43.25            0.992979679      6.11225578       0.106485137      -83.1691351      0.106485137      -83.1691351      0.992979679      6.11225578       
43.9             0.99318783       6.01713675       0.104834008      -83.2708383      0.104834008      -83.2708383      0.99318783       6.01713675       
44.55            0.993387173      5.92467179       0.103228679      -83.3696975      0.103228679      -83.3696975      0.993387173      5.92467179       
45.2             0.993578199      5.83474857       0.101667226      -83.465832       0.101667226      -83.465832       0.993578199      5.83474857       
45.85            0.993761363      5.74726096       0.10014783       -83.5593546      0.10014783       -83.5593546      0.993761363      5.74726096       
46.5             0.99393709       5.66210867       0.098668773      -83.650372       0.098668773      -83.650372       0.99393709       5.66210867       
47.15            0.994105777      5.57919679       0.0972284258     -83.7389851      0.0972284258     -83.7389851      0.994105777      5.57919679       
47.8             0.994267794      5.49843546       0.0958252468     -83.8252894      0.0958252468     -83.8252894      0.994267794      5.49843546       
48.45            0.994423488      5.41973958       0.0944577745     -83.9093755      0.0944577745     -83.9093755      0.994423488      5.41973958       
49.1             0.994573183      5.34302841       0.0931246225     -83.9913291      0.0931246225     -83.9913291      0.994573183      5.34302841       
49.75            0.994717182      5.2682254        0.091824475      -84.0712316      0.091824475      -84.0712316      0.994717182      5.2682254        
50.4             0.994855771      5.19525785       0.0905560821     -84.1491604      0.0905560821     -84.1491604      0.994855771      5.19525785       
51.05            0.994989216      5.12405668       0.0893182561     -84.2251889      0.0893182561     -84.2251889      0.994989216      5.12405668       
51.7             0.995117768      5.05455626       0.0881098673     -84.2993868      0.0881098673     -84.2993868      0.995117768      5.05455626       
52.35            0.995241663      4.98669412       0.0869298409     -84.3718206      0.0869298409     -84.3718206      0.995241663      4.98669412       
53               0.995361122      4.92041082       0.0857771536     -84.4425534      0.0857771536     -84.4425534      0.995361122      4.92041082       
53.65            0.995476354      4.85564976       0.0846508302     -84.5116455      0.0846508302     -84.5116455      0.995476354      4.85564976       
54.3             0.995587555      4.792357         0.0835499414     -84.5791541      0.0835499414     -84.5791541      0.995587555      4.792357         
54.95            0.995694911      4.7304811        0.0824736009     -84.6451339      0.0824736009     -84.6451339      0.995694911      4.7304811        
55.6             0.995798595      4.66997301       0.0814209627     -84.7096371      0.0814209627     -84.7096371      0.995798595      4.66997301       
56.25            0.995898773      4.61078588       0.0803912193     -84.7727134      0.0803912193     -84.7727134      0.995898773      4.61078588       
56.9             0.995995601      4.552875         0.0793835993     -84.8344104      0.0793835993     -84.8344104      0.995995601      4.552875         
57.55            0.996089225      4.49619763       0.0783973653     -84.8947734      0.0783973653     -84.8947734      0.996089225      4.49619763       
58.2             0.996179784      4.44071293       0.0774318122     -84.9538459      0.0774318122     -84.9538459      0.996179784      4.44071293       
58.85            0.99626741       4.38638182       0.0764862655     -85.0116693      0.0764862655     -85.0116693      0.99626741       4.38638182       
59.5             0.996352227      4.33316692       0.0755600798     -85.0682834      0.0755600798     -85.0682834      0.996352227      4.33316692       
60.15            0.996434354      4.28103243       0.0746526366     -85.1237261      0.0746526366     -85.1237261      0.996434354      4.28103243       
60.8             0.996513902      4.22994407       0.0737633438     -85.1780339      0.0737633438     -85.1780339      0.996513902      4.22994407       
61.45            0.996590977      4.17986898       0.0728916337     -85.2312417      0.0728916337     -85.2312417      0.996590977      4.17986898       
62.1             0.99666568       4.13077569       0.072036962      -85.2833828      0.072036962      -85.2833828      0.99666568       4.13077569       
62.75            0.996738106      4.08263397       0.0711988065     -85.3344894      0.0711988065     -85.3344894      0.996738106      4.08263397       
63.4             0.996808347      4.03541485       0.0703766662     -85.3845922      0.0703766662     -85.3845922      0.996808347      4.03541485       
64.05            0.996876488      3.98909052       0.0695700599     -85.4337206      0.0695700599     -85.4337206      0.996876488      3.98909052       
64.7             0.996942612      3.94363425       0.0687785256     -85.4819031      0.0687785256     -85.4819031      0.996942612      3.94363425       
65.35            0.997006796      3.89902039       0.0680016193     -85.5291668      0.0680016193     -85.5291668      0.997006796      3.89902039       
66               0.997069114      3.85522427       0.0672389142     -85.5755378      0.0672389142     -85.5755378      0.997069114      3.85522427       
66.65            0.997129639      3.81222218       0.0664899999     -85.6210413      0.0664899999     -85.6210413      0.997129639      3.81222218       
67.3             0.997188436      3.76999132       0.0657544818     -85.6657015      0.0657544818     -85.6657015      0.997188436      3.76999132       
67.95            0.99724557       3.72850974       0.0650319798     -85.7095416      0.0650319798     -85.7095416      0.99724557       3.72850974       
68.6             0.997301103      3.68775633       0.0643221283     -85.7525839      0.0643221283     -85.7525839      0.997301103      3.68775633       
69.25            0.997355093      3.64771074       0.0636245752     -85.79485        0.0636245752     -85.79485        0.997355093      3.64771074       
69.9             0.997407595      3.60835339       0.0629389812     -85.8363605      0.0629389812     -85.8363605      0.997407595      3.60835339       
70.55            0.997458664      3.56966542       0.0622650194     -85.8771355      0.0622650194     -85.8771355      0.997458664      3.56966542       
71.2             0.997508349      3.53162863       0.0616023747     -85.9171941      0.0616023747     -85.9171941      0.997508349      3.53162863       
71.85            0.9975567        3.49422549       0.0609507432     -85.9565549      0.0609507432     -85.9565549      0.9975567        3.49422549       
72.5             0.997603763      3.45743908       0.0603098318     -85.9952357      0.0603098318     -85.9952357      0.997603763      3.45743908       
73.15            0.997649583      3.42125309       0.0596793576     -86.0332538      0.0596793576     -86.0332538      0.997649583      3.42125309       
73.8             0.997694201      3.38565176       0.0590590477     -86.0706258      0.0590590477     -86.0706258      0.997694201      3.38565176       
74.45            0.99773766       3.35061989       0.0584486385     -86.1073676      0.0584486385     -86.1073676      0.99773766       3.35061989       
75.1             0.997779997      3.31614281       0.0578478753     -86.1434948      0.0578478753     -86.1434948      0.997779997      3.31614281       
75.75            0.997821251      3.28220632       0.0572565123     -86.1790223      0.0572565123     -86.1790223      0.997821251      3.28220632       
76.4             0.997861457      3.24879674       0.0566743118     -86.2139645      0.0566743118     -86.2139645      0.997861457      3.24879674       
77.05            0.99790065       3.2159008        0.0561010441     -86.2483353      0.0561010441     -86.2483353      0.99790065       3.2159008        
77.7             0.997938861      3.18350571       0.055536487      -86.2821482      0.055536487      -86.2821482      0.997938861      3.18350571       
78.35            0.997976124      3.15159908       0.0549804257     -86.3154162      0.0549804257     -86.3154162      0.997976124      3.15159908       
79               0.998012469      3.12016893       0.0544326524     -86.3481518      0.0544326524     -86.3481518      0.998012469      3.12016893       
79.65            0.998047923      3.08920368       0.0538929658     -86.3803673      0.0538929658     -86.3803673      0.998047923      3.08920368       
80.3             0.998082516      3.05869209       0.0533611714     -86.4120742      0.0533611714     -86.4120742      0.998082516      3.05869209       
80.95            0.998116275      3.02862332       0.0528370805     -86.4432841      0.0528370805     -86.4432841      0.998116275      3.02862332       
81.6             0.998149224      2.99898684       0.0523205107     -86.4740078      0.0523205107     -86.4740078      0.998149224      2.99898684       
82.25            0.998181389      2.96977247       0.0518112851     -86.5042561      0.0518112851     -86.5042561      0.998181389      2.96977247       
82.9             0.998212794      2.94097033       0.0513092323     -86.5340391      0.0513092323     -86.5340391      0.998212794      2.94097033       
83.55            0.998243462      2.91257086       0.0508141863     -86.563367       0.0508141863     -86.563367       0.998243462      2.91257086       
84.2             0.998273414      2.88456478       0.050325986      -86.5922493      0.050325986      -86.5922493      0.998273414      2.88456478       
84.85            0.998302673      2.85694311       0.0498444753     -86.6206953      0.0498444753     -86.6206953      0.998302673      2.85694311       
85.5             0.998331258      2.82969713       0.0493695028     -86.6487141      0.0493695028     -86.6487141      0.998331258      2.82969713       
86.15            0.998359189      2.80281838       0.0489009217     -86.6763145      0.0489009217     -86.6763145      0.998359189      2.80281838       
86.8             0.998386485      2.77629866       0.0484385894     -86.7035049      0.0484385894     -86.7035049      0.998386485      2.77629866       
87.45            0.998413164      2.75012999       0.0479823676     -86.7302937      0.0479823676     -86.7302937      0.998413164      2.75012999       
88.1             0.998439245      2.72430466       0.047532122      -86.7566886      0.047532122      -86.7566886      0.998439245      2.72430466       
88.75            0.998464743      2.69881516       0.0470877222     -86.7826976      0.0470877222     -86.7826976      0.998464743      2.69881516       
89.4             0.998489676      2.67365419       0.0466490417     -86.808328       0.0466490417     -86.808328       0.998489676      2.67365419       
90.05            0.998514059      2.64881469       0.0462159573     -86.8335871      0.0462159573     -86.8335871      0.998514059      2.64881469       
90.7             0.998537908      2.62428977       0.0457883497     -86.858482       0.0457883497     -86.858482       0.998537908      2.62428977       
91.35            0.998561236      2.60007274       0.0453661027     -86.8830195      0.0453661027     -86.8830195      0.998561236      2.60007274       
92               0.998584059      2.57615713       0.0449491033     -86.9072062      0.0449491033     -86.9072062      0.998584059      2.57615713       
92.65            0.99860639       2.55253661       0.044537242      -86.9310485      0.044537242      -86.9310485      0.99860639       2.55253661       
93.3             0.998628243      2.52920504       0.044130412      -86.9545527      0.044130412      -86.9545527      0.998628243      2.52920504       
93.95            0.998649629      2.50615646       0.0437285095     -86.9777248      0.0437285095     -86.9777248      0.998649629      2.50615646       
94.6             0.998670562      2.48338506       0.0433314336     -87.0005706      0.0433314336     -87.0005706      0.998670562      2.48338506       
95.25            0.998691053      2.46088519       0.0429390861     -87.023096       0.0429390861     -87.023096       0.998691053      2.46088519       
95.9             0.998711114      2.43865134       0.0425513715     -87.0453063      0.0425513715     -87.0453063      0.998711114      2.43865134       
96.55            0.998730756      2.41667819       0.0421681967     -87.0672069      0.0421681967     -87.0672069      0.998730756      2.41667819       
97.2             0.99874999       2.39496051       0.0417894712     -87.0888031      0.0417894712     -87.0888031      0.99874999       2.39496051       
97.85            0.998768827      2.37349323       0.0414151069     -87.1100998      0.0414151069     -87.1100998      0.998768827      2.37349323       
98.5             0.998787276      2.35227143       0.0410450178     -87.1311021      0.0410450178     -87.1311021      0.998787276      2.35227143       
99.15            0.998805347      2.33129029       0.0406791206     -87.1518145      0.0406791206     -87.1518145      0.998805347      2.33129029       
99.8             0.99882305       2.31054513       0.0403173336     -87.1722418      0.0403173336     -87.1722418      0.99882305       2.31054513       
100.45           0.998840393      2.29003139       0.0399595775     -87.1923884      0.0399595775     -87.1923884      0.998840393      2.29003139       
101.1            0.998857387      2.26974463       0.0396057751     -87.2122587      0.0396057751     -87.2122587      0.998857387      2.26974463       
101.75           0.998874039      2.2496805        0.0392558509     -87.2318569      0.0392558509     -87.2318569      0.998874039      2.2496805        
102.4            0.998890357      2.22983479       0.0389097316     -87.251187       0.0389097316     -87.251187       0.998890357      2.22983479       
103.05           0.99890635       2.21020338       0.0385673454     -87.270253       0.0385673454     -87.270253       0.99890635       2.21020338       
103.7            0.998922026      2.19078226       0.0382286227     -87.2890589      0.0382286227     -87.2890589      0.998922026      2.19078226       
104.35           0.998937392      2.17156751       0.0378934952     -87.3076082      0.0378934952     -87.3076082      0.998937392      2.17156751       
105              0.998952456      2.15255532       0.0375618966     -87.3259047      0.0375618966     -87.3259047      0.998952456      2.15255532       
105.65           0.998967224      2.13374195       0.037233762      -87.3439519      0.037233762      -87.3439519      0.998967224      2.13374195       
106.3            0.998981704      2.11512378       0.0369090283     -87.3617531      0.0369090283     -87.3617531      0.998981704      2.11512378       
106.95           0.998995902      2.09669726       0.0365876337     -87.3793118      0.0365876337     -87.3793118      0.998995902      2.09669726       
107.6            0.999009825      2.07845893       0.036269518      -87.396631       0.036269518      -87.396631       0.999009825      2.07845893       
108.25           0.999023479      2.0604054        0.0359546225     -87.413714       0.0359546225     -87.413714       0.999023479      2.0604054        
108.9            0.99903687       2.0425334        0.0356428898     -87.4305637      0.0356428898     -87.4305637      0.99903687       2.0425334        
109.55           0.999050004      2.02483968       0.0353342637     -87.447183       0.0353342637     -87.447183       0.999050004      2.02483968       
110.2            0.999062888      2.00732112       0.0350286898     -87.4635749      0.0350286898     -87.4635749      0.999062888      2.00732112       
110.85           0.999075526      1.98997463       0.0347261144     -87.4797419      0.0347261144     -87.4797419      0.999075526      1.98997463       
111.5            0.999087924      1.97279723       0.0344264854     -87.4956869      0.0344264854     -87.4956869      0.999087924      1.97279723       
112.15           0.999100088      1.95578597       0.0341297518     -87.5114123      0.0341297518     -87.5114123      0.999100088      1.95578597       
112.8            0.999112022      1.938938         0.0338358637     -87.5269206      0.0338358637     -87.5269206      0.999112022      1.938938         
113.45           0.999123731      1.92225053       0.0335447726     -87.5422143      0.0335447726     -87.5422143      0.999123731      1.92225053       
114.1            0.999135222      1.9057208        0.0332564308     -87.5572958      0.0332564308     -87.5572958      0.999135222      1.9057208        
114.75           0.999146497      1.88934617       0.0329707917     -87.5721671      0.0329707917     -87.5721671      0.999146497      1.88934617       
115.4            0.999157562      1.873124         0.03268781       -87.5868306      0.03268781       -87.5868306      0.999157562      1.873124         
116.05           0.999168421      1.85705175       0.0324074411     -87.6012883      0.0324074411     -87.6012883      0.999168421      1.85705175       
116.7            0.999179078      1.84112693       0.0321296417     -87.6155422      0.0321296417     -87.6155422      0.999179078      1.84112693       
117.35           0.999189539      1.82534708       0.0318543691     -87.6295944      0.0318543691     -87.6295944      0.999189539      1.82534708       
118              0.999199806      1.80970982       0.0315815818     -87.6434467      0.0315815818     -87.6434467      0.999199806      1.80970982       
118.65           0.999209884      1.79421282       0.0313112391     -87.6571009      0.0313112391     -87.6571009      0.999209884      1.79421282       
119.3            0.999219777      1.77885378       0.0310433013     -87.6705587      0.0310433013     -87.6705587      0.999219777      1.77885378       
119.95           0.999229489      1.76363048       0.0307777294     -87.683822       0.0307777294     -87.683822       0.999229489      1.76363048       
120.6            0.999239023      1.74854072       0.0305144852     -87.6968922      0.0305144852     -87.6968922      0.999239023      1.74854072       
121.25           0.999248382      1.73358237       0.0302535316     -87.7097709      0.0302535316     -87.7097709      0.999248382      1.73358237       
121.9            0.999257571      1.71875332       0.0299948321     -87.7224596      0.0299948321     -87.7224596      0.999257571      1.71875332       
122.55           0.999266593      1.70405153       0.0297383508     -87.7349598      0.0297383508     -87.7349598      0.999266593      1.70405153       
123.2            0.999275451      1.68947498       0.0294840529     -87.7472728      0.0294840529     -87.7472728      0.999275451      1.68947498       
123.85           0.999284149      1.67502172       0.029231904      -87.7593999      0.029231904      -87.7593999      0.999284149      1.67502172       
124.5            0.999292689      1.66068981       0.0289818708     -87.7713424      0.0289818708     -87.7713424      0.999292689      1.66068981       
125.15           0.999301074      1.64647737       0.0287339202     -87.7831014      0.0287339202     -87.7831014      0.999301074      1.64647737       
125.8            0.999309308      1.63238255       0.0284880203     -87.7946781      0.0284880203     -87.7946781      0.999309308      1.63238255       
126.45           0.999317394      1.61840355       0.0282441394     -87.8060735      0.0282441394     -87.8060735      0.999317394      1.61840355       
127.1            0.999325334      1.60453859       0.0280022467     -87.8172886      0.0280022467     -87.8172886      0.999325334      1.60453859       
127.75           0.999333131      1.59078593       0.027762312      -87.8283245      0.027762312      -87.8283245      0.999333131      1.59078593       
128.4            0.999340788      1.57714388       0.0275243057     -87.839182       0.0275243057     -87.839182       0.999340788      1.57714388       
129.05           0.999348307      1.56361077       0.0272881987     -87.8498619      0.0272881987     -87.8498619      0.999348307      1.56361077       
129.7            0.999355691      1.55018496       0.0270539625     -87.860365       0.0270539625     -87.860365       0.999355691      1.55018496       
130.35           0.999362943      1.53686486       0.0268215694     -87.870692       0.0268215694     -87.870692       0.999362943      1.53686486       
131              0.999370065      1.52364889       0.0265909919     -87.8808437      0.0265909919     -87.8808437      0.999370065      1.52364889       
131.65           0.999377059      1.51053552       0.0263622033     -87.8908206      0.0263622033     -87.8908206      0.999377059      1.51053552       
132.3            0.999383928      1.49752324       0.0261351773     -87.9006232      0.0261351773     -87.9006232      0.999383928      1.49752324       
132.95           0.999390674      1.48461056       0.0259098881     -87.9102522      0.0259098881     -87.9102522      0.999390674      1.48461056       
133.6            0.999397299      1.47179604       0.0256863105     -87.919708       0.0256863105     -87.919708       0.999397299      1.47179604       
134.25           0.999403806      1.45907826       0.0254644197     -87.9289909      0.0254644197     -87.9289909      0.999403806      1.45907826       
134.9            0.999410196      1.44645583       0.0252441914     -87.9381013      0.0252441914     -87.9381013      0.999410196      1.44645583       
135.55           0.999416472      1.43392736       0.0250256018     -87.9470394      0.0250256018     -87.9470394      0.999416472      1.43392736       
136.2            0.999422635      1.42149153       0.0248086275     -87.9558056      0.0248086275     -87.9558056      0.999422635      1.42149153       
136.85           0.999428688      1.40914701       0.0245932456     -87.9644         0.0245932456     -87.9644         0.999428688      1.40914701       
137.5            0.999434632      1.39689251       0.0243794335     -87.9728228      0.0243794335     -87.9728228      0.999434632      1.39689251       
138.15           0.999440469      1.38472677       0.0241671692     -87.9810739      0.0241671692     -87.9810739      0.999440469      1.38472677       
138.8            0.999446202      1.37264855       0.0239564311     -87.9891534      0.0239564311     -87.9891534      0.999446202      1.37264855       
139.45           0.999451832      1.36065661       0.0237471977     -87.9970613      0.0237471977     -87.9970613      0.999451832      1.36065661       
140.1            0.999457361      1.34874976       0.0235394484     -88.0047975      0.0235394484     -88.0047975      0.999457361      1.34874976       
140.75           0.99946279       1.33692683       0.0233331625     -88.0123619      0.0233331625     -88.0123619      0.99946279       1.33692683       
141.4            0.999468121      1.32518667       0.02312832       -88.0197541      0.02312832       -88.0197541      0.999468121      1.32518667       
142.05           0.999473356      1.31352813       0.0229249012     -88.026974       0.0229249012     -88.026974       0.999473356      1.31352813       
142.7            0.999478496      1.3019501        0.0227228865     -88.0340212      0.0227228865     -88.0340212      0.999478496      1.3019501        
143.35           0.999483543      1.2904515        0.0225222571     -88.0408954      0.0225222571     -88.0408954      0.999483543      1.2904515        
144              0.999488499      1.27903125       0.0223229942     -88.0475961      0.0223229942     -88.0475961      0.999488499      1.27903125       
144.65           0.999493365      1.2676883        0.0221250795     -88.0541228      0.0221250795     -88.0541228      0.999493365      1.2676883        
145.3            0.999498142      1.2564216        0.0219284949     -88.060475       0.0219284949     -88.060475       0.999498142      1.2564216        
145.95           0.999502832      1.24523016       0.0217332226     -88.066652       0.0217332226     -88.066652       0.999502832      1.24523016       
146.6            0.999507436      1.23411295       0.0215392455     -88.0726532      0.0215392455     -88.0726532      0.999507436      1.23411295       
147.25           0.999511956      1.22306901       0.0213465462     -88.0784778      0.0213465462     -88.0784778      0.999511956      1.22306901       
147.9            0.999516393      1.21209738       0.0211551081     -88.084125       0.0211551081     -88.084125       0.999516393      1.21209738       
148.55           0.999520748      1.20119709       0.0209649146     -88.0895939      0.0209649146     -88.0895939      0.999520748      1.20119709       
149.2            0.999525023      1.19036723       0.0207759495     -88.0948836      0.0207759495     -88.0948836      0.999525023      1.19036723       
149.85           0.999529218      1.17960688       0.020588197      -88.0999932      0.020588197      -88.0999932      0.999529218      1.17960688       
150.5            0.999533336      1.16891514       0.0204016413     -88.1049214      0.0204016413     -88.1049214      0.999533336      1.16891514       
151.15           0.999537377      1.15829113       0.020216267      -88.1096673      0.020216267      -88.1096673      0.999537377      1.15829113       
151.8            0.999541342      1.14773398       0.0200320591     -88.1142296      0.0200320591     -88.1142296      0.999541342      1.14773398       
152.45           0.999545233      1.13724283       0.0198490026     -88.1186069      0.0198490026     -88.1186069      0.999545233      1.13724283       
153.1            0.999549051      1.12681685       0.019667083      -88.122798       0.019667083      -88.122798       0.999549051      1.12681685       
153.75           0.999552797      1.11645521       0.0194862859     -88.1268014      0.0194862859     -88.1268014      0.999552797      1.11645521       
154.4            0.999556471      1.10615711       0.0193065972     -88.1306156      0.0193065972     -88.1306156      0.999556471      1.10615711       
155.05           0.999560076      1.09592173       0.0191280029     -88.134239       0.0191280029     -88.134239       0.999560076      1.09592173       
155.7            0.999563611      1.08574831       0.0189504894     -88.1376699      0.0189504894     -88.1376699      0.999563611      1.08574831       
156.35           0.999567079      1.07563607       0.0187740433     -88.1409067      0.0187740433     -88.1409067      0.999567079      1.07563607       
157              0.999570479      1.06558425       0.0185986514     -88.1439474      0.0185986514     -88.1439474      0.999570479      1.06558425       
157.65           0.999573814      1.0555921        0.0184243007     -88.1467902      0.0184243007     -88.1467902      0.999573814      1.0555921        
158.3            0.999577083      1.04565889       0.0182509784     -88.1494331      0.0182509784     -88.1494331      0.999577083      1.04565889       
158.95           0.999580289      1.03578391       0.0180786719     -88.1518738      0.0180786719     -88.1518738      0.999580289      1.03578391       
159.6            0.999583431      1.02596643       0.0179073689     -88.1541104      0.0179073689     -88.1541104      0.999583431      1.02596643       
160.25           0.999586511      1.01620577       0.0177370572     -88.1561403      0.0177370572     -88.1561403      0.999586511      1.01620577       
160.9            0.99958953       1.00650123       0.0175677248     -88.1579614      0.0175677248     -88.1579614      0.99958953       1.00650123       
161.55           0.999592488      0.996852135      0.01739936       -88.1595711      0.01739936       -88.1595711      0.999592488      0.996852135      
162.2            0.999595386      0.987257827      0.0172319512     -88.1609667      0.0172319512     -88.1609667      0.999595386      0.987257827      
162.85           0.999598226      0.977717648      0.0170654869     -88.1621456      0.0170654869     -88.1621456      0.999598226      0.977717648      
163.5            0.999601007      0.968230954      0.016899956      -88.163105       0.016899956      -88.163105       0.999601007      0.968230954      
164.15           0.999603731      0.95879711       0.0167353475     -88.1638419      0.0167353475     -88.1638419      0.999603731      0.95879711       
164.8            0.999606399      0.949415493      0.0165716503     -88.1643534      0.0165716503     -88.1643534      0.999606399      0.949415493      
165.45           0.999609012      0.940085487      0.016408854      -88.1646361      0.016408854      -88.1646361      0.999609012      0.940085487      
166.1            0.999611569      0.930806489      0.0162469478     -88.1646869      0.0162469478     -88.1646869      0.999611569      0.930806489      
166.75           0.999614072      0.921577904      0.0160859215     -88.1645023      0.0160859215     -88.1645023      0.999614072      0.921577904      
167.4            0.999616522      0.912399144      0.0159257649     -88.1640787      0.0159257649     -88.1640787      0.999616522      0.912399144      
168.05           0.999618918      0.903269633      0.0157664679     -88.1634124      0.0157664679     -88.1634124      0.999618918      0.903269633      
168.7            0.999621263      0.894188804      0.0156080205     -88.1624997      0.0156080205     -88.1624997      0.999621263      0.894188804      
169.35           0.999623557      0.885156096      0.0154504132     -88.1613364      0.0154504132     -88.1613364      0.999623557      0.885156096      
170              0.9996258        0.876170959      0.0152936363     -88.1599185      0.0152936363     -88.1599185      0.9996258        0.876170959      
170.65           0.999627992      0.86723285       0.0151376802     -88.1582416      0.0151376802     -88.1582416      0.999627992      0.86723285       
171.3            0.999630136      0.858341235      0.0149825359     -88.1563012      0.0149825359     -88.1563012      0.999630136      0.858341235      
171.95           0.99963223       0.849495588      0.014828194      -88.1540928      0.014828194      -88.1540928      0.99963223       0.849495588      
172.6            0.999634277      0.84069539       0.0146746456     -88.1516114      0.0146746456     -88.1516114      0.999634277      0.84069539       
173.25           0.999636276      0.831940132      0.0145218818     -88.148852       0.0145218818     -88.148852       0.999636276      0.831940132      
173.9            0.999638228      0.823229309      0.0143698938     -88.1458095      0.0143698938     -88.1458095      0.999638228      0.823229309      
174.55           0.999640134      0.814562428      0.014218673      -88.1424784      0.014218673      -88.1424784      0.999640134      0.814562428      
175.2            0.999641994      0.805938999      0.014068211      -88.1388531      0.014068211      -88.1388531      0.999641994      0.805938999      
175.85           0.999643809      0.797358541      0.0139184993     -88.1349277      0.0139184993     -88.1349277      0.999643809      0.797358541      
176.5            0.999645579      0.788820582      0.0137695297     -88.1306962      0.0137695297     -88.1306962      0.999645579      0.788820582      
177.15           0.999647305      0.780324653      0.0136212942     -88.1261524      0.0136212942     -88.1261524      0.999647305      0.780324653      
177.8            0.999648988      0.771870296      0.0134737846     -88.1212895      0.0134737846     -88.1212895      0.999648988      0.771870296      
178.45           0.999650628      0.763457056      0.0133269932     -88.1161008      0.0133269932     -88.1161008      0.999650628      0.763457056      
179.1            0.999652225      0.755084488      0.0131809121     -88.1105793      0.0131809121     -88.1105793      0.999652225      0.755084488      
179.75           0.99965378       0.74675215       0.0130355337     -88.1047176      0.0130355337     -88.1047176      0.99965378       0.74675215       
180.4            0.999655294      0.738459608      0.0128908504     -88.098508       0.0128908504     -88.098508       0.999655294      0.738459608      
181.05           0.999656766      0.730206436      0.0127468549     -88.0919427      0.0127468549     -88.0919427      0.999656766      0.730206436      
181.7            0.999658199      0.72199221       0.0126035397     -88.0850132      0.0126035397     -88.0850132      0.999658199      0.72199221       
182.35           0.999659591      0.713816516      0.0124608978     -88.0777111      0.0124608978     -88.0777111      0.999659591      0.713816516      
183              0.999660944      0.705678944      0.0123189219     -88.0700273      0.0123189219     -88.0700273      0.999660944      0.705678944      
183.65           0.999662257      0.69757909       0.012177605      -88.0619526      0.012177605      -88.0619526      0.999662257      0.69757909       
184.3            0.999663532      0.689516555      0.0120369403     -88.0534772      0.0120369403     -88.0534772      0.999663532      0.689516555      
184.95           0.999664769      0.681490948      0.0118969209     -88.0445912      0.0118969209     -88.0445912      0.999664769      0.681490948      
185.6            0.999665968      0.67350188       0.0117575401     -88.0352839      0.0117575401     -88.0352839      0.999665968      0.67350188       
186.25           0.99966713       0.66554897       0.0116187913     -88.0255444      0.0116187913     -88.0255444      0.99966713       0.66554897       
186.9            0.999668254      0.657631841      0.0114806679     -88.0153613      0.0114806679     -88.0153613      0.999668254      0.657631841      
187.55           0.999669343      0.649750123      0.0113431636     -88.0047227      0.0113431636     -88.0047227      0.999669343      0.649750123      
188.2            0.999670395      0.641903449      0.0112062719     -87.9936162      0.0112062719     -87.9936162      0.999670395      0.641903449      
188.85           0.999671411      0.634091457      0.0110699866     -87.9820288      0.0110699866     -87.9820288      0.999671411      0.634091457      
189.5            0.999672392      0.626313793      0.0109343016     -87.9699472      0.0109343016     -87.9699472      0.999672392      0.626313793      
190.15           0.999673339      0.618570104      0.0107992107     -87.9573571      0.0107992107     -87.9573571      0.999673339      0.618570104      
190.8            0.99967425       0.610860044      0.010664708      -87.944244       0.010664708      -87.944244       0.99967425       0.610860044      
191.45           0.999675128      0.603183271      0.0105307876     -87.9305924      0.0105307876     -87.9305924      0.999675128      0.603183271      
192.1            0.999675972      0.595539448      0.0103974436     -87.9163862      0.0103974436     -87.9163862      0.999675972      0.595539448      
192.75           0.999676782      0.587928242      0.0102646702     -87.9016088      0.0102646702     -87.9016088      0.999676782      0.587928242      
193.4            0.999677559      0.580349326      0.0101324619     -87.8862425      0.0101324619     -87.8862425      0.999677559      0.580349326      
194.05           0.999678304      0.572802375      0.010000813      -87.8702691      0.010000813      -87.8702691      0.999678304      0.572802375      
194.7            0.999679016      0.56528707       0.00986971794    -87.8536693      0.00986971794    -87.8536693      0.999679016      0.56528707       
195.35           0.999679696      0.557803095      0.00973917141    -87.8364231      0.00973917141    -87.8364231      0.999679696      0.557803095      
196              0.999680344      0.55035014       0.00960916799    -87.8185093      0.00960916799    -87.8185093      0.999680344      0.55035014       
196.65           0.999680961      0.542927898      0.00947970241    -87.7999059      0.00947970241    -87.7999059      0.999680961      0.542927898      
197.3            0.999681547      0.535536065      0.00935076945    -87.7805898      0.00935076945    -87.7805898      0.999681547      0.535536065      
197.95           0.999682102      0.528174343      0.00922236397    -87.7605367      0.00922236397    -87.7605367      0.999682102      0.528174343      
198.6            0.999682626      0.520842437      0.00909448092    -87.739721       0.00909448092    -87.739721       0.999682626      0.520842437      
199.25           0.999683121      0.513540056      0.00896711529    -87.7181162      0.00896711529    -87.7181162      0.999683121      0.513540056      
199.9            0.999683586      0.506266912      0.00884026216    -87.695694       0.00884026216    -87.695694       0.999683586      0.506266912      
200.55           0.999684021      0.499022721      0.00871391669    -87.6724248      0.00871391669    -87.6724248      0.999684021      0.499022721      
201.2            0.999684427      0.491807204      0.00858807407    -87.6482777      0.00858807407    -87.6482777      0.999684427      0.491807204      
201.85           0.999684804      0.484620084      0.0084627296     -87.6232199      0.0084627296     -87.6232199      0.999684804      0.484620084      
202.5            0.999685152      0.477461089      0.00833787862    -87.5972169      0.00833787862    -87.5972169      0.999685152      0.477461089      
203.15           0.999685472      0.470329948      0.00821351655    -87.5702324      0.00821351655    -87.5702324      0.999685472      0.470329948      
203.8            0.999685763      0.463226396      0.00808963887    -87.5422282      0.00808963887    -87.5422282      0.999685763      0.463226396      
204.45           0.999686027      0.456150171      0.00796624113    -87.5131637      0.00796624113    -87.5131637      0.999686027      0.456150171      
205.1            0.999686263      0.449101013      0.00784331894    -87.4829964      0.00784331894    -87.4829964      0.999686263      0.449101013      
205.75           0.999686472      0.442078667      0.00772086797    -87.4516812      0.00772086797    -87.4516812      0.999686472      0.442078667      
206.4            0.999686654      0.435082878      0.00759888397    -87.4191703      0.00759888397    -87.4191703      0.999686654      0.435082878      
207.05           0.999686809      0.428113399      0.00747736274    -87.3854133      0.00747736274    -87.3854133      0.999686809      0.428113399      
207.7            0.999686938      0.421169982      0.00735630015    -87.3503567      0.00735630015    -87.3503567      0.999686938      0.421169982      
208.35           0.99968704       0.414252384      0.00723569213    -87.3139439      0.00723569213    -87.3139439      0.99968704       0.414252384      
209              0.999687116      0.407360365      0.00711553468    -87.2761148      0.00711553468    -87.2761148      0.999687116      0.407360365      
209.65           0.999687166      0.400493688      0.00699582386    -87.2368056      0.00699582386    -87.2368056      0.999687166      0.400493688      
210.3            0.999687191      0.393652117      0.00687655579    -87.1959485      0.00687655579    -87.1959485      0.999687191      0.393652117      
210.95           0.99968719       0.386835422      0.00675772665    -87.1534713      0.00675772665    -87.1534713      0.99968719       0.386835422      
211.6            0.999687164      0.380043373      0.0066393327     -87.1092973      0.0066393327     -87.1092973      0.999687164      0.380043373      
212.25           0.999687113      0.373275746      0.00652137024    -87.0633445      0.00652137024    -87.0633445      0.999687113      0.373275746      
212.9            0.999687038      0.366532316      0.00640383567    -87.0155258      0.00640383567    -87.0155258      0.999687038      0.366532316      
213.55           0.999686938      0.359812863      0.00628672543    -86.9657479      0.00628672543    -86.9657479      0.999686938      0.359812863      
214.2            0.999686813      0.353117169      0.00617003602    -86.9139112      0.00617003602    -86.9139112      0.999686813      0.353117169      
214.85           0.999686665      0.34644502       0.00605376404    -86.8599089      0.00605376404    -86.8599089      0.999686665      0.34644502       
215.5            0.999686493      0.339796203      0.00593790612    -86.8036269      0.00593790612    -86.8036269      0.999686493      0.339796203      
216.15           0.999686297      0.333170507      0.00582245899    -86.7449426      0.00582245899    -86.7449426      0.999686297      0.333170507      
216.8            0.999686077      0.326567725      0.00570741944    -86.6837244      0.00570741944    -86.6837244      0.999686077      0.326567725      
217.45           0.999685835      0.319987653      0.00559278433    -86.6198306      0.00559278433    -86.6198306      0.999685835      0.319987653      
218.1            0.999685569      0.313430088      0.00547855061    -86.553109       0.00547855061    -86.553109       0.999685569      0.313430088      
218.75           0.999685281      0.306894829      0.0053647153     -86.4833951      0.0053647153     -86.4833951      0.999685281      0.306894829      
219.4            0.99968497       0.30038168       0.00525127551    -86.4105116      0.00525127551    -86.4105116      0.99968497       0.30038168       
220.05           0.999684636      0.293890443      0.00513822841    -86.3342664      0.00513822841    -86.3342664      0.999684636      0.293890443      
220.7            0.99968428       0.287420927      0.0050255713     -86.2544518      0.0050255713     -86.2544518      0.99968428       0.287420927      
221.35           0.999683902      0.28097294       0.00491330154    -86.1708424      0.00491330154    -86.1708424      0.999683902      0.28097294       
222              0.999683502      0.274546294      0.00480141662    -86.0831931      0.00480141662    -86.0831931      0.999683502      0.274546294      
222.65           0.99968308       0.268140803      0.0046899141     -85.9912373      0.0046899141     -85.9912373      0.99968308       0.268140803      
223.3            0.999682637      0.261756281      0.00457879169    -85.8946843      0.00457879169    -85.8946843      0.999682637      0.261756281      
223.95           0.999682172      0.255392547      0.0044680472     -85.7932163      0.0044680472     -85.7932163      0.999682172      0.255392547      
224.6            0.999681686      0.249049422      0.00435767857    -85.6864858      0.00435767857    -85.6864858      0.999681686      0.249049422      
225.25           0.999681179      0.242726726      0.00424768389    -85.5741112      0.00424768389    -85.5741112      0.999681179      0.242726726      
225.9            0.999680651      0.236424284      0.0041380614     -85.4556733      0.0041380614     -85.4556733      0.999680651      0.236424284      
226.55           0.999680102      0.230141923      0.00402880952    -85.3307101      0.00402880952    -85.3307101      0.999680102      0.230141923      
227.2            0.999679533      0.22387947       0.00391992684    -85.1987115      0.00391992684    -85.1987115      0.999679533      0.22387947       
227.85           0.999678943      0.217636755      0.00381141216    -85.0591125      0.00381141216    -85.0591125      0.999678943      0.217636755      
228.5            0.999678333      0.211413611      0.00370326452    -84.9112864      0.00370326452    -84.9112864      0.999678333      0.211413611      
229.15           0.999677703      0.205209871      0.00359548319    -84.7545351      0.00359548319    -84.7545351      0.999677703      0.205209871      
229.8            0.999677053      0.199025371      0.00348806776    -84.5880797      0.00348806776    -84.5880797      0.999677053      0.199025371      
230.45           0.999676383      0.192859948      0.00338101812    -84.4110479      0.00338101812    -84.4110479      0.999676383      0.192859948      
231.1            0.999675693      0.186713443      0.00327433455    -84.2224598      0.00327433455    -84.2224598      0.999675693      0.186713443      
231.75           0.999674984      0.180585697      0.00316801774    -84.0212109      0.00316801774    -84.0212109      0.999674984      0.180585697      
232.4            0.999674255      0.174476552      0.00306206887    -83.806052       0.00306206887    -83.806052       0.999674255      0.174476552      
233.05           0.999673507      0.168385853      0.00295648969    -83.575564       0.00295648969    -83.575564       0.999673507      0.168385853      
233.7            0.99967274       0.162313447      0.00285128261    -83.3281293      0.00285128261    -83.3281293      0.99967274       0.162313447      
234.35           0.999671955      0.156259182      0.00274645081    -83.0618954      0.00274645081    -83.0618954      0.999671955      0.156259182      
235              0.99967115       0.150222908      0.00264199838    -82.7747307      0.00264199838    -82.7747307      0.99967115       0.150222908      
235.65           0.999670326      0.144204476      0.0025379305     -82.4641713      0.0025379305     -82.4641713      0.999670326      0.144204476      
236.3            0.999669484      0.13820374       0.00243425364    -82.127353       0.00243425364    -82.127353       0.999669484      0.13820374       
236.95           0.999668624      0.132220554      0.00233097586    -81.7609283      0.00233097586    -81.7609283      0.999668624      0.132220554      
237.6            0.999667745      0.126254775      0.00222810712    -81.3609603      0.00222810712    -81.3609603      0.999667745      0.126254775      
238.25           0.999666848      0.120306261      0.00212565971    -80.9227887      0.00212565971    -80.9227887      0.999666848      0.120306261      
238.9            0.999665933      0.114374871      0.00202364884    -80.4408581      0.00202364884    -80.4408581      0.999665933      0.114374871      
239.55           0.999665         0.108460467      0.00192209336    -79.9084945      0.00192209336    -79.9084945      0.999665         0.108460467      
240.2            0.99966405       0.10256291       0.00182101668    -79.3176139      0.00182101668    -79.3176139      0.99966405       0.10256291       
240.85           0.999663081      0.096682065      0.0017204481     -78.6583354      0.0017204481     -78.6583354      0.999663081      0.096682065      
241.5            0.999662095      0.0908177973     0.00162042453    -77.9184627      0.00162042453    -77.9184627      0.999662095      0.0908177973     
242.15           0.999661092      0.0849699737     0.00152099283    -77.0827793      0.00152099283    -77.0827793      0.999661092      0.0849699737     
242.8            0.999660071      0.0791384627     0.00142221312    -76.1320776      0.00142221312    -76.1320776      0.999660071      0.0791384627     
243.45           0.999659033      0.0733231338     0.0013241635     -75.0417997      0.0013241635     -75.0417997      0.999659033      0.0733231338     
244.1            0.999657978      0.0675238584     0.00122694676    -73.7801069      0.00122694676    -73.7801069      0.999657978      0.0675238584     
244.75           0.999656906      0.0617405088     0.00113070039    -72.3050899      0.00113070039    -72.3050899      0.999656906      0.0617405088     
245.4            0.999655817      0.055972959      0.00103561163    -70.5606759      0.00103561163    -70.5606759      0.999655817      0.055972959      
246.05           0.999654711      0.0502210841     0.000941940689   -68.4705334      0.000941940689   -68.4705334      0.999654711      0.0502210841     
246.7            0.999653588      0.0444847606     0.000850057467   -65.9289027      0.000850057467   -65.9289027      0.999653588      0.0444847606     
247.35           0.999652449      0.0387638663     0.000760501063   -62.786786       0.000760501063   -62.786786       0.999652449      0.0387638663     
248              0.999651294      0.0330582802     0.00067407792    -58.8315913      0.00067407792    -58.8315913      0.999651294      0.0330582802     
248.65           0.999650122      0.0273678828     0.000592025024   -53.7593526      0.000592025024   -53.7593526      0.999650122      0.0273678828     
249.3            0.999648934      0.0216925556     0.000516275247   -47.1456403      0.000516275247   -47.1456403      0.999648934      0.0216925556     
249.95           0.999647729      0.0160321814     0.000449847881   -38.4477588      0.000449847881   -38.4477588      0.999647729      0.0160321814     
250.6            0.999646509      0.0103866442     0.000397249531   -27.1408455      0.000397249531   -27.1408455      0.999646509      0.0103866442     
251.25           0.999645273      0.00475582938    0.000364306133   -13.1654025      0.000364306133   -13.1654025      0.999645273      0.00475582938    
251.9            0.99964402       -0.000860376773  0.000356296228   2.41463443       0.000356296228   2.41463443       0.99964402       -0.000860376773  
252.55           0.999642752      -0.00646208663   0.000374622263   17.5149641       0.000374622263   17.5149641       0.999642752      -0.00646208663   
253.2            0.999641468      -0.0120494114    0.000415639151   30.3838683       0.000415639151   30.3838683       0.999641468      -0.0120494114    
253.85           0.999640169      -0.0176224613    0.000473332345   40.5086807       0.000473332345   40.5086807       0.999640169      -0.0176224613    
254.5            0.999638854      -0.0231813453    0.000542273751   48.2305411       0.000542273751   48.2305411       0.999638854      -0.0231813453    
255.15           0.999637524      -0.0287261713    0.000618599899   54.1146672       0.000618599899   54.1146672       0.999637524      -0.0287261713    
255.8            0.999636178      -0.034257046     0.000699798785   58.6576996       0.000699798785   58.6576996       0.999636178      -0.034257046     
256.45           0.999634818      -0.0397740751    0.000784270296   62.2289024       0.000784270296   62.2289024       0.999634818      -0.0397740751    
257.1            0.999633442      -0.0452773633    0.000870984392   65.0887744       0.000870984392   65.0887744       0.999633442      -0.0452773633    
257.75           0.999632051      -0.0507670143    0.000959262791   67.419312        0.000959262791   67.419312        0.999632051      -0.0507670143    
258.4            0.999630645      -0.0562431304    0.00104864698    69.3486719       0.00104864698    69.3486719       0.999630645      -0.0562431304    
259.05           0.999629224      -0.0617058132    0.00113881883    70.9684578       0.00113881883    70.9684578       0.999629224      -0.0617058132    
259.7            0.999627788      -0.0671551633    0.00122955222    72.3452917       0.00122955222    72.3452917       0.999627788      -0.0671551633    
260              0.999627121      -0.0696657786    0.00127157134    72.9129582       0.00127157134    72.9129582       0.999627121      -0.0696657786    
