! Coilcraft 1812CS-333 Chip Inductor				
! 31 July 2002			
# MHZ S MA R 50
!Freq             MagS11           AngS11           MagS21           AngS21           MagS12           AngS12           MagS22           AngS22
1                0.853035718      23.8767031       0.409397678      -57.5001577      0.409397678      -57.5001577      0.853035718      23.8767031       
1.1              0.872581266      22.1721924       0.381160827      -59.7632503      0.381160827      -59.7632503      0.872581266      22.1721924       
1.2              0.888590189      20.6709581       0.356120129      -61.7397988      0.356120129      -61.7397988      0.888590189      20.6709581       
1.3              0.901831798      19.34295         0.333839075      -63.4778088      0.333839075      -63.4778088      0.901831798      19.34295         
1.4              0.912887325      18.1626185       0.31393741       -65.0159011      0.31393741       -65.0159011      0.912887325      18.1626185       
1.5              0.922199203      17.1085094       0.296089211      -66.3852813      0.296089211      -66.3852813      0.922199203      17.1085094       
1.6              0.930107116      16.1626956       0.280017398      -67.6113059      0.280017398      -67.6113059      0.930107116      16.1626956       
1.7              0.936874243      15.3102083       0.265487223      -68.7147084      0.265487223      -68.7147084      0.936874243      15.3102083       
1.8              0.94270636       14.5385267       0.252299912      -69.7125546      0.252299912      -69.7125546      0.94270636       14.5385267       
1.9              0.947765821      13.8371446       0.240286928      -70.6189843      0.240286928      -70.6189843      0.947765821      13.8371446       
2                0.952181846      13.1972119       0.229305027      -71.4457901      0.229305027      -71.4457901      0.952181846      13.1972119       
2.1              0.956058145      12.6112402       0.219232077      -72.2028693      0.219232077      -72.2028693      0.956058145      12.6112402       
2.2              0.959478627      12.0728644       0.209963578      -72.8985795      0.209963578      -72.8985795      0.959478627      12.0728644       
2.3              0.962511694      11.576649        0.201409774      -73.540019       0.201409774      -73.540019       0.962511694      11.576649        
2.4              0.965213511      11.1179309       0.193493277      -74.1332506      0.193493277      -74.1332506      0.965213511      11.1179309       
2.5              0.967630509      10.6926912       0.186147097      -74.6834797      0.186147097      -74.6834797      0.967630509      10.6926912       
2.6              0.969801319      10.2974517       0.179313024      -75.195198       0.179313024      -75.195198       0.969801319      10.2974517       
2.7              0.971758281      9.92918874       0.172940285      -75.6723         0.172940285      -75.6723         0.971758281      9.92918874       
2.8              0.973528617      9.58526333       0.166984427      -76.1181771      0.166984427      -76.1181771      0.973528617      9.58526333       
2.9              0.975135374      9.26336327       0.161406395      -76.5357959      0.161406395      -76.5357959      0.975135374      9.26336327       
3                0.976598157      8.96145504       0.156171757      -76.9277613      0.156171757      -76.9277613      0.976598157      8.96145504       
3.1              0.97793373       8.67774385       0.151250055      -77.2963695      0.151250055      -77.2963695      0.97793373       8.67774385       
3.2              0.979156488      8.41064017       0.146614259      -77.6436521      0.146614259      -77.6436521      0.979156488      8.41064017       
3.3              0.980278852      8.15873172       0.142240312      -77.9714126      0.142240312      -77.9714126      0.980278852      8.15873172       
3.4              0.981311578      7.92075975       0.138106734      -78.2812574      0.138106734      -78.2812574      0.981311578      7.92075975       
3.5              0.98226402       7.69559906       0.134194298      -78.5746217      0.134194298      -78.5746217      0.98226402       7.69559906       
3.6              0.983144343      7.48224094       0.130485741      -78.8527914      0.130485741      -78.8527914      0.983144343      7.48224094       
3.7              0.983959698      7.27977867       0.126965529      -79.1169222      0.126965529      -79.1169222      0.983959698      7.27977867       
3.8              0.98471637       7.08739511       0.123619645      -79.3680553      0.123619645      -79.3680553      0.98471637       7.08739511       
3.9              0.985419901      6.90435201       0.12043541       -79.6071313      0.12043541       -79.6071313      0.985419901      6.90435201       
4                0.986075192      6.72998078       0.117401335      -79.8350018      0.117401335      -79.8350018      0.986075192      6.72998078       
4.1              0.986686591      6.56367461       0.114506978      -80.0524398      0.114506978      -80.0524398      0.986686591      6.56367461       
4.2              0.987257964      6.4048815        0.111742836      -80.2601486      0.111742836      -80.2601486      0.987257964      6.4048815        
4.3              0.987792761      6.25309829       0.109100238      -80.458769       0.109100238      -80.458769       0.987792761      6.25309829       
4.4              0.988294064      6.10786542       0.106571261      -80.6488868      0.106571261      -80.6488868      0.988294064      6.10786542       
4.5              0.988764639      5.96876232       0.104148647      -80.8310376      0.104148647      -80.8310376      0.988764639      5.96876232       
4.6              0.989206969      5.83540343       0.101825739      -81.0057129      0.101825739      -81.0057129      0.989206969      5.83540343       
4.7              0.98962329       5.70743463       0.0995964191     -81.1733641      0.0995964191     -81.1733641      0.98962329       5.70743463       
4.8              0.99001562       5.58453013       0.0974550569     -81.3344064      0.0974550569     -81.3344064      0.99001562       5.58453013       
4.9              0.990385784      5.4663897        0.0953964602     -81.4892227      0.0953964602     -81.4892227      0.990385784      5.4663897        
5                0.990735438      5.35273625       0.0934158348     -81.6381664      0.0934158348     -81.6381664      0.990735438      5.35273625       
5.1              0.99106608       5.24331363       0.0915087472     -81.7815642      0.0915087472     -81.7815642      0.99106608       5.24331363       
5.2              0.991379079      5.13788474       0.0896710912     -81.9197187      0.0896710912     -81.9197187      0.991379079      5.13788474       
5.3              0.991675677      5.03622974       0.0878990591     -82.0529103      0.0878990591     -82.0529103      0.991675677      5.03622974       
5.4              0.991957011      4.93814457       0.0861891144     -82.1813995      0.0861891144     -82.1813995      0.991957011      4.93814457       
5.5              0.992224119      4.84343955       0.0845379691     -82.3054285      0.0845379691     -82.3054285      0.992224119      4.84343955       
5.6              0.992477953      4.75193812       0.0829425616     -82.4252226      0.0829425616     -82.4252226      0.992477953      4.75193812       
5.7              0.992719384      4.66347578       0.0814000383     -82.540992       0.0814000383     -82.540992       0.992719384      4.66347578       
5.8              0.992949214      4.57789901       0.0799077357     -82.6529328      0.0799077357     -82.6529328      0.992949214      4.57789901       
5.9              0.99316818       4.49506445       0.0784631657     -82.7612279      0.0784631657     -82.7612279      0.99316818       4.49506445       
6                0.99337696       4.41483802       0.0770640006     -82.8660488      0.0770640006     -82.8660488      0.99337696       4.41483802       
6.1              0.993576181      4.33709421       0.0757080611     -82.9675557      0.0757080611     -82.9675557      0.993576181      4.33709421       
6.2              0.993766422      4.26171542       0.0743933045     -83.065899       0.0743933045     -83.065899       0.993766422      4.26171542       
6.3              0.993948216      4.1885913        0.0731178142     -83.1612195      0.0731178142     -83.1612195      0.993948216      4.1885913        
6.4              0.99412206       4.11761827       0.0718797901     -83.2536496      0.0718797901     -83.2536496      0.99412206       4.11761827       
6.5              0.994288413      4.04869894       0.0706775401     -83.3433137      0.0706775401     -83.3433137      0.994288413      4.04869894       
6.6              0.9944477        3.98174173       0.0695094719     -83.4303289      0.0695094719     -83.4303289      0.9944477        3.98174173       
6.7              0.994600318      3.91666037       0.0683740861     -83.5148052      0.0683740861     -83.5148052      0.994600318      3.91666037       
6.8              0.994746634      3.85337359       0.0672699692     -83.5968464      0.0672699692     -83.5968464      0.994746634      3.85337359       
6.9              0.994886993      3.79180471       0.0661957879     -83.6765505      0.0661957879     -83.6765505      0.994886993      3.79180471       
7                0.995021713      3.73188135       0.0651502833     -83.7540097      0.0651502833     -83.7540097      0.995021713      3.73188135       
7.1              0.995151092      3.67353512       0.0641322657     -83.8293114      0.0641322657     -83.8293114      0.995151092      3.67353512       
7.2              0.99527541       3.61670138       0.0631406104     -83.9025379      0.0631406104     -83.9025379      0.99527541       3.61670138       
7.3              0.995394927      3.56131894       0.0621742526     -83.9737673      0.0621742526     -83.9737673      0.995394927      3.56131894       
7.4              0.995509886      3.50732987       0.0612321844     -84.0430733      0.0612321844     -84.0430733      0.995509886      3.50732987       
7.5              0.995620515      3.45467927       0.0603134501     -84.1105259      0.0603134501     -84.1105259      0.995620515      3.45467927       
7.6              0.995727029      3.40331509       0.0594171435     -84.1761911      0.0594171435     -84.1761911      0.995727029      3.40331509       
7.7              0.995829629      3.35318791       0.0585424047     -84.2401319      0.0585424047     -84.2401319      0.995829629      3.35318791       
7.8              0.995928501      3.30425083       0.057688417      -84.3024077      0.057688417      -84.3024077      0.995928501      3.30425083       
7.9              0.996023825      3.25645928       0.0568544041     -84.3630752      0.0568544041     -84.3630752      0.996023825      3.25645928       
8                0.996115765      3.20977087       0.0560396281     -84.4221881      0.0560396281     -84.4221881      0.996115765      3.20977087       
8.1              0.99620448       3.16414528       0.0552433869     -84.4797973      0.0552433869     -84.4797973      0.99620448       3.16414528       
8.2              0.996290116      3.11954414       0.0544650118     -84.5359514      0.0544650118     -84.5359514      0.996290116      3.11954414       
8.3              0.996372813      3.07593088       0.0537038661     -84.5906965      0.0537038661     -84.5906965      0.996372813      3.07593088       
8.4              0.996452701      3.03327065       0.0529593427     -84.6440766      0.0529593427     -84.6440766      0.996452701      3.03327065       
8.5              0.996529906      2.99153023       0.0522308628     -84.6961334      0.0522308628     -84.6961334      0.996529906      2.99153023       
8.6              0.996604543      2.9506779        0.0515178739     -84.7469068      0.0515178739     -84.7469068      0.996604543      2.9506779        
8.7              0.996676723      2.91068341       0.0508198488     -84.7964347      0.0508198488     -84.7964347      0.996676723      2.91068341       
8.8              0.996746551      2.87151783       0.0501362835     -84.8447532      0.0501362835     -84.8447532      0.996746551      2.87151783       
8.9              0.996814127      2.83315355       0.0494666968     -84.8918968      0.0494666968     -84.8918968      0.996814127      2.83315355       
9                0.996879543      2.79556415       0.0488106282     -84.9378984      0.0488106282     -84.9378984      0.996879543      2.79556415       
9.1              0.996942888      2.75872435       0.0481676374     -84.9827894      0.0481676374     -84.9827894      0.996942888      2.75872435       
9.2              0.997004247      2.72260998       0.0475373028     -85.0265996      0.0475373028     -85.0265996      0.997004247      2.72260998       
9.3              0.9970637        2.68719786       0.0469192207     -85.0693577      0.0469192207     -85.0693577      0.9970637        2.68719786       
9.4              0.997121322      2.65246583       0.0463130046     -85.1110909      0.0463130046     -85.1110909      0.997121322      2.65246583       
9.5              0.997177185      2.61839262       0.0457182838     -85.1518252      0.0457182838     -85.1518252      0.997177185      2.61839262       
9.6              0.997231358      2.58495785       0.0451347029     -85.1915856      0.0451347029     -85.1915856      0.997231358      2.58495785       
9.7              0.997283906      2.55214196       0.0445619211     -85.2303957      0.0445619211     -85.2303957      0.997283906      2.55214196       
9.8              0.997334891      2.51992618       0.0439996112     -85.2682784      0.0439996112     -85.2682784      0.997334891      2.51992618       
9.9              0.997384372      2.48829251       0.0434474591     -85.3052552      0.0434474591     -85.3052552      0.997384372      2.48829251       
10               0.997432404      2.45722363       0.0429051632     -85.3413469      0.0429051632     -85.3413469      0.997432404      2.45722363       
10.1             0.997479042      2.42670293       0.0423724336     -85.3765734      0.0423724336     -85.3765734      0.997479042      2.42670293       
10.2             0.997524335      2.39671444       0.0418489916     -85.4109535      0.0418489916     -85.4109535      0.997524335      2.39671444       
10.3             0.997568334      2.36724277       0.0413345694     -85.4445053      0.0413345694     -85.4445053      0.997568334      2.36724277       
10.4             0.997611083      2.33827316       0.0408289093     -85.4772461      0.0408289093     -85.4772461      0.997611083      2.33827316       
10.5             0.997652628      2.30979138       0.0403317632     -85.5091925      0.0403317632     -85.5091925      0.997652628      2.30979138       
10.6             0.99769301       2.28178374       0.0398428923     -85.5403601      0.0398428923     -85.5403601      0.99769301       2.28178374       
10.7             0.99773227       2.25423706       0.0393620668     -85.5707642      0.0393620668     -85.5707642      0.99773227       2.25423706       
10.8             0.997770446      2.22713864       0.0388890652     -85.600419       0.0388890652     -85.600419       0.997770446      2.22713864       
10.9             0.997807576      2.20047623       0.0384236739     -85.6293383      0.0384236739     -85.6293383      0.997807576      2.20047623       
11               0.997843695      2.17423805       0.0379656874     -85.6575352      0.0379656874     -85.6575352      0.997843695      2.17423805       
11.1             0.997878835      2.14841272       0.037514907      -85.6850222      0.037514907      -85.6850222      0.997878835      2.14841272       
11.2             0.997913031      2.12298926       0.0370711416     -85.7118113      0.0370711416     -85.7118113      0.997913031      2.12298926       
11.3             0.997946312      2.09795709       0.0366342063     -85.7379138      0.0366342063     -85.7379138      0.997946312      2.09795709       
11.4             0.997978708      2.07330598       0.0362039229     -85.7633405      0.0362039229     -85.7633405      0.997978708      2.07330598       
11.5             0.998010247      2.04902607       0.0357801194     -85.7881019      0.0357801194     -85.7881019      0.998010247      2.04902607       
11.6             0.998040958      2.02510783       0.0353626294     -85.8122076      0.0353626294     -85.8122076      0.998040958      2.02510783       
11.7             0.998070865      2.00154206       0.0349512923     -85.835667       0.0349512923     -85.835667       0.998070865      2.00154206       
11.8             0.998099995      1.97831985       0.0345459531     -85.858489       0.0345459531     -85.858489       0.998099995      1.97831985       
11.9             0.998128371      1.9554326        0.0341464616     -85.8806821      0.0341464616     -85.8806821      0.998128371      1.9554326        
12               0.998156016      1.93287201       0.0337526728     -85.902254       0.0337526728     -85.902254       0.998156016      1.93287201       
12.1             0.998182952      1.91063002       0.0333644463     -85.9232125      0.0333644463     -85.9232125      0.998182952      1.91063002       
12.2             0.998209202      1.88869885       0.0329816465     -85.9435645      0.0329816465     -85.9435645      0.998209202      1.88869885       
12.3             0.998234784      1.86707099       0.0326041419     -85.9633169      0.0326041419     -85.9633169      0.998234784      1.86707099       
12.4             0.998259719      1.84573912       0.0322318055     -85.982476       0.0322318055     -85.982476       0.998259719      1.84573912       
12.5             0.998284026      1.82469621       0.031864514      -86.0010477      0.031864514      -86.0010477      0.998284026      1.82469621       
12.6             0.998307724      1.80393541       0.0315021483     -86.0190375      0.0315021483     -86.0190375      0.998307724      1.80393541       
12.7             0.998330829      1.7834501        0.0311445928     -86.0364508      0.0311445928     -86.0364508      0.998330829      1.7834501        
12.8             0.998353358      1.76323387       0.0307917356     -86.0532923      0.0307917356     -86.0532923      0.998353358      1.76323387       
12.9             0.998375329      1.74328049       0.0304434683     -86.0695666      0.0304434683     -86.0695666      0.998375329      1.74328049       
13               0.998396755      1.72358395       0.0300996856     -86.0852779      0.0300996856     -86.0852779      0.998396755      1.72358395       
13.1             0.998417654      1.70413839       0.0297602856     -86.1004299      0.0297602856     -86.1004299      0.998417654      1.70413839       
13.2             0.998438038      1.68493815       0.0294251694     -86.1150261      0.0294251694     -86.1150261      0.998438038      1.68493815       
13.3             0.998457923      1.66597772       0.029094241      -86.1290699      0.029094241      -86.1290699      0.998457923      1.66597772       
13.4             0.998477321      1.64725177       0.0287674073     -86.1425639      0.0287674073     -86.1425639      0.998477321      1.64725177       
13.5             0.998496246      1.62875512       0.028444578      -86.1555109      0.028444578      -86.1555109      0.998496246      1.62875512       
13.6             0.99851471       1.61048274       0.0281256654     -86.167913       0.0281256654     -86.167913       0.99851471       1.61048274       
13.7             0.998532725      1.59242975       0.0278105842     -86.1797721      0.0278105842     -86.1797721      0.998532725      1.59242975       
13.8             0.998550304      1.57459141       0.0274992518     -86.19109        0.0274992518     -86.19109        0.998550304      1.57459141       
13.9             0.998567457      1.55696311       0.0271915878     -86.201868       0.0271915878     -86.201868       0.998567457      1.55696311       
14               0.998584196      1.53954037       0.0268875141     -86.212107       0.0268875141     -86.212107       0.998584196      1.53954037       
14.1             0.99860053       1.52231885       0.0265869549     -86.221808       0.0265869549     -86.221808       0.99860053       1.52231885       
14.2             0.998616471      1.50529432       0.0262898365     -86.2309712      0.0262898365     -86.2309712      0.998616471      1.50529432       
14.3             0.998632027      1.48846266       0.0259960871     -86.239597       0.0259960871     -86.239597       0.998632027      1.48846266       
14.4             0.998647209      1.4718199        0.025705637      -86.2476851      0.025705637      -86.2476851      0.998647209      1.4718199        
14.5             0.998662026      1.45536213       0.0254184185     -86.2552353      0.0254184185     -86.2552353      0.998662026      1.45536213       
14.6             0.998676487      1.43908557       0.0251343656     -86.2622467      0.0251343656     -86.2622467      0.998676487      1.43908557       
14.7             0.9986906        1.42298655       0.0248534142     -86.2687184      0.0248534142     -86.2687184      0.9986906        1.42298655       
14.8             0.998704374      1.4070615        0.0245755018     -86.2746491      0.0245755018     -86.2746491      0.998704374      1.4070615        
14.9             0.998717816      1.39130691       0.0243005676     -86.2800373      0.0243005676     -86.2800373      0.998717816      1.39130691       
15               0.998730935      1.37571942       0.0240285527     -86.284881       0.0240285527     -86.284881       0.998730935      1.37571942       
15.1             0.998743738      1.3602957        0.0237593992     -86.2891782      0.0237593992     -86.2891782      0.998743738      1.3602957        
15.2             0.998756233      1.34503255       0.0234930512     -86.2929264      0.0234930512     -86.2929264      0.998756233      1.34503255       
15.3             0.998768426      1.32992683       0.0232294541     -86.2961228      0.0232294541     -86.2961228      0.998768426      1.32992683       
15.4             0.998780325      1.3149755        0.0229685547     -86.2987644      0.0229685547     -86.2987644      0.998780325      1.3149755        
15.5             0.998791936      1.30017558       0.022710301      -86.3008477      0.022710301      -86.3008477      0.998791936      1.30017558       
15.6             0.998803266      1.28552417       0.0224546427     -86.3023693      0.0224546427     -86.3023693      0.998803266      1.28552417       
15.7             0.998814321      1.27101845       0.0222015306     -86.3033249      0.0222015306     -86.3033249      0.998814321      1.27101845       
15.8             0.998825106      1.25665568       0.0219509165     -86.3037104      0.0219509165     -86.3037104      0.998825106      1.25665568       
15.9             0.998835629      1.24243315       0.0217027538     -86.3035212      0.0217027538     -86.3035212      0.998835629      1.24243315       
16               0.998845894      1.22834827       0.0214569969     -86.3027521      0.0214569969     -86.3027521      0.998845894      1.22834827       
16.1             0.998855908      1.21439847       0.0212136012     -86.301398       0.0212136012     -86.301398       0.998855908      1.21439847       
16.2             0.998865675      1.20058128       0.0209725235     -86.2994533      0.0209725235     -86.2994533      0.998865675      1.20058128       
16.3             0.998875201      1.18689425       0.0207337214     -86.2969118      0.0207337214     -86.2969118      0.998875201      1.18689425       
16.4             0.998884491      1.17333502       0.0204971535     -86.2937674      0.0204971535     -86.2937674      0.998884491      1.17333502       
16.5             0.99889355       1.15990129       0.0202627797     -86.2900131      0.0202627797     -86.2900131      0.99889355       1.15990129       
16.6             0.998902382      1.14659078       0.0200305607     -86.2856421      0.0200305607     -86.2856421      0.998902382      1.14659078       
16.7             0.998910993      1.1334013        0.019800458      -86.2806467      0.019800458      -86.2806467      0.998910993      1.1334013        
16.8             0.998919386      1.12033071       0.0195724342     -86.2750191      0.0195724342     -86.2750191      0.998919386      1.12033071       
16.9             0.998927567      1.10737689       0.0193464527     -86.2687511      0.0193464527     -86.2687511      0.998927567      1.10737689       
17               0.998935539      1.0945378        0.0191224779     -86.2618338      0.0191224779     -86.2618338      0.998935539      1.0945378        
17.1             0.998943307      1.08181144       0.0189004748     -86.2542584      0.0189004748     -86.2542584      0.998943307      1.08181144       
17.2             0.998950875      1.06919585       0.0186804094     -86.246015       0.0186804094     -86.246015       0.998950875      1.06919585       
17.3             0.998958246      1.05668911       0.0184622485     -86.2370938      0.0184622485     -86.2370938      0.998958246      1.05668911       
17.4             0.998965425      1.04428936       0.0182459596     -86.2274842      0.0182459596     -86.2274842      0.998965425      1.04428936       
17.5             0.998972415      1.03199479       0.0180315108     -86.2171753      0.0180315108     -86.2171753      0.998972415      1.03199479       
17.6             0.998979219      1.01980359       0.0178188713     -86.2061556      0.0178188713     -86.2061556      0.998979219      1.01980359       
17.7             0.998985842      1.00771403       0.0176080106     -86.194413       0.0176080106     -86.194413       0.998985842      1.00771403       
17.8             0.998992287      0.995724401      0.0173988991     -86.1819351      0.0173988991     -86.1819351      0.998992287      0.995724401      
17.9             0.998998556      0.983833041      0.0171915079     -86.1687088      0.0171915079     -86.1687088      0.998998556      0.983833041      
18               0.999004654      0.972038319      0.0169858086     -86.1547204      0.0169858086     -86.1547204      0.999004654      0.972038319      
18.1             0.999010583      0.960338639      0.0167817735     -86.1399556      0.0167817735     -86.1399556      0.999010583      0.960338639      
18.2             0.999016347      0.948732445      0.0165793756     -86.1243996      0.0165793756     -86.1243996      0.999016347      0.948732445      
18.3             0.999021948      0.93721821       0.0163785885     -86.1080368      0.0163785885     -86.1080368      0.999021948      0.93721821       
18.4             0.99902739       0.925794442      0.0161793861     -86.090851       0.0161793861     -86.090851       0.99902739       0.925794442      
18.5             0.999032675      0.914459682      0.0159817432     -86.0728254      0.0159817432     -86.0728254      0.999032675      0.914459682      
18.6             0.999037806      0.903212502      0.015785635      -86.0539424      0.015785635      -86.0539424      0.999037806      0.903212502      
18.7             0.999042786      0.892051503      0.0155910372     -86.0341835      0.0155910372     -86.0341835      0.999042786      0.892051503      
18.8             0.999047617      0.880975318      0.0153979262     -86.0135296      0.0153979262     -86.0135296      0.999047617      0.880975318      
18.9             0.999052302      0.869982605      0.0152062788     -85.9919607      0.0152062788     -85.9919607      0.999052302      0.869982605      
19               0.999056843      0.859072055      0.0150160722     -85.9694561      0.0150160722     -85.9694561      0.999056843      0.859072055      
19.1             0.999061243      0.848242383      0.0148272842     -85.945994       0.0148272842     -85.945994       0.999061243      0.848242383      
19.2             0.999065504      0.837492332      0.0146398931     -85.9215517      0.0146398931     -85.9215517      0.999065504      0.837492332      
19.3             0.999069629      0.826820671      0.0144538776     -85.8961056      0.0144538776     -85.8961056      0.999069629      0.826820671      
19.4             0.99907362       0.816226193      0.0142692168     -85.8696311      0.0142692168     -85.8696311      0.99907362       0.816226193      
19.5             0.999077479      0.805707717      0.0140858904     -85.8421025      0.0140858904     -85.8421025      0.999077479      0.805707717      
19.6             0.999081207      0.795264086      0.0139038784     -85.8134929      0.0139038784     -85.8134929      0.999081207      0.795264086      
19.7             0.999084808      0.784894166      0.0137231612     -85.7837743      0.0137231612     -85.7837743      0.999084808      0.784894166      
19.8             0.999088284      0.774596845      0.0135437198     -85.7529175      0.0135437198     -85.7529175      0.999088284      0.774596845      
19.9             0.999091635      0.764371036      0.0133655353     -85.720892       0.0133655353     -85.720892       0.999091635      0.764371036      
20               0.999094865      0.754215671      0.0131885894     -85.6876659      0.0131885894     -85.6876659      0.999094865      0.754215671      
20.1             0.999097975      0.744129703      0.0130128642     -85.653206       0.0130128642     -85.653206       0.999097975      0.744129703      
20.2             0.999100967      0.734112109      0.012838342      -85.6174774      0.012838342      -85.6174774      0.999100967      0.734112109      
20.3             0.999103843      0.724161882      0.0126650057     -85.5804439      0.0126650057     -85.5804439      0.999103843      0.724161882      
20.4             0.999106604      0.714278038      0.0124928383     -85.5420673      0.0124928383     -85.5420673      0.999106604      0.714278038      
20.5             0.999109253      0.70445961       0.0123218234     -85.5023081      0.0123218234     -85.5023081      0.999109253      0.70445961       
20.6             0.99911179       0.694705651      0.0121519447     -85.4611245      0.0121519447     -85.4611245      0.99911179       0.694705651      
20.7             0.999114219      0.68501523       0.0119831865     -85.4184732      0.0119831865     -85.4184732      0.999114219      0.68501523       
20.8             0.999116539      0.675387438      0.0118155331     -85.3743085      0.0118155331     -85.3743085      0.999116539      0.675387438      
20.9             0.999118754      0.66582138       0.0116489695     -85.3285829      0.0116489695     -85.3285829      0.999118754      0.66582138       
21               0.999120863      0.656316178      0.0114834807     -85.2812463      0.0114834807     -85.2812463      0.999120863      0.656316178      
21.1             0.99912287       0.646870973      0.0113190521     -85.2322463      0.0113190521     -85.2322463      0.99912287       0.646870973      
21.2             0.999124775      0.637484919      0.0111556695     -85.1815282      0.0111556695     -85.1815282      0.999124775      0.637484919      
21.3             0.99912658       0.62815719       0.010993319      -85.1290342      0.010993319      -85.1290342      0.99912658       0.62815719       
21.4             0.999128286      0.618886971      0.0108319868     -85.0747039      0.0108319868     -85.0747039      0.999128286      0.618886971      
21.5             0.999129895      0.609673465      0.0106716596     -85.0184739      0.0106716596     -85.0184739      0.999129895      0.609673465      
21.6             0.999131408      0.600515888      0.0105123243     -84.9602775      0.0105123243     -84.9602775      0.999131408      0.600515888      
21.7             0.999132826      0.591413473      0.0103539681     -84.9000446      0.0103539681     -84.9000446      0.999132826      0.591413473      
21.8             0.99913415       0.582365463      0.0101965784     -84.8377015      0.0101965784     -84.8377015      0.99913415       0.582365463      
21.9             0.999135382      0.573371119      0.010040143      -84.7731707      0.010040143      -84.7731707      0.999135382      0.573371119      
22               0.999136524      0.564429713      0.00988464985    -84.7063706      0.00988464985    -84.7063706      0.999136524      0.564429713      
22.1             0.999137575      0.55554053       0.00973008726    -84.6372152      0.00973008726    -84.6372152      0.999137575      0.55554053       
22.2             0.999138538      0.546702869      0.00957644375    -84.5656138      0.00957644375    -84.5656138      0.999138538      0.546702869      
22.3             0.999139414      0.537916041      0.00942370813    -84.4914709      0.00942370813    -84.4914709      0.999139414      0.537916041      
22.4             0.999140203      0.52917937       0.00927186945    -84.4146857      0.00927186945    -84.4146857      0.999140203      0.52917937       
22.5             0.999140908      0.52049219       0.00912091703    -84.3351515      0.00912091703    -84.3351515      0.999140908      0.52049219       
22.6             0.999141528      0.51185385       0.00897084045    -84.2527559      0.00897084045    -84.2527559      0.999141528      0.51185385       
22.7             0.999142065      0.503263707      0.00882162953    -84.1673798      0.00882162953    -84.1673798      0.999142065      0.503263707      
22.8             0.99914252       0.494721131      0.00867327437    -84.0788972      0.00867327437    -84.0788972      0.99914252       0.494721131      
22.9             0.999142894      0.486225504      0.0085257653     -83.9871749      0.0085257653     -83.9871749      0.999142894      0.486225504      
23               0.999143188      0.477776216      0.00837909293    -83.8920713      0.00837909293    -83.8920713      0.999143188      0.477776216      
23.1             0.999143403      0.46937267       0.00823324811    -83.7934365      0.00823324811    -83.7934365      0.999143403      0.46937267       
23.2             0.99914354       0.461014278      0.00808822196    -83.6911114      0.00808822196    -83.6911114      0.99914354       0.461014278      
23.3             0.9991436        0.452700463      0.00794400587    -83.5849269      0.00794400587    -83.5849269      0.9991436        0.452700463      
23.4             0.999143584      0.444430657      0.00780059148    -83.474703       0.00780059148    -83.474703       0.999143584      0.444430657      
23.5             0.999143492      0.436204302      0.0076579707     -83.3602485      0.0076579707     -83.3602485      0.999143492      0.436204302      
23.6             0.999143327      0.428020849      0.00751613572    -83.2413595      0.00751613572    -83.2413595      0.999143327      0.428020849      
23.7             0.999143087      0.419879759      0.007375079      -83.1178185      0.007375079      -83.1178185      0.999143087      0.419879759      
23.8             0.999142775      0.411780502      0.00723479332    -82.9893936      0.00723479332    -82.9893936      0.999142775      0.411780502      
23.9             0.999142391      0.403722556      0.0070952717     -82.8558368      0.0070952717     -82.8558368      0.999142391      0.403722556      
24               0.999141936      0.395705409      0.0069565075     -82.716883       0.0069565075     -82.716883       0.999141936      0.395705409      
24.1             0.99914141       0.387728555      0.00681849438    -82.5722485      0.00681849438    -82.5722485      0.99914141       0.387728555      
24.2             0.999140815      0.379791501      0.00668122632    -82.4216288      0.00668122632    -82.4216288      0.999140815      0.379791501      
24.3             0.999140152      0.371893756      0.00654469766    -82.2646977      0.00654469766    -82.2646977      0.999140152      0.371893756      
24.4             0.99913942       0.364034843      0.00640890306    -82.1011042      0.00640890306    -82.1011042      0.99913942       0.364034843      
24.5             0.999138621      0.356214288      0.00627383758    -81.930471       0.00627383758    -81.930471       0.999138621      0.356214288      
24.6             0.999137756      0.348431628      0.00613949664    -81.7523919      0.00613949664    -81.7523919      0.999137756      0.348431628      
24.7             0.999136825      0.340686406      0.0060058761     -81.5664286      0.0060058761     -81.5664286      0.999136825      0.340686406      
24.8             0.999135829      0.332978172      0.00587297224    -81.3721077      0.00587297224    -81.3721077      0.999135829      0.332978172      
24.9             0.999134768      0.325306484      0.00574078183    -81.1689176      0.00574078183    -81.1689176      0.999134768      0.325306484      
25               0.999133644      0.317670907      0.0056093021     -80.9563038      0.0056093021     -80.9563038      0.999133644      0.317670907      
25.1             0.999132456      0.310071013      0.00547853086    -80.7336653      0.00547853086    -80.7336653      0.999132456      0.310071013      
25.2             0.999131206      0.302506381      0.00534846647    -80.5003488      0.00534846647    -80.5003488      0.999131206      0.302506381      
25.3             0.999129894      0.294976594      0.00521910794    -80.2556439      0.00521910794    -80.2556439      0.999129894      0.294976594      
25.4             0.999128521      0.287481247      0.00509045495    -79.9987759      0.00509045495    -79.9987759      0.999128521      0.287481247      
25.5             0.999127088      0.280019935      0.00496250795    -79.7288993      0.00496250795    -79.7288993      0.999127088      0.280019935      
25.6             0.999125594      0.272592265      0.00483526818    -79.4450892      0.00483526818    -79.4450892      0.999125594      0.272592265      
25.7             0.999124041      0.265197846      0.00470873782    -79.1463322      0.00470873782    -79.1463322      0.999124041      0.265197846      
25.8             0.999122429      0.257836296      0.00458292002    -78.8315154      0.00458292002    -78.8315154      0.999122429      0.257836296      
25.9             0.999120759      0.250507236      0.00445781907    -78.4994148      0.00445781907    -78.4994148      0.999120759      0.250507236      
26               0.999119031      0.243210295      0.00433344048    -78.1486809      0.00433344048    -78.1486809      0.999119031      0.243210295      
26.1             0.999117246      0.235945108      0.00420979119    -77.7778225      0.00420979119    -77.7778225      0.999117246      0.235945108      
26.2             0.999115404      0.228711313      0.00408687965    -77.3851889      0.00408687965    -77.3851889      0.999115404      0.228711313      
26.3             0.999113506      0.221508556      0.00396471611    -76.9689478      0.00396471611    -76.9689478      0.999113506      0.221508556      
26.4             0.999111552      0.214336487      0.00384331283    -76.5270605      0.00384331283    -76.5270605      0.999111552      0.214336487      
26.5             0.999109544      0.207194763      0.00372268434    -76.0572536      0.00372268434    -76.0572536      0.999109544      0.207194763      
26.6             0.999107481      0.200083043      0.00360284776    -75.5569847      0.00360284776    -75.5569847      0.999107481      0.200083043      
26.7             0.999105363      0.193000995      0.00348382324    -75.0234036      0.00348382324    -75.0234036      0.999105363      0.193000995      
26.8             0.999103192      0.185948288      0.00336563435    -74.4533056      0.00336563435    -74.4533056      0.999103192      0.185948288      
26.9             0.999100968      0.1789246        0.00324830868    -73.8430779      0.00324830868    -73.8430779      0.999100968      0.1789246        
27               0.999098691      0.17192961       0.00313187844    -73.1886352      0.00313187844    -73.1886352      0.999098691      0.17192961       
27.1             0.999096362      0.164963004      0.00301638131    -72.4853448      0.00301638131    -72.4853448      0.999096362      0.164963004      
27.2             0.999093981      0.158024472      0.0029018613     -71.7279368      0.0029018613     -71.7279368      0.999093981      0.158024472      
27.3             0.999091549      0.151113709      0.00278836998    -70.9103989      0.00278836998    -70.9103989      0.999091549      0.151113709      
27.4             0.999089065      0.144230413      0.00267596777    -70.0258506      0.00267596777    -70.0258506      0.999089065      0.144230413      
27.5             0.999086531      0.137374289      0.0025647257     -69.0663946      0.0025647257     -69.0663946      0.999086531      0.137374289      
27.6             0.999083948      0.130545043      0.00245472746    -68.0229409      0.00245472746    -68.0229409      0.999083948      0.130545043      
27.7             0.999081314      0.123742387      0.00234607192    -66.884998       0.00234607192    -66.884998       0.999081314      0.123742387      
27.8             0.999078631      0.116966039      0.00223887626    -65.6404296      0.00223887626    -65.6404296      0.999078631      0.116966039      
27.9             0.999075899      0.110215717      0.00213327985    -64.2751691      0.00213327985    -64.2751691      0.999075899      0.110215717      
28               0.999073119      0.103491146      0.00202944898    -62.772894       0.00202944898    -62.772894       0.999073119      0.103491146      
28.1             0.999070291      0.0967920549     0.00192758278    -61.1146603      0.00192758278    -61.1146603      0.999070291      0.0967920549     
28.2             0.999067414      0.0901181743     0.00182792043    -59.2785094      0.00182792043    -59.2785094      0.999067414      0.0901181743     
28.3             0.999064491      0.0834692405     0.00173075002    -57.2390725      0.00173075002    -57.2390725      0.999064491      0.0834692405     
28.4             0.99906152       0.0768449929     0.00163641923    -54.9672269      0.00163641923    -54.9672269      0.99906152       0.0768449929     
28.5             0.999058503      0.0702451745     0.00154534792    -52.429897       0.00154534792    -52.429897       0.999058503      0.0702451745     
28.6             0.99905544       0.0636695322     0.00145804265    -49.5901649      0.00145804265    -49.5901649      0.99905544       0.0636695322     
28.7             0.99905233       0.057117816      0.00137511214    -46.4079483      0.00137511214    -46.4079483      0.99905233       0.057117816      
28.8             0.999049175      0.0505897797     0.00129728233    -42.8416302      0.00129728233    -42.8416302      0.999049175      0.0505897797     
28.9             0.999045975      0.0440851805     0.0012254076     -38.8511552      0.0012254076     -38.8511552      0.999045975      0.0440851805     
29               0.99904273       0.0376037788     0.00116047254    -34.4031561      0.00116047254    -34.4031561      0.99904273       0.0376037788     
29.1             0.99903944       0.0311453383     0.00110357632    -29.4785004      0.00110357632    -29.4785004      0.99903944       0.0311453383     
29.2             0.999036106      0.0247096261     0.00105588922    -24.0819832      0.00105588922    -24.0819832      0.999036106      0.0247096261     
29.3             0.999032727      0.0182964123     0.00101857301    -18.2525793      0.00101857301    -18.2525793      0.999032727      0.0182964123     
29.4             0.999029306      0.0119054703     0.00099266431    -12.0709046      0.00099266431    -12.0709046      0.999029306      0.0119054703     
29.5             0.99902584       0.00553657641    0.000978936059   -5.65939652      0.000978936059   -5.65939652      0.99902584       0.00553657641    
29.6             0.999022332      -0.00081048991   0.000977770361   0.828134851      0.000977770361   0.828134851      0.999022332      -0.00081048991   
29.7             0.999018781      -0.00713594628   0.000989084273   7.2267673        0.000989084273   7.2267673        0.999018781      -0.00713594628   
29.8             0.999015187      -0.0134400074    0.00101233716    13.3845449       0.00101233716    13.3845449       0.999015187      -0.0134400074    
29.9             0.999011551      -0.0197228851    0.00104661726    19.1821186       0.00104661726    19.1821186       0.999011551      -0.0197228851    
30               0.999007873      -0.0259847883    0.00109077569    24.5423103       0.00109077569    24.5423103       0.999007873      -0.0259847883    
30.1             0.999004154      -0.0322259232    0.00114356573    29.4291965       0.00114356573    29.4291965       0.999004154      -0.0322259232    
30.2             0.999000393      -0.0384464933    0.00120375614    33.8402663       0.00120375614    33.8402663       0.999000393      -0.0384464933    
30.3             0.998996591      -0.0446466994    0.00127020565    37.7961146       0.00127020565    37.7961146       0.998996591      -0.0446466994    
30.4             0.998992748      -0.0508267397    0.00134190124    41.330883        0.00134190124    41.330883        0.998992748      -0.0508267397    
30.5             0.998988865      -0.0569868096    0.00141796961    44.4849084       0.00141796961    44.4849084       0.998988865      -0.0569868096    
30.6             0.998984941      -0.063127102     0.0014976722     47.2997761       0.0014976722     47.2997761       0.998984941      -0.063127102     
30.7             0.998980977      -0.0692478076    0.00158039171    49.8153614       0.00158039171    49.8153614       0.998980977      -0.0692478076    
30.8             0.998976974      -0.0753491142    0.00166561565    52.0682924       0.00166561565    52.0682924       0.998976974      -0.0753491142    
30.9             0.99897293       -0.0814312074    0.00175291983    54.0913294       0.00175291983    54.0913294       0.99897293       -0.0814312074    
31               0.998968848      -0.0874942703    0.00184195325    55.9132873       0.00184195325    55.9132873       0.998968848      -0.0874942703    
31.1             0.998964726      -0.0935384837    0.00193242512    57.5592502       0.00193242512    57.5592502       0.998964726      -0.0935384837    
31.2             0.998960565      -0.0995640261    0.0020240939     59.050923        0.0020240939     59.050923        0.998960565      -0.0995640261    
31.3             0.998956366      -0.105571074     0.0021167583     60.4070272       0.0021167583     60.4070272       0.998956366      -0.105571074     
31.4             0.998952128      -0.1115598       0.00221024992    61.6436937       0.00221024992    61.6436937       0.998952128      -0.1115598       
31.5             0.998947852      -0.117530378     0.00230442733    62.7748243       0.00230442733    62.7748243       0.998947852      -0.117530378     
31.6             0.998943538      -0.123482975     0.00239917124    63.8124153       0.00239917124    63.8124153       0.998943538      -0.123482975     
31.7             0.998939187      -0.129417761     0.00249438062    64.7668382       0.00249438062    64.7668382       0.998939187      -0.129417761     
31.8             0.998934797      -0.135334899     0.00258996953    65.6470817       0.00258996953    65.6470817       0.998934797      -0.135334899     
31.9             0.998930371      -0.141234553     0.00268586464    66.4609563       0.00268586464    66.4609563       0.998930371      -0.141234553     
32               0.998925907      -0.147116885     0.00278200304    67.2152685       0.00278200304    67.2152685       0.998925907      -0.147116885     
32.1             0.998921406      -0.152982054     0.00287833068    67.9159678       0.00287833068    67.9159678       0.998921406      -0.152982054     
32.2             0.998916869      -0.158830216     0.00297480086    68.5682699       0.00297480086    68.5682699       0.998916869      -0.158830216     
32.3             0.998912295      -0.164661526     0.00307137316    69.1767613       0.00307137316    69.1767613       0.998912295      -0.164661526     
32.4             0.998907684      -0.170476139     0.00316801249    69.7454873       0.00316801249    69.7454873       0.998907684      -0.170476139     
32.5             0.998903038      -0.176274206     0.00326468827    70.2780264       0.00326468827    70.2780264       0.998903038      -0.176274206     
32.6             0.998898355      -0.182055876     0.00336137379    70.7775535       0.00336137379    70.7775535       0.998898355      -0.182055876     
32.7             0.998893637      -0.187821296     0.00345804571    71.246893        0.00345804571    71.246893        0.998893637      -0.187821296     
32.8             0.998888883      -0.193570613     0.00355468352    71.6885649       0.00355468352    71.6885649       0.998888883      -0.193570613     
32.9             0.998884094      -0.199303971     0.00365126922    72.1048231       0.00365126922    72.1048231       0.998884094      -0.199303971     
33               0.998879269      -0.205021512     0.00374778696    72.497689        0.00374778696    72.497689        0.998879269      -0.205021512     
33.1             0.99887441       -0.210723377     0.00384422276    72.8689801       0.00384422276    72.8689801       0.99887441       -0.210723377     
33.2             0.998869516      -0.216409705     0.0039405643     73.220334        0.0039405643     73.220334        0.998869516      -0.216409705     
33.3             0.998864586      -0.222080633     0.00403680068    73.5532301       0.00403680068    73.5532301       0.998864586      -0.222080633     
33.4             0.998859623      -0.227736296     0.00413292227    73.8690079       0.00413292227    73.8690079       0.998859623      -0.227736296     
33.5             0.998854625      -0.23337683      0.00422892055    74.1688825       0.00422892055    74.1688825       0.998854625      -0.23337683      
33.6             0.998849592      -0.239002365     0.00432478797    74.4539586       0.00432478797    74.4539586       0.998849592      -0.239002365     
33.7             0.998844526      -0.244613033     0.00442051787    74.7252427       0.00442051787    74.7252427       0.998844526      -0.244613033     
33.8             0.998839426      -0.250208963     0.00451610435    74.9836533       0.00451610435    74.9836533       0.998839426      -0.250208963     
33.9             0.998834292      -0.255790283     0.00461154218    75.2300306       0.00461154218    75.2300306       0.998834292      -0.255790283     
34               0.998829124      -0.261357119     0.00470682678    75.4651441       0.00470682678    75.4651441       0.998829124      -0.261357119     
34.1             0.998823923      -0.266909596     0.00480195407    75.6897          0.00480195407    75.6897          0.998823923      -0.266909596     
34.2             0.998818689      -0.272447838     0.00489692048    75.9043475       0.00489692048    75.9043475       0.998818689      -0.272447838     
34.3             0.998813422      -0.277971965     0.00499172288    76.1096843       0.00499172288    76.1096843       0.998813422      -0.277971965     
34.4             0.998808122      -0.283482098     0.00508635853    76.3062616       0.00508635853    76.3062616       0.998808122      -0.283482098     
34.5             0.998802788      -0.288978357     0.00518082502    76.4945885       0.00518082502    76.4945885       0.998802788      -0.288978357     
34.6             0.998797423      -0.294460859     0.00527512028    76.6751357       0.00527512028    76.6751357       0.998797423      -0.294460859     
34.7             0.998792024      -0.29992972      0.00536924253    76.8483394       0.00536924253    76.8483394       0.998792024      -0.29992972      
34.8             0.998786593      -0.305385056     0.00546319022    77.014604        0.00546319022    77.014604        0.998786593      -0.305385056     
34.9             0.99878113       -0.310826979     0.00555696206    77.1743051       0.00555696206    77.1743051       0.99878113       -0.310826979     
35               0.998775635      -0.316255603     0.00565055696    77.3277919       0.00565055696    77.3277919       0.998775635      -0.316255603     
35.1             0.998770108      -0.321671037     0.00574397401    77.4753897       0.00574397401    77.4753897       0.998770108      -0.321671037     
35.2             0.998764549      -0.327073393     0.00583721249    77.6174014       0.00583721249    77.6174014       0.998764549      -0.327073393     
35.3             0.998758958      -0.332462778     0.00593027184    77.75411         0.00593027184    77.75411         0.998758958      -0.332462778     
35.4             0.998753336      -0.337839299     0.00602315162    77.8857797       0.00602315162    77.8857797       0.998753336      -0.337839299     
35.5             0.998747682      -0.343203064     0.00611585154    78.0126577       0.00611585154    78.0126577       0.998747682      -0.343203064     
35.6             0.998741997      -0.348554175     0.00620837141    78.1349753       0.00620837141    78.1349753       0.998741997      -0.348554175     
35.7             0.998736281      -0.353892739     0.00630071117    78.2529494       0.00630071117    78.2529494       0.998736281      -0.353892739     
35.8             0.998730533      -0.359218856     0.00639287083    78.3667835       0.00639287083    78.3667835       0.998730533      -0.359218856     
35.9             0.998724755      -0.364532628     0.00648485052    78.4766686       0.00648485052    78.4766686       0.998724755      -0.364532628     
36               0.998718945      -0.369834155     0.00657665041    78.5827844       0.00657665041    78.5827844       0.998718945      -0.369834155     
36.1             0.998713105      -0.375123537     0.00666827079    78.6852998       0.00666827079    78.6852998       0.998713105      -0.375123537     
36.2             0.998707235      -0.380400872     0.00675971198    78.7843738       0.00675971198    78.7843738       0.998707235      -0.380400872     
36.3             0.998701333      -0.385666256     0.00685097439    78.8801564       0.00685097439    78.8801564       0.998701333      -0.385666256     
36.4             0.998695402      -0.390919785     0.00694205845    78.9727891       0.00694205845    78.9727891       0.998695402      -0.390919785     
36.5             0.99868944       -0.396161555     0.00703296468    79.0624052       0.00703296468    79.0624052       0.99868944       -0.396161555     
36.6             0.998683448      -0.401391658     0.00712369363    79.149131        0.00712369363    79.149131        0.998683448      -0.401391658     
36.7             0.998677426      -0.406610188     0.00721424587    79.2330857       0.00721424587    79.2330857       0.998677426      -0.406610188     
36.8             0.998671373      -0.411817237     0.00730462204    79.3143822       0.00730462204    79.3143822       0.998671373      -0.411817237     
36.9             0.998665291      -0.417012894     0.00739482281    79.3931272       0.00739482281    79.3931272       0.998665291      -0.417012894     
37               0.99865918       -0.422197251     0.00748484886    79.4694219       0.00748484886    79.4694219       0.99865918       -0.422197251     
37.1             0.998653038      -0.427370395     0.00757470093    79.5433625       0.00757470093    79.5433625       0.998653038      -0.427370395     
37.2             0.998646867      -0.432532414     0.00766437976    79.61504         0.00766437976    79.61504         0.998646867      -0.432532414     
37.3             0.998640667      -0.437683396     0.00775388611    79.6845408       0.00775388611    79.6845408       0.998640667      -0.437683396     
37.4             0.998634437      -0.442823426     0.0078432208     79.7519471       0.0078432208     79.7519471       0.998634437      -0.442823426     
37.5             0.998628179      -0.447952589     0.00793238462    79.817337        0.00793238462    79.817337        0.998628179      -0.447952589     
37.6             0.99862189       -0.45307097      0.00802137841    79.8807849       0.00802137841    79.8807849       0.99862189       -0.45307097      
37.7             0.998615573      -0.458178651     0.00811020302    79.9423614       0.00811020302    79.9423614       0.998615573      -0.458178651     
37.8             0.998609227      -0.463275714     0.0081988593     80.002134        0.0081988593     80.002134        0.998609227      -0.463275714     
37.9             0.998602852      -0.468362242     0.00828734812    80.0601669       0.00828734812    80.0601669       0.998602852      -0.468362242     
38               0.998596449      -0.473438315     0.00837567037    80.1165212       0.00837567037    80.1165212       0.998596449      -0.473438315     
38.1             0.998590016      -0.478504013     0.00846382694    80.1712553       0.00846382694    80.1712553       0.998590016      -0.478504013     
38.2             0.998583555      -0.483559414     0.00855181873    80.224425        0.00855181873    80.224425        0.998583555      -0.483559414     
38.3             0.998577066      -0.488604596     0.00863964664    80.2760836       0.00863964664    80.2760836       0.998577066      -0.488604596     
38.4             0.998570548      -0.493639637     0.00872731159    80.3262818       0.00872731159    80.3262818       0.998570548      -0.493639637     
38.5             0.998564002      -0.498664614     0.0088148145     80.3750683       0.0088148145     80.3750683       0.998564002      -0.498664614     
38.6             0.998557428      -0.503679601     0.00890215629    80.4224897       0.00890215629    80.4224897       0.998557428      -0.503679601     
38.7             0.998550825      -0.508684673     0.00898933789    80.4685903       0.00898933789    80.4685903       0.998550825      -0.508684673     
38.8             0.998544195      -0.513679906     0.00907636022    80.513413        0.00907636022    80.513413        0.998544195      -0.513679906     
38.9             0.998537536      -0.518665371     0.00916322422    80.5569983       0.00916322422    80.5569983       0.998537536      -0.518665371     
39               0.99853085       -0.523641142     0.00924993082    80.5993855       0.00924993082    80.5993855       0.99853085       -0.523641142     
39.1             0.998524135      -0.528607291     0.00933648096    80.6406121       0.00933648096    80.6406121       0.998524135      -0.528607291     
39.2             0.998517394      -0.533563887     0.00942287556    80.6807139       0.00942287556    80.6807139       0.998517394      -0.533563887     
39.3             0.998510624      -0.538511003     0.00950911557    80.7197255       0.00950911557    80.7197255       0.998510624      -0.538511003     
39.4             0.998503827      -0.543448707     0.00959520192    80.75768         0.00959520192    80.75768         0.998503827      -0.543448707     
39.5             0.998497002      -0.548377068     0.00968113554    80.7946093       0.00968113554    80.7946093       0.998497002      -0.548377068     
39.6             0.99849015       -0.553296154     0.00976691735    80.8305437       0.00976691735    80.8305437       0.99849015       -0.553296154     
39.7             0.998483271      -0.558206034     0.0098525483     80.8655128       0.0098525483     80.8655128       0.998483271      -0.558206034     
39.8             0.998476364      -0.563106773     0.00993802931    80.8995447       0.00993802931    80.8995447       0.998476364      -0.563106773     
39.9             0.99846943       -0.567998438     0.0100233613     80.9326665       0.0100233613     80.9326665       0.99846943       -0.567998438     
40               0.998462469      -0.572881095     0.0101085452     80.9649044       0.0101085452     80.9649044       0.998462469      -0.572881095     
