! Coilcraft 1812CS-122 Chip Inductor				
! 31 July 2002			
# MHZ S MA R 50
!Freq             MagS11           AngS11           MagS21           AngS21           MagS12           AngS12           MagS22           AngS22
1                0.0770257979     72.9871376       0.980234449      -4.30928183      0.980234449      -4.30928183      0.0770257979     72.9871376       
2.04             0.152789279      74.1568195       0.969494707      -8.72024631      0.969494707      -8.72024631      0.152789279      74.1568195       
3.08             0.22616613       71.8352072       0.954010498      -13.0178263      0.954010498      -13.0178263      0.22616613       71.8352072       
4.12             0.295849341      68.7229969       0.934244531      -17.16275        0.934244531      -17.16275        0.295849341      68.7229969       
5.16             0.361044565      65.4049578       0.910943552      -21.1236645      0.910943552      -21.1236645      0.361044565      65.4049578       
6.2              0.421281735      62.0927692       0.884942802      -24.8783611      0.884942802      -24.8783611      0.421281735      62.0927692       
7.24             0.476363119      58.8827316       0.85706541       -28.413591       0.85706541       -28.413591       0.476363119      58.8827316       
8.28             0.526311109      55.8225187       0.828060472      -31.7240451      0.828060472      -31.7240451      0.526311109      55.8225187       
9.32             0.571311929      52.9349177       0.798569349      -34.810904       0.798569349      -34.810904       0.571311929      52.9349177       
10.36            0.61166197       50.2284478       0.769113509      -37.6802726      0.769113509      -37.6802726      0.61166197       50.2284478       
11.4             0.647721955      47.7030012       0.740097264      -40.3417108      0.740097264      -40.3417108      0.647721955      47.7030012       
12.44            0.679881128      45.3532145       0.711819405      -42.806977       0.711819405      -42.806977       0.679881128      45.3532145       
13.48            0.708531433      43.1706233       0.684489001      -45.0890239      0.684489001      -45.0890239      0.708531433      43.1706233       
14.52            0.734050331      41.1450835       0.658242132      -47.2012438      0.658242132      -47.2012438      0.734050331      41.1450835       
15.56            0.756790429      39.2657133       0.633157602      -49.1569303      0.633157602      -49.1569303      0.756790429      39.2657133       
16.6             0.777074129      37.52151         0.609270682      -50.9689166      0.609270682      -50.9689166      0.777074129      37.52151         
17.64            0.795191715      35.9017421       0.586584535      -52.6493498      0.586584535      -52.6493498      0.795191715      35.9017421       
18.68            0.81140169       34.3961873       0.565079395      -54.2095654      0.565079395      -54.2095654      0.81140169       34.3961873       
19.72            0.825932461      32.9952641       0.544719724      -55.660033       0.544719724      -55.660033       0.825932461      32.9952641       
20.76            0.838984737      31.6900926       0.52545968       -57.0103498      0.52545968       -57.0103498      0.838984737      31.6900926       
21.8             0.850734245      30.4725092       0.507247196      -58.2692662      0.507247196      -58.2692662      0.850734245      30.4725092       
22.84            0.861334485      29.335051        0.490026977      -59.4447294      0.490026977      -59.4447294      0.861334485      29.335051        
23.88            0.870919375      28.2709224       0.473742648      -60.543939       0.473742648      -60.543939       0.870919375      28.2709224       
24.92            0.8796057        27.2739519       0.458338263      -61.5734057      0.458338263      -61.5734057      0.8796057        27.2739519       
25.96            0.887495324      26.3385446       0.443759335      -62.5390121      0.443759335      -62.5390121      0.887495324      26.3385446       
27               0.89467716       25.4596331       0.429953502      -63.4460711      0.429953502      -63.4460711      0.89467716       25.4596331       
28.04            0.901228898      24.6326294       0.416870944      -64.2993812      0.416870944      -64.2993812      0.901228898      24.6326294       
29.08            0.907218513      23.8533797       0.404464602      -65.1032782      0.404464602      -65.1032782      0.907218513      23.8533797       
30.12            0.912705575      23.1181219       0.392690272      -65.8616824      0.392690272      -65.8616824      0.912705575      23.1181219       
31.16            0.917742378      22.4234461       0.381506601      -66.5781414      0.381506601      -66.5781414      0.917742378      22.4234461       
32.2             0.922374914      21.7662598       0.37087502       -67.2558692      0.37087502       -67.2558692      0.922374914      21.7662598       
33.24            0.926643709      21.1437546       0.360759639      -67.8977806      0.360759639      -67.8977806      0.926643709      21.1437546       
34.28            0.930584546      20.553378        0.351127117      -68.5065225      0.351127117      -68.5065225      0.930584546      20.553378        
35.32            0.934229082      19.9928072       0.341946512      -69.0845017      0.341946512      -69.0845017      0.934229082      19.9928072       
36.36            0.937605381      19.4599254       0.333189132      -69.6339094      0.333189132      -69.6339094      0.937605381      19.4599254       
37.4             0.940738375      18.9528014       0.324828381      -70.1567439      0.324828381      -70.1567439      0.940738375      18.9528014       
38.44            0.943650253      18.4696708       0.316839611      -70.6548294      0.316839611      -70.6548294      0.943650253      18.4696708       
39.48            0.946360809      18.0089194       0.309199975      -71.1298342      0.309199975      -71.1298342      0.946360809      18.0089194       
40.52            0.94888773       17.5690685       0.301888297      -71.5832857      0.301888297      -71.5832857      0.94888773       17.5690685       
41.56            0.951246854      17.1487616       0.294884935      -72.0165845      0.294884935      -72.0165845      0.951246854      17.1487616       
42.6             0.95345239       16.7467527       0.288171668      -72.4310167      0.288171668      -72.4310167      0.95345239       16.7467527       
43.64            0.955517109      16.3618955       0.28173158       -72.8277648      0.28173158       -72.8277648      0.955517109      16.3618955       
44.68            0.957452512      15.9931345       0.27554896       -73.2079176      0.27554896       -73.2079176      0.957452512      15.9931345       
45.72            0.959268973      15.6394962       0.269609201      -73.5724789      0.269609201      -73.5724789      0.959268973      15.6394962       
46.76            0.960975867      15.3000815       0.263898721      -73.9223756      0.263898721      -73.9223756      0.960975867      15.3000815       
47.8             0.962581681      14.9740591       0.258404874      -74.2584644      0.258404874      -74.2584644      0.962581681      14.9740591       
48.84            0.96409411       14.6606598       0.253115881      -74.581538       0.253115881      -74.581538       0.96409411       14.6606598       
49.88            0.965520143      14.3591701       0.24802076       -74.8923313      0.24802076       -74.8923313      0.965520143      14.3591701       
50.92            0.966866139      14.0689283       0.243109262      -75.1915261      0.243109262      -75.1915261      0.966866139      14.0689283       
51.96            0.96813789       13.7893195       0.238371821      -75.4797555      0.238371821      -75.4797555      0.96813789       13.7893195       
53               0.969340682      13.5197718       0.233799492      -75.7576085      0.233799492      -75.7576085      0.969340682      13.5197718       
54.04            0.970479344      13.2597526       0.229383912      -76.0256333      0.229383912      -76.0256333      0.970479344      13.2597526       
55.08            0.971558299      13.0087655       0.22511725       -76.2843411      0.22511725       -76.2843411      0.971558299      13.0087655       
56.12            0.972581595      12.7663472       0.220992171      -76.5342085      0.220992171      -76.5342085      0.972581595      12.7663472       
57.16            0.97355295       12.5320652       0.217001796      -76.775681       0.217001796      -76.775681       0.97355295       12.5320652       
58.2             0.97447578       12.3055147       0.213139672      -77.0091749      0.213139672      -77.0091749      0.97447578       12.3055147       
59.24            0.975353226      12.0863171       0.209399737      -77.23508        0.209399737      -77.23508        0.975353226      12.0863171       
60.28            0.976188185      11.8741175       0.205776295      -77.4537613      0.205776295      -77.4537613      0.976188185      11.8741175       
61.32            0.976983325      11.6685831       0.202263988      -77.6655612      0.202263988      -77.6655612      0.976983325      11.6685831       
62.36            0.977741112      11.4694018       0.198857772      -77.8708008      0.198857772      -77.8708008      0.977741112      11.4694018       
63.4             0.978463826      11.27628         0.195552897      -78.0697822      0.195552897      -78.0697822      0.978463826      11.27628         
64.44            0.979153576      11.0889418       0.192344883      -78.2627889      0.192344883      -78.2627889      0.979153576      11.0889418       
65.48            0.979812317      10.9071276       0.189229506      -78.4500881      0.189229506      -78.4500881      0.979812317      10.9071276       
66.52            0.980441862      10.7305929       0.186202777      -78.6319313      0.186202777      -78.6319313      0.980441862      10.7305929       
67.56            0.981043894      10.5591071       0.183260928      -78.8085556      0.183260928      -78.8085556      0.981043894      10.5591071       
68.6             0.981619978      10.3924527       0.180400397      -78.9801845      0.180400397      -78.9801845      0.981619978      10.3924527       
69.64            0.982171571      10.2304245       0.177617815      -79.1470293      0.177617815      -79.1470293      0.982171571      10.2304245       
70.68            0.982700027      10.0728282       0.17490999       -79.3092893      0.17490999       -79.3092893      0.982700027      10.0728282       
71.72            0.983206611      9.91948068       0.172273901      -79.4671531      0.172273901      -79.4671531      0.983206611      9.91948068       
72.76            0.983692502      9.77020818       0.169706684      -79.6207992      0.169706684      -79.6207992      0.983692502      9.77020818       
73.8             0.984158802      9.62484638       0.167205623      -79.7703965      0.167205623      -79.7703965      0.984158802      9.62484638       
74.84            0.984606539      9.48323955       0.16476814       -79.9161051      0.16476814       -79.9161051      0.984606539      9.48323955       
75.88            0.985036677      9.34524002       0.162391785      -80.0580767      0.162391785      -80.0580767      0.985036677      9.34524002       
76.92            0.985450117      9.21070768       0.160074234      -80.1964552      0.160074234      -80.1964552      0.985450117      9.21070768       
77.96            0.985847704      9.07950953       0.157813274      -80.3313775      0.157813274      -80.3313775      0.985847704      9.07950953       
79               0.98623023       8.95151919       0.155606802      -80.4629732      0.155606802      -80.4629732      0.98623023       8.95151919       
80.04            0.98659844       8.82661653       0.153452815      -80.5913658      0.153452815      -80.5913658      0.98659844       8.82661653       
81.08            0.986953031      8.70468731       0.151349406      -80.7166727      0.151349406      -80.7166727      0.986953031      8.70468731       
82.12            0.987294661      8.58562277       0.149294758      -80.8390056      0.149294758      -80.8390056      0.987294661      8.58562277       
83.16            0.987623946      8.46931937       0.147287139      -80.9584707      0.147287139      -80.9584707      0.987623946      8.46931937       
84.2             0.987941468      8.35567844       0.145324896      -81.0751694      0.145324896      -81.0751694      0.987941468      8.35567844       
85.24            0.988247775      8.24460593       0.143406453      -81.1891982      0.143406453      -81.1891982      0.988247775      8.24460593       
86.28            0.988543382      8.13601213       0.141530305      -81.3006494      0.141530305      -81.3006494      0.988543382      8.13601213       
87.32            0.988828777      8.0298114        0.139695012      -81.4096106      0.139695012      -81.4096106      0.988828777      8.0298114        
88.36            0.98910442       7.925922         0.1378992        -81.5161659      0.1378992        -81.5161659      0.98910442       7.925922         
89.4             0.989370743      7.82426582       0.136141555      -81.6203953      0.136141555      -81.6203953      0.989370743      7.82426582       
90.44            0.989628158      7.72476822       0.13442082       -81.7223754      0.13442082       -81.7223754      0.989628158      7.72476822       
91.48            0.989877053      7.62735782       0.132735791      -81.8221795      0.132735791      -81.8221795      0.989877053      7.62735782       
92.52            0.990117793      7.53196633       0.131085316      -81.9198776      0.131085316      -81.9198776      0.990117793      7.53196633       
93.56            0.990350728      7.43852837       0.129468291      -82.0155366      0.129468291      -82.0155366      0.990350728      7.43852837       
94.6             0.990576185      7.34698136       0.127883659      -82.1092208      0.127883659      -82.1092208      0.990576185      7.34698136       
95.64            0.990794478      7.25726533       0.126330405      -82.2009916      0.126330405      -82.2009916      0.990794478      7.25726533       
96.68            0.991005901      7.1693228        0.124807558      -82.2909079      0.124807558      -82.2909079      0.991005901      7.1693228        
97.72            0.991210736      7.08309867       0.123314183      -82.379026       0.123314183      -82.379026       0.991210736      7.08309867       
98.76            0.99140925       6.99854007       0.121849386      -82.4654003      0.121849386      -82.4654003      0.99140925       6.99854007       
99.8             0.991601695      6.91559627       0.120412305      -82.5500825      0.120412305      -82.5500825      0.991601695      6.91559627       
100.84           0.991788312      6.83421857       0.119002115      -82.6331225      0.119002115      -82.6331225      0.991788312      6.83421857       
101.88           0.99196933       6.75436019       0.117618022      -82.7145681      0.117618022      -82.7145681      0.99196933       6.75436019       
102.92           0.992144966      6.67597619       0.116259261      -82.7944654      0.116259261      -82.7944654      0.992144966      6.67597619       
103.96           0.992315429      6.59902336       0.1149251        -82.8728585      0.1149251        -82.8728585      0.992315429      6.59902336       
105              0.992480915      6.52346019       0.113614831      -82.9497898      0.113614831      -82.9497898      0.992480915      6.52346019       
106.04           0.992641612      6.44924671       0.112327775      -83.0253001      0.112327775      -83.0253001      0.992641612      6.44924671       
107.08           0.992797699      6.37634447       0.111063278      -83.0994286      0.111063278      -83.0994286      0.992797699      6.37634447       
108.12           0.992949347      6.30471648       0.109820708      -83.1722133      0.109820708      -83.1722133      0.992949347      6.30471648       
109.16           0.993096719      6.2343271        0.10859946       -83.2436902      0.10859946       -83.2436902      0.993096719      6.2343271        
110.2            0.993239971      6.165142         0.107398947      -83.3138946      0.107398947      -83.3138946      0.993239971      6.165142         
111.24           0.993379251      6.09712812       0.106218606      -83.38286        0.106218606      -83.38286        0.993379251      6.09712812       
112.28           0.993514701      6.03025357       0.105057893      -83.450619       0.105057893      -83.450619       0.993514701      6.03025357       
113.32           0.993646456      5.96448762       0.103916283      -83.5172028      0.103916283      -83.5172028      0.993646456      5.96448762       
114.36           0.993774647      5.89980062       0.102793269      -83.5826415      0.102793269      -83.5826415      0.993774647      5.89980062       
115.4            0.993899396      5.83616396       0.101688364      -83.6469643      0.101688364      -83.6469643      0.993899396      5.83616396       
116.44           0.994020823      5.77355004       0.100601094      -83.7101992      0.100601094      -83.7101992      0.994020823      5.77355004       
117.48           0.994139041      5.7119322        0.0995310056     -83.7723732      0.0995310056     -83.7723732      0.994139041      5.7119322        
118.52           0.994254158      5.65128471       0.098477657      -83.8335124      0.098477657      -83.8335124      0.994254158      5.65128471       
119.56           0.99436628       5.59158271       0.0974406232     -83.8936421      0.0974406232     -83.8936421      0.99436628       5.59158271       
120.6            0.994475504      5.53280217       0.096419493      -83.9527866      0.096419493      -83.9527866      0.994475504      5.53280217       
121.64           0.994581927      5.47491987       0.0954138688     -84.0109693      0.0954138688     -84.0109693      0.994581927      5.47491987       
122.68           0.994685641      5.41791336       0.094423366      -84.0682129      0.094423366      -84.0682129      0.994685641      5.41791336       
123.72           0.994786734      5.36176093       0.0934476126     -84.1245394      0.0934476126     -84.1245394      0.994786734      5.36176093       
124.76           0.994885289      5.30644159       0.0924862487     -84.1799699      0.0924862487     -84.1799699      0.994885289      5.30644159       
125.8            0.994981388      5.251935         0.0915389258     -84.234525       0.0915389258     -84.234525       0.994981388      5.251935         
126.84           0.995075108      5.19822149       0.0906053067     -84.2882243      0.0906053067     -84.2882243      0.995075108      5.19822149       
127.88           0.995166524      5.14528204       0.0896850646     -84.3410871      0.0896850646     -84.3410871      0.995166524      5.14528204       
128.92           0.995255708      5.0930982        0.0887778831     -84.3931319      0.0887778831     -84.3931319      0.995255708      5.0930982        
129.96           0.995342728      5.0416521        0.0878834556     -84.4443766      0.0878834556     -84.4443766      0.995342728      5.0416521        
131              0.995427652      4.99092646       0.0870014851     -84.4948385      0.0870014851     -84.4948385      0.995427652      4.99092646       
132.04           0.995510542      4.94090449       0.0861316836     -84.5445343      0.0861316836     -84.5445343      0.995510542      4.94090449       
133.08           0.99559146       4.89156994       0.0852737717     -84.5934804      0.0852737717     -84.5934804      0.99559146       4.89156994       
134.12           0.995670464      4.84290707       0.0844274788     -84.6416923      0.0844274788     -84.6416923      0.995670464      4.84290707       
135.16           0.995747612      4.79490057       0.0835925421     -84.6891853      0.0835925421     -84.6891853      0.995747612      4.79490057       
136.2            0.995822959      4.74753564       0.0827687069     -84.7359742      0.0827687069     -84.7359742      0.995822959      4.74753564       
137.24           0.995896556      4.70079789       0.0819557257     -84.7820732      0.0819557257     -84.7820732      0.995896556      4.70079789       
138.28           0.995968455      4.65467336       0.0811533585     -84.8274962      0.0811533585     -84.8274962      0.995968455      4.65467336       
139.32           0.996038704      4.6091485        0.0803613722     -84.8722564      0.0803613722     -84.8722564      0.996038704      4.6091485        
140.36           0.996107351      4.56421017       0.0795795406     -84.9163668      0.0795795406     -84.9163668      0.996107351      4.56421017       
141.4            0.99617444       4.5198456        0.0788076438     -84.9598401      0.0788076438     -84.9598401      0.99617444       4.5198456        
142.44           0.996240016      4.47604237       0.0780454682     -85.0026884      0.0780454682     -85.0026884      0.996240016      4.47604237       
143.48           0.996304121      4.43278844       0.0772928064     -85.0449235      0.0772928064     -85.0449235      0.996304121      4.43278844       
144.52           0.996366796      4.3900721        0.0765494567     -85.0865568      0.0765494567     -85.0865568      0.996366796      4.3900721        
145.56           0.996428079      4.34788197       0.075815223      -85.1275994      0.075815223      -85.1275994      0.996428079      4.34788197       
146.6            0.996488009      4.30620699       0.0750899149     -85.168062       0.0750899149     -85.168062       0.996488009      4.30620699       
147.64           0.996546623      4.2650364        0.0743733469     -85.2079551      0.0743733469     -85.2079551      0.996546623      4.2650364        
148.68           0.996603956      4.22435976       0.0736653388     -85.2472888      0.0736653388     -85.2472888      0.996603956      4.22435976       
149.72           0.996660042      4.18416688       0.0729657153     -85.2860728      0.0729657153     -85.2860728      0.996660042      4.18416688       
150.76           0.996714914      4.14444787       0.0722743057     -85.3243166      0.0722743057     -85.3243166      0.996714914      4.14444787       
151.8            0.996768604      4.10519311       0.071590944      -85.3620295      0.071590944      -85.3620295      0.996768604      4.10519311       
152.84           0.996821143      4.06639322       0.0709154687     -85.3992203      0.0709154687     -85.3992203      0.996821143      4.06639322       
153.88           0.996872561      4.0280391        0.0702477224     -85.4358978      0.0702477224     -85.4358978      0.996872561      4.0280391        
154.92           0.996922887      3.99012185       0.0695875519     -85.4720702      0.0695875519     -85.4720702      0.996922887      3.99012185       
155.96           0.996972148      3.95263283       0.0689348081     -85.5077458      0.0689348081     -85.5077458      0.996972148      3.95263283       
157              0.997020372      3.91556364       0.0682893456     -85.5429323      0.0682893456     -85.5429323      0.997020372      3.91556364       
158.04           0.997067584      3.87890606       0.067651023      -85.5776375      0.067651023      -85.5776375      0.997067584      3.87890606       
159.08           0.997113811      3.84265211       0.0670197023     -85.6118688      0.0670197023     -85.6118688      0.997113811      3.84265211       
160.12           0.997159076      3.80679401       0.0663952492     -85.6456333      0.0663952492     -85.6456333      0.997159076      3.80679401       
161.16           0.997203404      3.77132418       0.0657775326     -85.6789379      0.0657775326     -85.6789379      0.997203404      3.77132418       
162.2            0.997246817      3.73623522       0.0651664249     -85.7117896      0.0651664249     -85.7117896      0.997246817      3.73623522       
163.24           0.997289338      3.70151992       0.0645618016     -85.7441947      0.0645618016     -85.7441947      0.997289338      3.70151992       
164.28           0.997330988      3.66717126       0.0639635413     -85.7761596      0.0639635413     -85.7761596      0.997330988      3.66717126       
165.32           0.997371788      3.6331824        0.0633715257     -85.8076904      0.0633715257     -85.8076904      0.997371788      3.6331824        
166.36           0.997411759      3.59954664       0.0627856391     -85.8387931      0.0627856391     -85.8387931      0.997411759      3.59954664       
167.4            0.997450919      3.56625747       0.0622057691     -85.8694735      0.0622057691     -85.8694735      0.997450919      3.56625747       
168.44           0.997489289      3.53330853       0.0616318057     -85.8997371      0.0616318057     -85.8997371      0.997489289      3.53330853       
169.48           0.997526887      3.50069362       0.0610636415     -85.9295892      0.0610636415     -85.9295892      0.997526887      3.50069362       
170.52           0.99756373       3.46840668       0.0605011721     -85.9590351      0.0605011721     -85.9590351      0.99756373       3.46840668       
171.56           0.997599836      3.4364418        0.059944295      -85.9880799      0.059944295      -85.9880799      0.997599836      3.4364418        
172.6            0.997635222      3.40479322       0.0593929107     -86.0167285      0.0593929107     -86.0167285      0.997635222      3.40479322       
173.64           0.997669904      3.3734553        0.0588469216     -86.0449854      0.0588469216     -86.0449854      0.997669904      3.3734553        
174.68           0.997703898      3.34242254       0.0583062327     -86.0728554      0.0583062327     -86.0728554      0.997703898      3.34242254       
175.72           0.99773722       3.31168958       0.057770751      -86.1003427      0.057770751      -86.1003427      0.99773722       3.31168958       
176.76           0.997769885      3.28125117       0.0572403858     -86.1274516      0.0572403858     -86.1274516      0.997769885      3.28125117       
177.8            0.997801907      3.25110218       0.0567150484     -86.1541863      0.0567150484     -86.1541863      0.997801907      3.25110218       
178.84           0.9978333        3.22123761       0.0561946522     -86.1805507      0.0561946522     -86.1805507      0.9978333        3.22123761       
179.88           0.997864079      3.19165256       0.0556791125     -86.2065485      0.0556791125     -86.2065485      0.997864079      3.19165256       
180.92           0.997894256      3.16234227       0.0551683467     -86.2321835      0.0551683467     -86.2321835      0.997894256      3.16234227       
181.96           0.997923844      3.13330205       0.0546622738     -86.2574591      0.0546622738     -86.2574591      0.997923844      3.13330205       
183              0.997952857      3.10452734       0.0541608148     -86.2823787      0.0541608148     -86.2823787      0.997952857      3.10452734       
184.04           0.997981306      3.07601367       0.0536638924     -86.3069457      0.0536638924     -86.3069457      0.997981306      3.07601367       
185.08           0.998009204      3.04775668       0.0531714309     -86.3311631      0.0531714309     -86.3311631      0.998009204      3.04775668       
186.12           0.998036561      3.01975211       0.0526833566     -86.3550338      0.0526833566     -86.3550338      0.998036561      3.01975211       
187.16           0.99806339       2.99199578       0.0521995971     -86.3785609      0.0521995971     -86.3785609      0.99806339       2.99199578       
188.2            0.998089702      2.9644836        0.0517200816     -86.4017469      0.0517200816     -86.4017469      0.998089702      2.9644836        
189.24           0.998115506      2.93721158       0.0512447411     -86.4245945      0.0512447411     -86.4245945      0.998115506      2.93721158       
190.28           0.998140814      2.91017581       0.0507735077     -86.4471063      0.0507735077     -86.4471063      0.998140814      2.91017581       
191.32           0.998165635      2.88337248       0.0503063154     -86.4692844      0.0503063154     -86.4692844      0.998165635      2.88337248       
192.36           0.99818998       2.85679783       0.0498430992     -86.4911313      0.0498430992     -86.4911313      0.99818998       2.85679783       
193.4            0.998213858      2.83044822       0.0493837958     -86.512649       0.0493837958     -86.512649       0.998213858      2.83044822       
194.44           0.998237278      2.80432005       0.048928343      -86.5338395      0.048928343      -86.5338395      0.998237278      2.80432005       
195.48           0.99826025       2.77840981       0.04847668       -86.5547047      0.04847668       -86.5547047      0.99826025       2.77840981       
196.52           0.998282782      2.75271408       0.0480287473     -86.5752465      0.0480287473     -86.5752465      0.998282782      2.75271408       
197.56           0.998304883      2.72722949       0.0475844867     -86.5954663      0.0475844867     -86.5954663      0.998304883      2.72722949       
198.6            0.998326562      2.70195274       0.047143841      -86.6153658      0.047143841      -86.6153658      0.998326562      2.70195274       
199.64           0.998347826      2.67688061       0.0467067543     -86.6349465      0.0467067543     -86.6349465      0.998347826      2.67688061       
200.68           0.998368683      2.65200995       0.046273172      -86.6542095      0.046273172      -86.6542095      0.998368683      2.65200995       
201.72           0.998389143      2.62733765       0.0458430403     -86.6731562      0.0458430403     -86.6731562      0.998389143      2.62733765       
202.76           0.998409211      2.6028607        0.0454163067     -86.6917876      0.0454163067     -86.6917876      0.998409211      2.6028607        
203.8            0.998428895      2.57857611       0.0449929198     -86.7101047      0.0449929198     -86.7101047      0.998428895      2.57857611       
204.84           0.998448204      2.55448098       0.044572829      -86.7281083      0.044572829      -86.7281083      0.998448204      2.55448098       
205.88           0.998467143      2.53057246       0.0441559849     -86.7457991      0.0441559849     -86.7457991      0.998467143      2.53057246       
206.92           0.998485719      2.50684775       0.0437423391     -86.7631779      0.0437423391     -86.7631779      0.998485719      2.50684775       
207.96           0.99850394       2.48330411       0.0433318441     -86.7802452      0.0433318441     -86.7802452      0.99850394       2.48330411       
209              0.998521811      2.45993887       0.0429244533     -86.7970012      0.0429244533     -86.7970012      0.998521811      2.45993887       
210.04           0.99853934       2.43674938       0.042520121      -86.8134464      0.042520121      -86.8134464      0.99853934       2.43674938       
211.08           0.998556532      2.41373306       0.0421188025     -86.829581       0.0421188025     -86.829581       0.998556532      2.41373306       
212.12           0.998573393      2.3908874        0.0417204539     -86.8454049      0.0417204539     -86.8454049      0.998573393      2.3908874        
213.16           0.99858993       2.36820989       0.0413250322     -86.8609181      0.0413250322     -86.8609181      0.99858993       2.36820989       
214.2            0.998606148      2.34569812       0.0409324951     -86.8761205      0.0409324951     -86.8761205      0.998606148      2.34569812       
215.24           0.998622053      2.32334969       0.0405428013     -86.8910117      0.0405428013     -86.8910117      0.998622053      2.32334969       
216.28           0.99863765       2.30116227       0.0401559101     -86.9055914      0.0401559101     -86.9055914      0.99863765       2.30116227       
217.32           0.998652944      2.27913355       0.0397717816     -86.919859       0.0397717816     -86.919859       0.998652944      2.27913355       
218.36           0.998667942      2.25726129       0.0393903769     -86.9338139      0.0393903769     -86.9338139      0.998667942      2.25726129       
219.4            0.998682648      2.23554327       0.0390116575     -86.9474553      0.0390116575     -86.9474553      0.998682648      2.23554327       
220.44           0.998697067      2.21397732       0.0386355858     -86.9607823      0.0386355858     -86.9607823      0.998697067      2.21397732       
221.48           0.998711203      2.19256131       0.0382621248     -86.9737938      0.0382621248     -86.9737938      0.998711203      2.19256131       
222.52           0.998725063      2.17129316       0.0378912383     -86.9864888      0.0378912383     -86.9864888      0.998725063      2.17129316       
223.56           0.99873865       2.15017082       0.0375228908     -86.9988659      0.0375228908     -86.9988659      0.99873865       2.15017082       
224.6            0.998751969      2.12919226       0.0371570473     -87.0109237      0.0371570473     -87.0109237      0.998751969      2.12919226       
225.64           0.998765025      2.10835552       0.0367936734     -87.0226606      0.0367936734     -87.0226606      0.998765025      2.10835552       
226.68           0.998777821      2.08765866       0.0364327357     -87.034075       0.0364327357     -87.034075       0.998777821      2.08765866       
227.72           0.998790363      2.06709977       0.0360742009     -87.0451651      0.0360742009     -87.0451651      0.998790363      2.06709977       
228.76           0.998802654      2.04667697       0.0357180366     -87.0559287      0.0357180366     -87.0559287      0.998802654      2.04667697       
229.8            0.998814698      2.02638844       0.035364211      -87.0663639      0.035364211      -87.0663639      0.998814698      2.02638844       
230.84           0.998826499      2.00623237       0.0350126927     -87.0764684      0.0350126927     -87.0764684      0.998826499      2.00623237       
231.88           0.998838062      1.98620699       0.0346634511     -87.0862396      0.0346634511     -87.0862396      0.998838062      1.98620699       
232.92           0.99884939       1.96631055       0.0343164558     -87.0956751      0.0343164558     -87.0956751      0.99884939       1.96631055       
233.96           0.998860487      1.94654136       0.0339716774     -87.1047721      0.0339716774     -87.1047721      0.998860487      1.94654136       
235              0.998871356      1.92689772       0.0336290865     -87.1135276      0.0336290865     -87.1135276      0.998871356      1.92689772       
236.04           0.998882001      1.90737799       0.0332886546     -87.1219387      0.0332886546     -87.1219387      0.998882001      1.90737799       
237.08           0.998892426      1.88798055       0.0329503536     -87.1300019      0.0329503536     -87.1300019      0.998892426      1.88798055       
238.12           0.998902634      1.8687038        0.0326141558     -87.137714       0.0326141558     -87.137714       0.998902634      1.8687038        
239.16           0.998912628      1.84954618       0.032280034      -87.1450712      0.032280034      -87.1450712      0.998912628      1.84954618       
240.2            0.998922412      1.83050616       0.0319479616     -87.1520698      0.0319479616     -87.1520698      0.998922412      1.83050616       
241.24           0.998931988      1.81158221       0.0316179123     -87.1587057      0.0316179123     -87.1587057      0.998931988      1.81158221       
242.28           0.99894136       1.79277285       0.0312898604     -87.1649748      0.0312898604     -87.1649748      0.99894136       1.79277285       
243.32           0.998950532      1.77407663       0.0309637804     -87.1708726      0.0309637804     -87.1708726      0.998950532      1.77407663       
244.36           0.998959505      1.7554921        0.0306396475     -87.1763946      0.0306396475     -87.1763946      0.998959505      1.7554921        
245.4            0.998968283      1.73701785       0.0303174372     -87.1815357      0.0303174372     -87.1815357      0.998968283      1.73701785       
246.44           0.998976869      1.7186525        0.0299971254     -87.1862911      0.0299971254     -87.1862911      0.998976869      1.7186525        
247.48           0.998985266      1.70039468       0.0296786884     -87.1906553      0.0296786884     -87.1906553      0.998985266      1.70039468       
248.52           0.998993476      1.68224305       0.0293621029     -87.1946229      0.0293621029     -87.1946229      0.998993476      1.68224305       
249.56           0.999001502      1.66419629       0.0290473461     -87.1981879      0.0290473461     -87.1981879      0.999001502      1.66419629       
250.6            0.999009347      1.64625309       0.0287343954     -87.2013443      0.0287343954     -87.2013443      0.999009347      1.64625309       
251.64           0.999017013      1.62841219       0.0284232287     -87.2040858      0.0284232287     -87.2040858      0.999017013      1.62841219       
252.68           0.999024503      1.61067232       0.0281138243     -87.2064057      0.0281138243     -87.2064057      0.999024503      1.61067232       
253.72           0.99903182       1.59303225       0.0278061606     -87.2082972      0.0278061606     -87.2082972      0.99903182       1.59303225       
254.76           0.999038965      1.57549077       0.0275002167     -87.2097529      0.0275002167     -87.2097529      0.999038965      1.57549077       
255.8            0.999045942      1.55804668       0.0271959717     -87.2107653      0.0271959717     -87.2107653      0.999045942      1.55804668       
256.84           0.999052752      1.5406988        0.0268934054     -87.2113265      0.0268934054     -87.2113265      0.999052752      1.5406988        
257.88           0.999059399      1.52344597       0.0265924977     -87.2114284      0.0265924977     -87.2114284      0.999059399      1.52344597       
258.92           0.999065883      1.50628707       0.0262932288     -87.2110624      0.0262932288     -87.2110624      0.999065883      1.50628707       
259.96           0.999072208      1.48922095       0.0259955792     -87.2102194      0.0259955792     -87.2102194      0.999072208      1.48922095       
261              0.999078375      1.47224653       0.02569953       -87.2088903      0.02569953       -87.2088903      0.999078375      1.47224653       
262.04           0.999084387      1.45536272       0.0254050623     -87.2070651      0.0254050623     -87.2070651      0.999084387      1.45536272       
263.08           0.999090246      1.43856844       0.0251121577     -87.2047338      0.0251121577     -87.2047338      0.999090246      1.43856844       
264.12           0.999095953      1.42186265       0.0248207978     -87.2018858      0.0248207978     -87.2018858      0.999095953      1.42186265       
265.16           0.999101511      1.40524431       0.0245309648     -87.1985099      0.0245309648     -87.1985099      0.999101511      1.40524431       
266.2            0.999106922      1.38871241       0.0242426411     -87.1945947      0.0242426411     -87.1945947      0.999106922      1.38871241       
267.24           0.999112188      1.37226593       0.0239558093     -87.1901282      0.0239558093     -87.1901282      0.999112188      1.37226593       
268.28           0.99911731       1.35590388       0.0236704523     -87.1850976      0.0236704523     -87.1850976      0.99911731       1.35590388       
269.32           0.999122291      1.33962531       0.0233865533     -87.17949        0.0233865533     -87.17949        0.999122291      1.33962531       
270.36           0.999127132      1.32342925       0.0231040957     -87.1732916      0.0231040957     -87.1732916      0.999127132      1.32342925       
271.4            0.999131835      1.30731475       0.0228230634     -87.166488       0.0228230634     -87.166488       0.999131835      1.30731475       
272.44           0.999136402      1.29128088       0.0225434401     -87.1590644      0.0225434401     -87.1590644      0.999136402      1.29128088       
273.48           0.999140834      1.27532674       0.0222652102     -87.1510052      0.0222652102     -87.1510052      0.999140834      1.27532674       
274.52           0.999145134      1.25945142       0.0219883581     -87.142294       0.0219883581     -87.142294       0.999145134      1.25945142       
275.56           0.999149302      1.24365403       0.0217128685     -87.1329138      0.0217128685     -87.1329138      0.999149302      1.24365403       
276.6            0.999153341      1.2279337        0.0214387263     -87.1228467      0.0214387263     -87.1228467      0.999153341      1.2279337        
277.64           0.999157252      1.21228957       0.0211659167     -87.1120742      0.0211659167     -87.1120742      0.999157252      1.21228957       
278.68           0.999161036      1.19672079       0.0208944251     -87.1005767      0.0208944251     -87.1005767      0.999161036      1.19672079       
279.72           0.999164696      1.18122652       0.0206242371     -87.0883338      0.0206242371     -87.0883338      0.999164696      1.18122652       
280.76           0.999168232      1.16580594       0.0203553386     -87.0753243      0.0203553386     -87.0753243      0.999168232      1.16580594       
281.8            0.999171647      1.15045824       0.0200877155     -87.0615256      0.0200877155     -87.0615256      0.999171647      1.15045824       
282.84           0.999174941      1.13518262       0.0198213543     -87.0469145      0.0198213543     -87.0469145      0.999174941      1.13518262       
283.88           0.999178117      1.11997829       0.0195562413     -87.0314665      0.0195562413     -87.0314665      0.999178117      1.11997829       
284.92           0.999181174      1.10484447       0.0192923633     -87.0151556      0.0192923633     -87.0151556      0.999181174      1.10484447       
285.96           0.999184116      1.08978041       0.0190297072     -86.9979552      0.0190297072     -86.9979552      0.999184116      1.08978041       
287              0.999186943      1.07478534       0.01876826       -86.9798367      0.01876826       -86.9798367      0.999186943      1.07478534       
288.04           0.999189656      1.05985852       0.0185080091     -86.9607706      0.0185080091     -86.9607706      0.999189656      1.05985852       
289.08           0.999192257      1.04499923       0.018248942      -86.9407256      0.018248942      -86.9407256      0.999192257      1.04499923       
290.12           0.999194747      1.03020673       0.0179910464     -86.9196691      0.0179910464     -86.9196691      0.999194747      1.03020673       
291.16           0.999197128      1.01548032       0.0177343101     -86.8975665      0.0177343101     -86.8975665      0.999197128      1.01548032       
292.2            0.9991994        1.00081929       0.0174787212     -86.8743817      0.0174787212     -86.8743817      0.9991994        1.00081929       
293.24           0.999201565      0.986222953      0.017224268      -86.8500765      0.017224268      -86.8500765      0.999201565      0.986222953      
294.28           0.999203624      0.971690628      0.0169709389     -86.824611       0.0169709389     -86.824611       0.999203624      0.971690628      
295.32           0.999205579      0.957221643      0.0167187226     -86.7979427      0.0167187226     -86.7979427      0.999205579      0.957221643      
296.36           0.999207429      0.942815332      0.0164676079     -86.7700272      0.0164676079     -86.7700272      0.999207429      0.942815332      
297.4            0.999209177      0.928471044      0.0162175837     -86.7408176      0.0162175837     -86.7408176      0.999209177      0.928471044      
298.44           0.999210824      0.914188132      0.0159686392     -86.7102642      0.0159686392     -86.7102642      0.999210824      0.914188132      
299.48           0.999212371      0.899965961      0.0157207638     -86.6783148      0.0157207638     -86.6783148      0.999212371      0.899965961      
300.52           0.999213818      0.885803904      0.0154739469     -86.644914       0.0154739469     -86.644914       0.999213818      0.885803904      
301.56           0.999215167      0.871701344      0.0152281783     -86.6100033      0.0152281783     -86.6100033      0.999215167      0.871701344      
302.6            0.999216419      0.857657668      0.0149834479     -86.5735209      0.0149834479     -86.5735209      0.999216419      0.857657668      
303.64           0.999217574      0.843672278      0.0147397457     -86.5354012      0.0147397457     -86.5354012      0.999217574      0.843672278      
304.68           0.999218635      0.829744578      0.0144970618     -86.4955748      0.0144970618     -86.4955748      0.999218635      0.829744578      
305.72           0.999219602      0.815873984      0.0142553868     -86.453968       0.0142553868     -86.453968       0.999219602      0.815873984      
306.76           0.999220475      0.802059917      0.014014711      -86.4105026      0.014014711      -86.4105026      0.999220475      0.802059917      
307.8            0.999221256      0.78830181       0.0137750254     -86.3650955      0.0137750254     -86.3650955      0.999221256      0.78830181       
308.84           0.999221946      0.774599099      0.0135363207     -86.3176584      0.0135363207     -86.3176584      0.999221946      0.774599099      
309.88           0.999222546      0.76095123       0.0132985881     -86.2680972      0.0132985881     -86.2680972      0.999222546      0.76095123       
310.92           0.999223057      0.747357656      0.0130618188     -86.2163118      0.0130618188     -86.2163118      0.999223057      0.747357656      
311.96           0.999223478      0.733817837      0.0128260042     -86.1621954      0.0128260042     -86.1621954      0.999223478      0.733817837      
313              0.999223813      0.720331241      0.012591136      -86.105634       0.012591136      -86.105634       0.999223813      0.720331241      
314.04           0.99922406       0.706897342      0.012357206      -86.0465058      0.012357206      -86.0465058      0.99922406       0.706897342      
315.08           0.999224222      0.693515622      0.0121242061     -85.9846804      0.0121242061     -85.9846804      0.999224222      0.693515622      
316.12           0.999224298      0.680185568      0.0118921285     -85.9200184      0.0118921285     -85.9200184      0.999224298      0.680185568      
317.16           0.99922429       0.666906675      0.0116609657     -85.8523701      0.0116609657     -85.8523701      0.99922429       0.666906675      
318.2            0.999224199      0.653678445      0.0114307101     -85.7815751      0.0114307101     -85.7815751      0.999224199      0.653678445      
319.24           0.999224025      0.640500386      0.0112013545     -85.7074608      0.0112013545     -85.7074608      0.999224025      0.640500386      
320.28           0.99922377       0.627372011      0.010972892      -85.6298416      0.010972892      -85.6298416      0.99922377       0.627372011      
321.32           0.999223433      0.614292843      0.0107453157     -85.5485175      0.0107453157     -85.5485175      0.999223433      0.614292843      
322.36           0.999223016      0.601262406      0.0105186191     -85.4632726      0.0105186191     -85.4632726      0.999223016      0.601262406      
323.4            0.999222519      0.588280235      0.0102927959     -85.3738738      0.0102927959     -85.3738738      0.999222519      0.588280235      
324.44           0.999221944      0.575345867      0.0100678399     -85.2800688      0.0100678399     -85.2800688      0.999221944      0.575345867      
325.48           0.99922129       0.562458848      0.00984374551    -85.1815841      0.00984374551    -85.1815841      0.99922129       0.562458848      
326.52           0.999220559      0.549618728      0.00962050709    -85.0781231      0.00962050709    -85.0781231      0.999220559      0.549618728      
327.56           0.999219752      0.536825062      0.00939811945    -84.9693628      0.00939811945    -84.9693628      0.999219752      0.536825062      
328.6            0.999218868      0.524077414      0.00917657771    -84.854952       0.00917657771    -84.854952       0.999218868      0.524077414      
329.64           0.999217909      0.51137535       0.00895587733    -84.7345069      0.00895587733    -84.7345069      0.999217909      0.51137535       
330.68           0.999216876      0.498718442      0.00873601415    -84.6076084      0.00873601415    -84.6076084      0.999216876      0.498718442      
331.72           0.999215768      0.48610627       0.00851698439    -84.473797       0.00851698439    -84.473797       0.999215768      0.48610627       
332.76           0.999214587      0.473538415      0.00829878476    -84.3325686      0.00829878476    -84.3325686      0.999214587      0.473538415      
333.8            0.999213334      0.461014467      0.00808141241    -84.1833686      0.00808141241    -84.1833686      0.999213334      0.461014467      
334.84           0.999212008      0.44853402       0.00786486507    -84.0255854      0.00786486507    -84.0255854      0.999212008      0.44853402       
335.88           0.999210611      0.436096671      0.00764914102    -83.8585432      0.00764914102    -83.8585432      0.999210611      0.436096671      
336.92           0.999209143      0.423702025      0.00743423924    -83.6814932      0.00743423924    -83.6814932      0.999209143      0.423702025      
337.96           0.999207605      0.411349689      0.00722015942    -83.4936036      0.00722015942    -83.4936036      0.999207605      0.411349689      
339              0.999205998      0.399039278      0.0070069021     -83.2939479      0.0070069021     -83.2939479      0.999205998      0.399039278      
340.04           0.999204321      0.386770409      0.00679446874    -83.0814909      0.00679446874    -83.0814909      0.999204321      0.386770409      
341.08           0.999202576      0.374542704      0.0065828619     -82.8550728      0.0065828619     -82.8550728      0.999202576      0.374542704      
342.12           0.999200763      0.362355791      0.00637208532    -82.6133898      0.00637208532    -82.6133898      0.999200763      0.362355791      
343.16           0.999198882      0.350209302      0.00616214417    -82.3549712      0.00616214417    -82.3549712      0.999198882      0.350209302      
344.2            0.999196935      0.338102872      0.00595304525    -82.0781518      0.00595304525    -82.0781518      0.999196935      0.338102872      
345.24           0.999194921      0.326036143      0.0057447972     -81.7810399      0.0057447972     -81.7810399      0.999194921      0.326036143      
346.28           0.999192842      0.314008759      0.00553741092    -81.4614766      0.00553741092    -81.4614766      0.999192842      0.314008759      
347.32           0.999190698      0.302020369      0.00533089986    -81.1169883      0.00533089986    -81.1169883      0.999190698      0.302020369      
348.36           0.999188489      0.290070626      0.00512528054    -80.7447278      0.00512528054    -80.7447278      0.999188489      0.290070626      
349.4            0.999186216      0.278159188      0.00492057318    -80.3414015      0.00492057318    -80.3414015      0.999186216      0.278159188      
350.44           0.999183879      0.266285716      0.00471680233    -79.9031802      0.00471680233    -79.9031802      0.999183879      0.266285716      
351.48           0.999181479      0.254449876      0.00451399791    -79.4255869      0.00451399791    -79.4255869      0.999181479      0.254449876      
352.52           0.999179016      0.242651337      0.00431219626    -78.9033566      0.00431219626    -78.9033566      0.999179016      0.242651337      
353.56           0.999176491      0.230889772      0.00411144172    -78.330258       0.00411144172    -78.330258       0.999176491      0.230889772      
354.6            0.999173904      0.219164858      0.00391178847    -77.6988663      0.00391178847    -77.6988663      0.999173904      0.219164858      
355.64           0.999171257      0.207476277      0.00371330303    -77.0002702      0.00371330303    -77.0002702      0.999171257      0.207476277      
356.68           0.999168548      0.195823713      0.00351606751    -76.2236905      0.00351606751    -76.2236905      0.999168548      0.195823713      
357.72           0.999165779      0.184206854      0.00332018398    -75.3559795      0.00332018398    -75.3559795      0.999165779      0.184206854      
358.76           0.99916295       0.172625392      0.00312578024    -74.3809564      0.00312578024    -74.3809564      0.99916295       0.172625392      
359.8            0.999160062      0.161079022      0.0029330178     -73.2785174      0.0029330178     -73.2785174      0.999160062      0.161079022      
360.84           0.999157114      0.149567443      0.00274210285    -72.0234297      0.00274210285    -72.0234297      0.999157114      0.149567443      
361.88           0.999154109      0.138090359      0.00255330167    -70.5836846      0.00255330167    -70.5836846      0.999154109      0.138090359      
362.92           0.999151045      0.126647474      0.00236696254    -68.9182291      0.00236696254    -68.9182291      0.999151045      0.126647474      
363.96           0.999147923      0.115238497      0.00218354748    -66.9738246      0.00218354748    -66.9738246      0.999147923      0.115238497      
365              0.999144744      0.103863142      0.00200367869    -64.6807023      0.00200367869    -64.6807023      0.999144744      0.103863142      
366.04           0.999141508      0.092521123      0.00182820763    -61.9466222      0.00182820763    -61.9466222      0.999141508      0.092521123      
367.08           0.999138215      0.0812121602     0.0016583183     -58.6490205      0.0016583183     -58.6490205      0.999138215      0.0812121602     
368.12           0.999134867      0.0699359753     0.00149568141    -54.625484       0.00149568141    -54.625484       0.999134867      0.0699359753     
369.16           0.999131462      0.0586922935     0.00134267942    -49.664703       0.00134267942    -49.664703       0.999131462      0.0586922935     
370.2            0.999128002      0.0474808432     0.00120271342    -43.5053228      0.00120271342    -43.5053228      0.999128002      0.0474808432     
371.24           0.999124488      0.0363013558     0.00108055145    -35.8619077      0.00108055145    -35.8619077      0.999124488      0.0363013558     
372.28           0.999120919      0.0251535655     0.000982520628   -26.5148603      0.000982520628   -26.5148603      0.999120919      0.0251535655     
373.32           0.999117295      0.0140372098     0.000916044686   -15.4985055      0.000916044686   -15.4985055      0.999117295      0.0140372098     
374.36           0.999113618      0.00295202894    0.000887877156   -3.32373364      0.000887877156   -3.32373364      0.999113618      0.00295202894    
375.4            0.999109887      -0.00810223407   0.000901266143   9.01903338       0.000901266143   9.01903338       0.999109887      -0.00810223407   
376.44           0.999106103      -0.0191258332    0.000954138824   20.4592257       0.000954138824   20.4592257       0.999106103      -0.0191258332    
377.48           0.999102266      -0.0301190198    0.00104019884    30.3252075       0.00104019884    30.3252075       0.999102266      -0.0301190198    
378.52           0.999098377      -0.0410820422    0.00115177005    38.4603877       0.00115177005    38.4603877       0.999098377      -0.0410820422    
379.56           0.999094435      -0.0520151462    0.00128197755    45.0327699       0.00128197755    45.0327699       0.999094435      -0.0520151462    
380.6            0.999090442      -0.062918575     0.00142551812    50.3216662       0.00142551812    50.3216662       0.999090442      -0.062918575     
381.64           0.999086397      -0.073792569     0.0015785754     54.6003509       0.0015785754     54.6003509       0.999086397      -0.073792569     
382.68           0.999082302      -0.0846373659    0.00173847321    58.0956349       0.00173847321    58.0956349       0.999082302      -0.0846373659    
383.72           0.999078155      -0.095453201     0.0019033401     60.983695        0.0019033401     60.983695        0.999078155      -0.095453201     
384.76           0.999073958      -0.106240307     0.00207185577    63.3979231       0.00207185577    63.3979231       0.999073958      -0.106240307     
385.8            0.999069711      -0.116998914     0.0022430755     65.4386829       0.0022430755     65.4386829       0.999069711      -0.116998914     
386.84           0.999065414      -0.12772925      0.00241631231    67.1817341       0.00241631231    67.1817341       0.999065414      -0.12772925      
387.88           0.999061067      -0.13843154      0.00259105837    68.6847213       0.00259105837    68.6847213       0.999061067      -0.13843154      
388.92           0.999056671      -0.149106008     0.00276693231    69.9919521       0.00276693231    69.9919521       0.999056671      -0.149106008     
389.96           0.999052226      -0.159752872     0.00294364346    71.1378585       0.00294364346    71.1378585       0.999052226      -0.159752872     
391              0.999047733      -0.170372352     0.00312096723    72.1494958       0.00312096723    72.1494958       0.999047733      -0.170372352     
392.04           0.999043191      -0.180964664     0.00329872789    73.0483526       0.00329872789    73.0483526       0.999043191      -0.180964664     
393.08           0.999038601      -0.191530021     0.00347678639    73.8516733       0.00347678639    73.8516733       0.999038601      -0.191530021     
394.12           0.999033963      -0.202068634     0.00365503159    74.5734309       0.00365503159    74.5734309       0.999033963      -0.202068634     
395.16           0.999029278      -0.212580712     0.00383337381    75.2250517       0.00383337381    75.2250517       0.999029278      -0.212580712     
396.2            0.999024545      -0.223066463     0.00401174008    75.8159588       0.00401174008    75.8159588       0.999024545      -0.223066463     
397.24           0.999019766      -0.233526091     0.00419007062    76.3539861       0.00419007062    76.3539861       0.999019766      -0.233526091     
398.28           0.999014939      -0.243959798     0.0043683161     76.845694        0.0043683161     76.845694        0.999014939      -0.243959798     
399.32           0.999010066      -0.254367785     0.00454643561    77.2966151       0.00454643561    77.2966151       0.999010066      -0.254367785     
400.36           0.999005147      -0.264750251     0.004724395      77.7114449       0.004724395      77.7114449       0.999005147      -0.264750251     
401.4            0.999000183      -0.275107391     0.00490216568    78.094193        0.00490216568    78.094193        0.999000183      -0.275107391     
402.44           0.998995172      -0.285439401     0.00507972362    78.4483024       0.00507972362    78.4483024       0.998995172      -0.285439401     
403.48           0.998990116      -0.295746471     0.00525704854    78.7767453       0.00525704854    78.7767453       0.998990116      -0.295746471     
404.52           0.998985015      -0.306028794     0.0054341233     79.0821          0.0054341233     79.0821          0.998985015      -0.306028794     
405.56           0.998979869      -0.316286556     0.00561093339    79.3666138       0.00561093339    79.3666138       0.998979869      -0.316286556     
406.6            0.998974678      -0.326519945     0.00578746648    79.6322537       0.00578746648    79.6322537       0.998974678      -0.326519945     
407.64           0.998969443      -0.336729145     0.00596371215    79.8807489       0.00596371215    79.8807489       0.998969443      -0.336729145     
408.68           0.998964163      -0.346914338     0.00613966153    80.113625        0.00613966153    80.113625        0.998964163      -0.346914338     
409.72           0.99895884       -0.357075706     0.00631530713    80.3322333       0.00631530713    80.3322333       0.99895884       -0.357075706     
410.76           0.998953472      -0.367213427     0.00649064262    80.5377746       0.00649064262    80.5377746       0.998953472      -0.367213427     
411.8            0.998948062      -0.377327679     0.00666566266    80.7313195       0.00666566266    80.7313195       0.998948062      -0.377327679     
412.84           0.998942608      -0.387418636     0.00684036278    80.9138255       0.00684036278    80.9138255       0.998942608      -0.387418636     
413.88           0.99893711       -0.397486473     0.00701473927    81.0861517       0.00701473927    81.0861517       0.99893711       -0.397486473     
414.92           0.99893157       -0.407531362     0.00718878906    81.2490705       0.00718878906    81.2490705       0.99893157       -0.407531362     
415.96           0.998925988      -0.417553472     0.00736250965    81.4032789       0.00736250965    81.4032789       0.998925988      -0.417553472     
417              0.998920363      -0.427552972     0.00753589904    81.5494069       0.00753589904    81.5494069       0.998920363      -0.427552972     
418.04           0.998914695      -0.437530029     0.00770895565    81.6880258       0.00770895565    81.6880258       0.998914695      -0.437530029     
419.08           0.998908986      -0.447484808     0.00788167832    81.8196543       0.00788167832    81.8196543       0.998908986      -0.447484808     
420              0.998903901      -0.456272519     0.00803419239    81.9306475       0.00803419239    81.9306475       0.998903901      -0.456272519     
