! Coilcraft 1812CS-272 Chip Inductor				
! 31 July 2002			
# MHZ S MA R 50
!Freq             MagS11           AngS11           MagS21           AngS21           MagS12           AngS12           MagS22           AngS22
1                0.165531256      66.9094477       0.947397857      -9.24894317      0.947397857      -9.24894317      0.165531256      66.9094477       
1.77             0.279258057      65.4382436       0.919687199      -16.0316879      0.919687199      -16.0316879      0.279258057      65.4382436       
2.54             0.382736257      61.3343081       0.882774754      -22.3597334      0.882774754      -22.3597334      0.382736257      61.3343081       
3.31             0.473550993      56.7845633       0.839904059      -28.1445454      0.839904059      -28.1445454      0.473550993      56.7845633       
4.08             0.551336759      52.3673923       0.794156294      -33.3532722      0.794156294      -33.3532722      0.551336759      52.3673923       
4.85             0.616908502      48.2783274       0.747967365      -37.9958674      0.747967365      -37.9958674      0.616908502      48.2783274       
5.62             0.671671519      44.5753621       0.703023388      -42.1093282      0.703023388      -42.1093282      0.671671519      44.5753621       
6.39             0.717213649      41.2579811       0.66035417       -45.7442745      0.66035417       -45.7442745      0.717213649      41.2579811       
7.16             0.755066328      38.3003268       0.620495022      -48.9555604      0.620495022      -48.9555604      0.755066328      38.3003268       
7.93             0.786590977      35.6669504       0.583644493      -51.7966133      0.583644493      -51.7966133      0.786590977      35.6669504       
8.7              0.812942885      33.3205345       0.54978982       -54.3165093      0.54978982       -54.3165093      0.812942885      33.3205345       
9.47             0.835076091      31.225555        0.518796321      -56.5587973      0.518796321      -56.5587973      0.835076091      31.225555        
10.24            0.85376627       29.3498314       0.490466633      -58.5613288      0.490466633      -58.5613288      0.85376627       29.3498314       
11.01            0.86963894       27.6649898       0.464577877      -60.3566026      0.464577877      -60.3566026      0.86963894       27.6649898       
11.78            0.883196844      26.1463905       0.440903777      -61.9723339      0.440903777      -61.9723339      0.883196844      26.1463905       
12.55            0.894843975      24.7728141       0.419227049      -63.4320832      0.419227049      -63.4320832      0.894843975      24.7728141       
13.32            0.904905597      23.526062        0.399345693      -64.7558641      0.399345693      -64.7558641      0.904905597      23.526062        
14.09            0.913644456      22.3905485       0.381075628      -65.960692       0.381075628      -65.960692       0.913644456      22.3905485       
14.86            0.921273682      21.3529216       0.364251182      -67.0610615      0.364251182      -67.0610615      0.921273682      21.3529216       
15.63            0.927966982      20.4017251       0.348724418      -68.0693525      0.348724418      -68.0693525      0.927966982      20.4017251       
16.4             0.93386664       19.5271078       0.334363854      -68.9961723      0.334363854      -68.9961723      0.93386664       19.5271078       
17.17            0.939089814      18.7205754       0.321052939      -69.8506397      0.321052939      -69.8506397      0.939089814      18.7205754       
17.94            0.943733472      17.9747808       0.30868848       -70.6406226      0.30868848       -70.6406226      0.943733472      17.9747808       
18.71            0.947878289      17.2833493       0.297179121      -71.3729339      0.297179121      -71.3729339      0.947878289      17.2833493       
19.48            0.951591727      16.6407309       0.28644394       -72.0534942      0.28644394       -72.0534942      0.951591727      16.6407309       
20.25            0.954930478      16.0420781       0.276411181      -72.687468       0.276411181      -72.687468       0.954930478      16.0420781       
21.02            0.957942413      15.4831423       0.267017119      -73.2793752      0.267017119      -73.2793752      0.957942413      15.4831423       
21.79            0.960668142      14.960188        0.258205065      -73.8331861      0.258205065      -73.8331861      0.960668142      14.960188        
22.56            0.963142268      14.4699205       0.249924497      -74.3523994      0.249924497      -74.3523994      0.963142268      14.4699205       
23.33            0.965394406      14.0094241       0.242130299      -74.8401083      0.242130299      -74.8401083      0.965394406      14.0094241       
24.1             0.967450002      13.5761116       0.234782095      -75.2990562      0.234782095      -75.2990562      0.967450002      13.5761116       
24.87            0.969331012      13.1676799       0.227843684      -75.7316834      0.227843684      -75.7316834      0.969331012      13.1676799       
25.64            0.971056446      12.7820733       0.221282529      -76.1401672      0.221282529      -76.1401672      0.971056446      12.7820733       
26.41            0.972642829      12.4174518       0.215069336      -76.5264553      0.215069336      -76.5264553      0.972642829      12.4174518       
27.18            0.974104573      12.0721641       0.209177668      -76.892295       0.209177668      -76.892295       0.974104573      12.0721641       
27.95            0.975454289      11.7447249       0.20358362       -77.2392577      0.20358362       -77.2392577      0.975454289      11.7447249       
28.72            0.976703049      11.4337944       0.198265535      -77.5687601      0.198265535      -77.5687601      0.976703049      11.4337944       
29.49            0.977860602      11.1381614       0.193203753      -77.8820827      0.193203753      -77.8820827      0.977860602      11.1381614       
30.26            0.978935558      10.8567288       0.18838039       -78.1803851      0.18838039       -78.1803851      0.978935558      10.8567288       
31.03            0.979935545      10.5885002       0.183779153      -78.4647203      0.183779153      -78.4647203      0.979935545      10.5885002       
31.8             0.980867332      10.3325691       0.179385165      -78.736046       0.179385165      -78.736046       0.980867332      10.3325691       
32.57            0.981736951      10.0881091       0.175184822      -78.9952354      0.175184822      -78.9952354      0.981736951      10.0881091       
33.34            0.982549784      9.85436518       0.171165664      -79.2430858      0.171165664      -79.2430858      0.982549784      9.85436518       
34.11            0.983310646      9.63064647       0.167316255      -79.4803271      0.167316255      -79.4803271      0.983310646      9.63064647       
34.88            0.984023856      9.41631952       0.163626087      -79.7076281      0.163626087      -79.7076281      0.984023856      9.41631952       
35.65            0.984693296      9.21080257       0.160085484      -79.9256032      0.160085484      -79.9256032      0.984693296      9.21080257       
36.42            0.985322462      9.01356044       0.156685529      -80.1348174      0.156685529      -80.1348174      0.985322462      9.01356044       
37.19            0.985914509      8.82410002       0.153417988      -80.3357915      0.153417988      -80.3357915      0.985914509      8.82410002       
37.96            0.986472292      8.64196623       0.150275247      -80.5290059      0.150275247      -80.5290059      0.986472292      8.64196623       
38.73            0.986998396      8.46673848       0.147250259      -80.7149046      0.147250259      -80.7149046      0.986998396      8.46673848       
39.5             0.987495169      8.29802748       0.144336489      -80.8938986      0.144336489      -80.8938986      0.987495169      8.29802748       
40.27            0.987964745      8.13547242       0.141527871      -81.0663689      0.141527871      -81.0663689      0.987964745      8.13547242       
41.04            0.988409069      7.97873842       0.138818767      -81.232669       0.138818767      -81.232669       0.988409069      7.97873842       
41.81            0.988829914      7.82751428       0.136203929      -81.3931273      0.136203929      -81.3931273      0.988829914      7.82751428       
42.58            0.989228904      7.68151041       0.133678469      -81.5480496      0.133678469      -81.5480496      0.989228904      7.68151041       
43.35            0.989607522      7.54045702       0.131237828      -81.6977208      0.131237828      -81.6977208      0.989607522      7.54045702       
44.12            0.989967128      7.40410248       0.128877746      -81.8424063      0.128877746      -81.8424063      0.989967128      7.40410248       
44.89            0.990308972      7.27221181       0.126594243      -81.9823544      0.126594243      -81.9823544      0.990308972      7.27221181       
45.66            0.990634203      7.14456534       0.124383595      -82.1177969      0.124383595      -82.1177969      0.990634203      7.14456534       
46.43            0.990943877      7.02095746       0.12224231       -82.2489508      0.12224231       -82.2489508      0.990943877      7.02095746       
47.2             0.99123897       6.9011956        0.120167116      -82.3760194      0.120167116      -82.3760194      0.99123897       6.9011956        
47.97            0.99152038       6.78509913       0.118154943      -82.4991935      0.118154943      -82.4991935      0.99152038       6.78509913       
48.74            0.991788939      6.67249851       0.116202903      -82.618652       0.116202903      -82.618652       0.991788939      6.67249851       
49.51            0.992045416      6.56323443       0.114308284      -82.734563       0.114308284      -82.734563       0.992045416      6.56323443       
50.28            0.992290523      6.45715708       0.112468531      -82.8470848      0.112468531      -82.8470848      0.992290523      6.45715708       
51.05            0.992524922      6.35412541       0.110681238      -82.9563661      0.110681238      -82.9563661      0.992524922      6.35412541       
51.82            0.992749226      6.25400656       0.108944137      -83.0625474      0.108944137      -83.0625474      0.992749226      6.25400656       
52.59            0.992964005      6.15667524       0.107255088      -83.1657608      0.107255088      -83.1657608      0.992964005      6.15667524       
53.36            0.99316979       6.06201319       0.105612068      -83.2661312      0.105612068      -83.2661312      0.99316979       6.06201319       
54.13            0.993367073      5.96990875       0.104013168      -83.3637764      0.104013168      -83.3637764      0.993367073      5.96990875       
54.9             0.993556317      5.88025635       0.102456581      -83.458808       0.102456581      -83.458808       0.993556317      5.88025635       
55.67            0.993737951      5.79295614       0.100940597      -83.5513312      0.100940597      -83.5513312      0.993737951      5.79295614       
56.44            0.993912376      5.70791357       0.0994635969     -83.6414459      0.0994635969     -83.6414459      0.993912376      5.70791357       
57.21            0.994079968      5.62503911       0.0980240445     -83.7292467      0.0980240445     -83.7292467      0.994079968      5.62503911       
57.98            0.994241077      5.54424784       0.0966204842     -83.814823       0.0966204842     -83.814823       0.994241077      5.54424784       
58.75            0.994396033      5.46545924       0.095251534      -83.89826        0.095251534      -83.89826        0.994396033      5.46545924       
59.52            0.994545144      5.38859684       0.0939158812     -83.9796383      0.0939158812     -83.9796383      0.994545144      5.38859684       
60.29            0.994688698      5.31358802       0.0926122785     -84.0590346      0.0926122785     -84.0590346      0.994688698      5.31358802       
61.06            0.994826968      5.24036373       0.0913395398     -84.1365216      0.0913395398     -84.1365216      0.994826968      5.24036373       
61.83            0.994960208      5.16885833       0.0900965364     -84.2121688      0.0900965364     -84.2121688      0.994960208      5.16885833       
62.6             0.995088659      5.09900931       0.0888821938     -84.286042       0.0888821938     -84.286042       0.995088659      5.09900931       
63.37            0.995212545      5.03075717       0.0876954882     -84.358204       0.0876954882     -84.358204       0.995212545      5.03075717       
64.14            0.99533208       4.96404521       0.086535444      -84.4287146      0.086535444      -84.4287146      0.99533208       4.96404521       
64.91            0.995447463      4.89881937       0.0854011307     -84.4976308      0.0854011307     -84.4976308      0.995447463      4.89881937       
65.68            0.995558884      4.83502809       0.0842916604     -84.565007       0.0842916604     -84.565007       0.995558884      4.83502809       
66.45            0.99566652       4.77262217       0.0832061852     -84.6308952      0.0832061852     -84.6308952      0.99566652       4.77262217       
67.22            0.99577054       4.71155459       0.0821438955     -84.6953448      0.0821438955     -84.6953448      0.99577054       4.71155459       
67.99            0.995871103      4.65178047       0.0811040174     -84.7584031      0.0811040174     -84.7584031      0.995871103      4.65178047       
68.76            0.995968359      4.59325689       0.0800858109     -84.8201155      0.0800858109     -84.8201155      0.995968359      4.59325689       
69.53            0.996062451      4.53594279       0.0790885682     -84.8805252      0.0790885682     -84.8805252      0.996062451      4.53594279       
70.3             0.996153512      4.47979892       0.0781116118     -84.9396735      0.0781116118     -84.9396735      0.996153512      4.47979892       
71.07            0.996241671      4.42478767       0.0771542929     -84.9976         0.0771542929     -84.9976         0.996241671      4.42478767       
71.84            0.996327048      4.37087303       0.0762159901     -85.0543427      0.0762159901     -85.0543427      0.996327048      4.37087303       
72.61            0.996409757      4.31802051       0.0752961077     -85.1099378      0.0752961077     -85.1099378      0.996409757      4.31802051       
73.38            0.996489909      4.26619703       0.0743940748     -85.1644203      0.0743940748     -85.1644203      0.996489909      4.26619703       
74.15            0.996567605      4.21537088       0.0735093434     -85.2178234      0.0735093434     -85.2178234      0.996567605      4.21537088       
74.92            0.996642944      4.16551162       0.0726413879     -85.2701792      0.0726413879     -85.2701792      0.996642944      4.16551162       
75.69            0.996716019      4.11659006       0.0717897036     -85.3215183      0.0717897036     -85.3215183      0.996716019      4.11659006       
76.46            0.996786918      4.06857814       0.0709538058     -85.3718704      0.0709538058     -85.3718704      0.996786918      4.06857814       
77.23            0.996855726      4.02144893       0.0701332289     -85.4212635      0.0701332289     -85.4212635      0.996855726      4.02144893       
78               0.996922524      3.97517654       0.0693275251     -85.4697251      0.0693275251     -85.4697251      0.996922524      3.97517654       
78.77            0.996987386      3.92973607       0.068536264      -85.5172811      0.068536264      -85.5172811      0.996987386      3.92973607       
79.54            0.997050387      3.8851036        0.0677590317     -85.5639568      0.0677590317     -85.5639568      0.997050387      3.8851036        
80.31            0.997111596      3.84125609       0.0669954298     -85.6097762      0.0669954298     -85.6097762      0.997111596      3.84125609       
81.08            0.997171078      3.79817138       0.0662450747     -85.6547626      0.0662450747     -85.6547626      0.997171078      3.79817138       
81.85            0.997228896      3.75582813       0.0655075973     -85.6989383      0.0655075973     -85.6989383      0.997228896      3.75582813       
82.62            0.997285112      3.7142058        0.0647826417     -85.742325       0.0647826417     -85.742325       0.997285112      3.7142058        
83.39            0.997339782      3.67328457       0.0640698652     -85.7849432      0.0640698652     -85.7849432      0.997339782      3.67328457       
84.16            0.997392962      3.63304537       0.0633689374     -85.826813       0.0633689374     -85.826813       0.997392962      3.63304537       
84.93            0.997444703      3.5934698        0.0626795397     -85.8679536      0.0626795397     -85.8679536      0.997444703      3.5934698        
85.7             0.997495057      3.55454012       0.0620013648     -85.9083835      0.0620013648     -85.9083835      0.997495057      3.55454012       
86.47            0.997544071      3.5162392        0.0613341162     -85.9481206      0.0613341162     -85.9481206      0.997544071      3.5162392        
87.24            0.99759179       3.47855054       0.0606775077     -85.9871822      0.0606775077     -85.9871822      0.99759179       3.47855054       
88.01            0.997638259      3.44145817       0.060031263      -86.0255847      0.060031263      -86.0255847      0.997638259      3.44145817       
88.78            0.997683521      3.40494671       0.0593951153     -86.0633444      0.0593951153     -86.0633444      0.997683521      3.40494671       
89.55            0.997727615      3.36900128       0.0587688067     -86.1004765      0.0587688067     -86.1004765      0.997727615      3.36900128       
90.32            0.997770579      3.33360751       0.0581520883     -86.1369962      0.0581520883     -86.1369962      0.997770579      3.33360751       
91.09            0.997812452      3.2987515        0.0575447192     -86.1729177      0.0575447192     -86.1729177      0.997812452      3.2987515        
91.86            0.997853268      3.26441984       0.0569464665     -86.208255       0.0569464665     -86.208255       0.997853268      3.26441984       
92.63            0.997893062      3.23059954       0.0563571053     -86.2430216      0.0563571053     -86.2430216      0.997893062      3.23059954       
93.4             0.997931866      3.19727803       0.0557764175     -86.2772305      0.0557764175     -86.2772305      0.997931866      3.19727803       
94.17            0.997969711      3.16444317       0.0552041926     -86.3108941      0.0552041926     -86.3108941      0.997969711      3.16444317       
94.94            0.998006628      3.13208318       0.0546402264     -86.3440247      0.0546402264     -86.3440247      0.998006628      3.13208318       
95.71            0.998042646      3.10018669       0.0540843213     -86.376634       0.0540843213     -86.376634       0.998042646      3.10018669       
96.48            0.998077793      3.06874267       0.0535362863     -86.4087333      0.0535362863     -86.4087333      0.998077793      3.06874267       
97.25            0.998112094      3.03774044       0.0529959359     -86.4403336      0.0529959359     -86.4403336      0.998112094      3.03774044       
98.02            0.998145577      3.00716965       0.0524630905     -86.4714456      0.0524630905     -86.4714456      0.998145577      3.00716965       
98.79            0.998178265      2.97702028       0.0519375763     -86.5020793      0.0519375763     -86.5020793      0.998178265      2.97702028       
99.56            0.998210182      2.94728261       0.0514192246     -86.5322449      0.0514192246     -86.5322449      0.998210182      2.94728261       
100.33           0.998241352      2.91794721       0.0509078717     -86.561952       0.0509078717     -86.561952       0.998241352      2.91794721       
101.1            0.998271796      2.88900495       0.0504033591     -86.5912097      0.0504033591     -86.5912097      0.998271796      2.88900495       
101.87           0.998301536      2.86044696       0.0499055329     -86.6200272      0.0499055329     -86.6200272      0.998301536      2.86044696       
102.64           0.998330592      2.83226465       0.0494142439     -86.6484131      0.0494142439     -86.6484131      0.998330592      2.83226465       
103.41           0.998358983      2.80444967       0.0489293471     -86.6763759      0.0489293471     -86.6763759      0.998358983      2.80444967       
104.18           0.998386729      2.77699393       0.0484507019     -86.7039238      0.0484507019     -86.7039238      0.998386729      2.77699393       
104.95           0.998413848      2.74988955       0.0479781718     -86.7310646      0.0479781718     -86.7310646      0.998413848      2.74988955       
105.72           0.998440357      2.72312891       0.047511624      -86.7578061      0.047511624      -86.7578061      0.998440357      2.72312891       
106.49           0.998466274      2.69670458       0.0470509299     -86.7841557      0.0470509299     -86.7841557      0.998466274      2.69670458       
107.26           0.998491615      2.67060937       0.0465959643     -86.8101205      0.0465959643     -86.8101205      0.998491615      2.67060937       
108.03           0.998516396      2.64483626       0.0461466055     -86.8357075      0.0461466055     -86.8357075      0.998516396      2.64483626       
108.8            0.998540632      2.61937846       0.0457027354     -86.8609236      0.0457027354     -86.8609236      0.998540632      2.61937846       
109.57           0.998564338      2.59422936       0.045264239      -86.8857751      0.045264239      -86.8857751      0.998564338      2.59422936       
110.34           0.998587527      2.56938252       0.0448310047     -86.9102685      0.0448310047     -86.9102685      0.998587527      2.56938252       
111.11           0.998610215      2.54483169       0.0444029238     -86.9344099      0.0444029238     -86.9344099      0.998610215      2.54483169       
111.88           0.998632414      2.52057078       0.0439798905     -86.9582053      0.0439798905     -86.9582053      0.998632414      2.52057078       
112.65           0.998654137      2.49659389       0.0435618022     -86.9816603      0.0435618022     -86.9816603      0.998654137      2.49659389       
113.42           0.998675396      2.47289525       0.0431485587     -87.0047807      0.0431485587     -87.0047807      0.998675396      2.47289525       
114.19           0.998696204      2.44946927       0.0427400626     -87.0275717      0.0427400626     -87.0275717      0.998696204      2.44946927       
114.96           0.998716572      2.42631048       0.0423362192     -87.0500387      0.0423362192     -87.0500387      0.998716572      2.42631048       
115.73           0.998736511      2.40341359       0.0419369362     -87.0721867      0.0419369362     -87.0721867      0.998736511      2.40341359       
116.5            0.998756032      2.38077341       0.0415421237     -87.0940206      0.0415421237     -87.0940206      0.998756032      2.38077341       
117.27           0.998775146      2.35838492       0.0411516943     -87.1155452      0.0411516943     -87.1155452      0.998775146      2.35838492       
118.04           0.998793864      2.33624321       0.0407655626     -87.1367651      0.0407655626     -87.1367651      0.998793864      2.33624321       
118.81           0.998812193      2.31434351       0.0403836457     -87.1576847      0.0403836457     -87.1576847      0.998812193      2.31434351       
119.58           0.998830146      2.29268116       0.0400058625     -87.1783085      0.0400058625     -87.1783085      0.998830146      2.29268116       
120.35           0.998847729      2.27125163       0.0396321342     -87.1986405      0.0396321342     -87.1986405      0.998847729      2.27125163       
121.12           0.998864954      2.25005048       0.039262384      -87.2186849      0.039262384      -87.2186849      0.998864954      2.25005048       
121.89           0.998881827      2.22907342       0.0388965368     -87.2384455      0.0388965368     -87.2384455      0.998881827      2.22907342       
122.66           0.998898358      2.20831624       0.0385345196     -87.2579261      0.0385345196     -87.2579261      0.998898358      2.20831624       
123.43           0.998914555      2.18777485       0.0381762612     -87.2771305      0.0381762612     -87.2771305      0.998914555      2.18777485       
124.2            0.998930426      2.16744523       0.0378216919     -87.2960621      0.0378216919     -87.2960621      0.998930426      2.16744523       
124.97           0.998945978      2.14732351       0.037470744      -87.3147244      0.037470744      -87.3147244      0.998945978      2.14732351       
125.74           0.998961219      2.12740586       0.0371233513     -87.3331206      0.0371233513     -87.3331206      0.998961219      2.12740586       
126.51           0.998976156      2.10768858       0.0367794493     -87.3512541      0.0367794493     -87.3512541      0.998976156      2.10768858       
127.28           0.998990796      2.08816806       0.0364389749     -87.3691278      0.0364389749     -87.3691278      0.998990796      2.08816806       
128.05           0.999005146      2.06884074       0.0361018666     -87.3867448      0.0361018666     -87.3867448      0.999005146      2.06884074       
128.82           0.999019212      2.04970318       0.0357680644     -87.4041079      0.0357680644     -87.4041079      0.999019212      2.04970318       
129.59           0.999033001      2.03075202       0.0354375097     -87.4212199      0.0354375097     -87.4212199      0.999033001      2.03075202       
130.36           0.999046519      2.01198395       0.0351101452     -87.4380834      0.0351101452     -87.4380834      0.999046519      2.01198395       
131.13           0.999059772      1.99339577       0.034785915      -87.4547011      0.034785915      -87.4547011      0.999059772      1.99339577       
131.9            0.999072766      1.97498434       0.0344647644     -87.4710754      0.0344647644     -87.4710754      0.999072766      1.97498434       
132.67           0.999085507      1.95674659       0.0341466403     -87.4872087      0.0341466403     -87.4872087      0.999085507      1.95674659       
133.44           0.999098         1.93867952       0.0338314903     -87.5031033      0.0338314903     -87.5031033      0.999098         1.93867952       
134.21           0.99911025       1.92078021       0.0335192635     -87.5187613      0.0335192635     -87.5187613      0.99911025       1.92078021       
134.98           0.999122264      1.9030458        0.0332099103     -87.5341848      0.0332099103     -87.5341848      0.999122264      1.9030458        
135.75           0.999134045      1.88547349       0.0329033819     -87.549376       0.0329033819     -87.549376       0.999134045      1.88547349       
136.52           0.999145599      1.86806054       0.0325996307     -87.5643366      0.0325996307     -87.5643366      0.999145599      1.86806054       
137.29           0.99915693       1.85080429       0.0322986103     -87.5790685      0.0322986103     -87.5790685      0.99915693       1.85080429       
138.06           0.999168044      1.83370212       0.0320002751     -87.5935734      0.0320002751     -87.5935734      0.999168044      1.83370212       
138.83           0.999178945      1.81675148       0.0317045807     -87.6078531      0.0317045807     -87.6078531      0.999178945      1.81675148       
139.6            0.999189637      1.79994987       0.0314114836     -87.6219091      0.0314114836     -87.6219091      0.999189637      1.79994987       
140.37           0.999200124      1.78329484       0.0311209413     -87.6357429      0.0311209413     -87.6357429      0.999200124      1.78329484       
141.14           0.999210412      1.766784         0.0308329122     -87.649356       0.0308329122     -87.649356       0.999210412      1.766784         
141.91           0.999220503      1.75041501       0.0305473554     -87.6627495      0.0305473554     -87.6627495      0.999220503      1.75041501       
142.68           0.999230401      1.73418559       0.0302642312     -87.6759249      0.0302642312     -87.6759249      0.999230401      1.73418559       
143.45           0.999240112      1.71809349       0.0299835005     -87.6888832      0.0299835005     -87.6888832      0.999240112      1.71809349       
144.22           0.999249638      1.70213652       0.0297051253     -87.7016257      0.0297051253     -87.7016257      0.999249638      1.70213652       
144.99           0.999258983      1.68631253       0.0294290681     -87.7141532      0.0294290681     -87.7141532      0.999258983      1.68631253       
145.76           0.999268151      1.67061943       0.0291552924     -87.7264667      0.0291552924     -87.7264667      0.999268151      1.67061943       
146.53           0.999277144      1.65505515       0.0288837623     -87.7385671      0.0288837623     -87.7385671      0.999277144      1.65505515       
147.3            0.999285968      1.63961769       0.0286144428     -87.7504552      0.0286144428     -87.7504552      0.999285968      1.63961769       
148.07           0.999294624      1.62430506       0.0283472995     -87.7621317      0.0283472995     -87.7621317      0.999294624      1.62430506       
148.84           0.999303116      1.60911534       0.0280822989     -87.7735972      0.0280822989     -87.7735972      0.999303116      1.60911534       
149.61           0.999311447      1.59404664       0.0278194079     -87.7848523      0.0278194079     -87.7848523      0.999311447      1.59404664       
150.38           0.999319621      1.5790971        0.0275585944     -87.7958974      0.0275585944     -87.7958974      0.999319621      1.5790971        
151.15           0.999327639      1.56426491       0.0272998266     -87.8067329      0.0272998266     -87.8067329      0.999327639      1.56426491       
151.92           0.999335506      1.54954829       0.0270430737     -87.8173592      0.0270430737     -87.8173592      0.999335506      1.54954829       
152.69           0.999343224      1.53494549       0.0267883052     -87.8277765      0.0267883052     -87.8277765      0.999343224      1.53494549       
153.46           0.999350795      1.5204548        0.0265354915     -87.8379849      0.0265354915     -87.8379849      0.999350795      1.5204548        
154.23           0.999358223      1.50607456       0.0262846033     -87.8479846      0.0262846033     -87.8479846      0.999358223      1.50607456       
155              0.99936551       1.49180312       0.026035612      -87.8577756      0.026035612      -87.8577756      0.99936551       1.49180312       
155.77           0.999372658      1.47763887       0.0257884898     -87.8673578      0.0257884898     -87.8673578      0.999372658      1.47763887       
156.54           0.999379671      1.46358023       0.025543209      -87.876731       0.025543209      -87.876731       0.999379671      1.46358023       
157.31           0.99938655       1.44962566       0.0252997429     -87.885895       0.0252997429     -87.885895       0.99938655       1.44962566       
158.08           0.999393298      1.43577364       0.0250580648     -87.8948496      0.0250580648     -87.8948496      0.999393298      1.43577364       
158.85           0.999399917      1.42202268       0.0248181491     -87.9035943      0.0248181491     -87.9035943      0.999399917      1.42202268       
159.62           0.99940641       1.40837133       0.0245799702     -87.9121286      0.0245799702     -87.9121286      0.99940641       1.40837133       
160.39           0.999412778      1.39481816       0.0243435032     -87.920452       0.0243435032     -87.920452       0.999412778      1.39481816       
161.16           0.999419025      1.38136175       0.0241087238     -87.9285639      0.0241087238     -87.9285639      0.999419025      1.38136175       
161.93           0.999425151      1.36800074       0.0238756079     -87.9364635      0.0238756079     -87.9364635      0.999425151      1.36800074       
162.7            0.999431159      1.35473378       0.023644132      -87.9441499      0.023644132      -87.9441499      0.999431159      1.35473378       
163.47           0.999437052      1.34155953       0.0234142731     -87.9516224      0.0234142731     -87.9516224      0.999437052      1.34155953       
164.24           0.99944283       1.3284767        0.0231860084     -87.9588799      0.0231860084     -87.9588799      0.99944283       1.3284767        
165.01           0.999448497      1.31548401       0.0229593158     -87.9659213      0.0229593158     -87.9659213      0.999448497      1.31548401       
165.78           0.999454054      1.3025802        0.0227341734     -87.9727455      0.0227341734     -87.9727455      0.999454054      1.3025802        
166.55           0.999459502      1.28976406       0.0225105598     -87.9793511      0.0225105598     -87.9793511      0.999459502      1.28976406       
167.32           0.999464843      1.27703437       0.0222884541     -87.9857368      0.0222884541     -87.9857368      0.999464843      1.27703437       
168.09           0.99947008       1.26438994       0.0220678355     -87.9919011      0.0220678355     -87.9919011      0.99947008       1.26438994       
168.86           0.999475215      1.25182962       0.0218486838     -87.9978425      0.0218486838     -87.9978425      0.999475215      1.25182962       
169.63           0.999480247      1.23935226       0.0216309792     -88.0035593      0.0216309792     -88.0035593      0.999480247      1.23935226       
170.4            0.99948518       1.22695674       0.021414702      -88.0090496      0.021414702      -88.0090496      0.99948518       1.22695674       
171.17           0.999490015      1.21464195       0.0211998331     -88.0143117      0.0211998331     -88.0143117      0.999490015      1.21464195       
171.94           0.999494754      1.20240683       0.0209863536     -88.0193434      0.0209863536     -88.0193434      0.999494754      1.20240683       
172.71           0.999499397      1.19025029       0.0207742451     -88.0241427      0.0207742451     -88.0241427      0.999499397      1.19025029       
173.48           0.999503947      1.1781713        0.0205634894     -88.0287074      0.0205634894     -88.0287074      0.999503947      1.1781713        
174.25           0.999508405      1.16616884       0.0203540686     -88.0330351      0.0203540686     -88.0330351      0.999508405      1.16616884       
175.02           0.999512772      1.15424189       0.0201459651     -88.0371232      0.0201459651     -88.0371232      0.999512772      1.15424189       
175.79           0.999517051      1.14238947       0.0199391618     -88.0409693      0.0199391618     -88.0409693      0.999517051      1.14238947       
176.56           0.999521241      1.1306106        0.0197336416     -88.0445706      0.0197336416     -88.0445706      0.999521241      1.1306106        
177.33           0.999525345      1.11890432       0.019529388      -88.0479241      0.019529388      -88.0479241      0.999525345      1.11890432       
178.1            0.999529364      1.10726971       0.0193263846     -88.0510269      0.0193263846     -88.0510269      0.999529364      1.10726971       
178.87           0.9995333        1.09570583       0.0191246153     -88.0538759      0.0191246153     -88.0538759      0.9995333        1.09570583       
179.64           0.999537152      1.08421178       0.0189240644     -88.0564677      0.0189240644     -88.0564677      0.999537152      1.08421178       
180.41           0.999540923      1.07278666       0.0187247162     -88.0587988      0.0187247162     -88.0587988      0.999540923      1.07278666       
181.18           0.999544615      1.06142961       0.0185265556     -88.0608656      0.0185265556     -88.0608656      0.999544615      1.06142961       
181.95           0.999548227      1.05013975       0.0183295674     -88.0626644      0.0183295674     -88.0626644      0.999548227      1.05013975       
182.72           0.999551762      1.03891624       0.0181337371     -88.0641912      0.0181337371     -88.0641912      0.999551762      1.03891624       
183.49           0.99955522       1.02775824       0.01793905       -88.0654419      0.01793905       -88.0654419      0.99955522       1.02775824       
184.26           0.999558602      1.01666495       0.0177454919     -88.0664121      0.0177454919     -88.0664121      0.999558602      1.01666495       
185.03           0.99956191       1.00563554       0.0175530488     -88.0670974      0.0175530488     -88.0670974      0.99956191       1.00563554       
185.8            0.999565145      0.994669232      0.0173617068     -88.067493       0.0173617068     -88.067493       0.999565145      0.994669232      
186.57           0.999568307      0.983765243      0.0171714525     -88.0675941      0.0171714525     -88.0675941      0.999568307      0.983765243      
187.34           0.999571398      0.972922807      0.0169822724     -88.0673955      0.0169822724     -88.0673955      0.999571398      0.972922807      
188.11           0.999574419      0.96214117       0.0167941535     -88.0668919      0.0167941535     -88.0668919      0.999574419      0.96214117       
188.88           0.999577371      0.951419589      0.0166070829     -88.0660777      0.0166070829     -88.0660777      0.999577371      0.951419589      
189.65           0.999580254      0.940757335      0.0164210478     -88.0649472      0.0164210478     -88.0649472      0.999580254      0.940757335      
190.42           0.99958307       0.93015369       0.0162360357     -88.0634942      0.0162360357     -88.0634942      0.99958307       0.93015369       
191.19           0.999585819      0.919607948      0.0160520344     -88.0617124      0.0160520344     -88.0617124      0.999585819      0.919607948      
191.96           0.999588503      0.909119412      0.0158690318     -88.0595953      0.0158690318     -88.0595953      0.999588503      0.909119412      
192.73           0.999591123      0.8986874        0.0156870159     -88.0571361      0.0156870159     -88.0571361      0.999591123      0.8986874        
193.5            0.999593678      0.888311238      0.0155059751     -88.0543274      0.0155059751     -88.0543274      0.999593678      0.888311238      
194.27           0.999596171      0.877990264      0.0153258978     -88.051162       0.0153258978     -88.051162       0.999596171      0.877990264      
195.04           0.999598602      0.867723825      0.0151467728     -88.0476319      0.0151467728     -88.0476319      0.999598602      0.867723825      
195.81           0.999600971      0.857511279      0.0149685888     -88.0437291      0.0149685888     -88.0437291      0.999600971      0.857511279      
196.58           0.99960328       0.847351995      0.0147913348     -88.0394451      0.0147913348     -88.0394451      0.99960328       0.847351995      
197.35           0.999605529      0.837245351      0.0146150001     -88.034771       0.0146150001     -88.034771       0.999605529      0.837245351      
198.12           0.99960772       0.827190734      0.014439574      -88.0296977      0.014439574      -88.0296977      0.99960772       0.827190734      
198.89           0.999609852      0.817187542      0.0142650461     -88.0242154      0.0142650461     -88.0242154      0.999609852      0.817187542      
199.66           0.999611927      0.807235181      0.0140914059     -88.0183142      0.0140914059     -88.0183142      0.999611927      0.807235181      
200.43           0.999613945      0.797333067      0.0139186435     -88.0119835      0.0139186435     -88.0119835      0.999613945      0.797333067      
201.2            0.999615908      0.787480623      0.0137467487     -88.0052124      0.0137467487     -88.0052124      0.999615908      0.787480623      
201.97           0.999617815      0.777677284      0.0135757117     -87.9979895      0.0135757117     -87.9979895      0.999617815      0.777677284      
202.74           0.999619668      0.767922491      0.0134055229     -87.9903027      0.0134055229     -87.9903027      0.999619668      0.767922491      
203.51           0.999621467      0.758215693      0.0132361727     -87.9821395      0.0132361727     -87.9821395      0.999621467      0.758215693      
204.28           0.999623213      0.748556351      0.0130676517     -87.9734869      0.0130676517     -87.9734869      0.999623213      0.748556351      
205.05           0.999624907      0.738943931      0.0128999507     -87.9643313      0.0128999507     -87.9643313      0.999624907      0.738943931      
205.82           0.999626548      0.729377906      0.0127330605     -87.9546582      0.0127330605     -87.9546582      0.999626548      0.729377906      
206.59           0.999628138      0.71985776       0.0125669722     -87.9444528      0.0125669722     -87.9444528      0.999628138      0.71985776       
207.36           0.999629678      0.710382982      0.0124016769     -87.9336994      0.0124016769     -87.9336994      0.999629678      0.710382982      
208.13           0.999631168      0.700953071      0.012237166      -87.9223815      0.012237166      -87.9223815      0.999631168      0.700953071      
208.9            0.999632608      0.691567531      0.0120734308     -87.910482       0.0120734308     -87.910482       0.999632608      0.691567531      
209.67           0.999634         0.682225875      0.011910463      -87.8979828      0.011910463      -87.8979828      0.999634         0.682225875      
210.44           0.999635343      0.672927622      0.0117482542     -87.8848651      0.0117482542     -87.8848651      0.999635343      0.672927622      
211.21           0.999636639      0.663672298      0.0115867963     -87.871109       0.0115867963     -87.871109       0.999636639      0.663672298      
211.98           0.999637888      0.654459437      0.011426081      -87.8566937      0.011426081      -87.8566937      0.999637888      0.654459437      
212.75           0.99963909       0.645288579      0.0112661006     -87.8415974      0.0112661006     -87.8415974      0.99963909       0.645288579      
213.52           0.999640246      0.636159271      0.0111068472     -87.8257972      0.0111068472     -87.8257972      0.999640246      0.636159271      
214.29           0.999641357      0.627071065      0.0109483131     -87.8092689      0.0109483131     -87.8092689      0.999641357      0.627071065      
215.06           0.999642422      0.618023521      0.0107904907     -87.7919872      0.0107904907     -87.7919872      0.999642422      0.618023521      
215.83           0.999643443      0.609016205      0.0106333725     -87.7739254      0.0106333725     -87.7739254      0.999643443      0.609016205      
216.6            0.999644421      0.60004869       0.0104769511     -87.7550554      0.0104769511     -87.7550554      0.999644421      0.60004869       
217.37           0.999645354      0.591120552      0.0103212193     -87.7353477      0.0103212193     -87.7353477      0.999645354      0.591120552      
218.14           0.999646245      0.582231377      0.01016617       -87.7147711      0.01016617       -87.7147711      0.999646245      0.582231377      
218.91           0.999647093      0.573380753      0.010011796      -87.6932926      0.010011796      -87.6932926      0.999647093      0.573380753      
219.68           0.9996479        0.564568278      0.00985809054    -87.6708777      0.00985809054    -87.6708777      0.9996479        0.564568278      
220.45           0.999648664      0.555793551      0.00970504669    -87.6474896      0.00970504669    -87.6474896      0.999648664      0.555793551      
221.22           0.999649388      0.547056179      0.00955265775    -87.6230897      0.00955265775    -87.6230897      0.999649388      0.547056179      
221.99           0.99965007       0.538355776      0.00940091711    -87.597637       0.00940091711    -87.597637       0.99965007       0.538355776      
222.76           0.999650713      0.529691958      0.00924981822    -87.5710882      0.00924981822    -87.5710882      0.999650713      0.529691958      
223.53           0.999651316      0.521064348      0.00909935469    -87.5433975      0.00909935469    -87.5433975      0.999651316      0.521064348      
224.3            0.999651879      0.512472575      0.00894952017    -87.5145162      0.00894952017    -87.5145162      0.999651879      0.512472575      
225.07           0.999652403      0.503916271      0.00880030845    -87.4843927      0.00880030845    -87.4843927      0.999652403      0.503916271      
225.84           0.999652889      0.495395074      0.00865171341    -87.4529724      0.00865171341    -87.4529724      0.999652889      0.495395074      
226.61           0.999653337      0.486908628      0.00850372901    -87.420197       0.00850372901    -87.420197       0.999653337      0.486908628      
227.38           0.999653746      0.478456581      0.00835634932    -87.3860047      0.00835634932    -87.3860047      0.999653746      0.478456581      
228.15           0.999654119      0.470038584      0.00820956851    -87.3503298      0.00820956851    -87.3503298      0.999654119      0.470038584      
228.92           0.999654454      0.461654296      0.00806338083    -87.3131021      0.00806338083    -87.3131021      0.999654454      0.461654296      
229.69           0.999654753      0.453303377      0.00791778064    -87.2742468      0.00791778064    -87.2742468      0.999654753      0.453303377      
230.46           0.999655015      0.444985496      0.00777276239    -87.233684       0.00777276239    -87.233684       0.999655015      0.444985496      
231.23           0.999655241      0.436700321      0.00762832063    -87.1913286      0.00762832063    -87.1913286      0.999655241      0.436700321      
232              0.999655432      0.428447529      0.00748445       -87.1470893      0.00748445       -87.1470893      0.999655432      0.428447529      
232.77           0.999655588      0.420226799      0.00734114524    -87.1008683      0.00734114524    -87.1008683      0.999655588      0.420226799      
233.54           0.999655709      0.412037814      0.00719840118    -87.0525609      0.00719840118    -87.0525609      0.999655709      0.412037814      
234.31           0.999655795      0.403880263      0.00705621276    -87.0020546      0.00705621276    -87.0020546      0.999655795      0.403880263      
235.08           0.999655847      0.395753838      0.00691457502    -86.9492286      0.00691457502    -86.9492286      0.999655847      0.395753838      
235.85           0.999655865      0.387658233      0.00677348309    -86.8939528      0.00677348309    -86.8939528      0.999655865      0.387658233      
236.62           0.99965585       0.37959315       0.0066329322     -86.8360871      0.0066329322     -86.8360871      0.99965585       0.37959315       
237.39           0.999655801      0.371558292      0.00649291771    -86.7754801      0.00649291771    -86.7754801      0.999655801      0.371558292      
238.16           0.999655719      0.363553366      0.00635343506    -86.7119683      0.00635343506    -86.7119683      0.999655719      0.363553366      
238.93           0.999655605      0.355578085      0.00621447981    -86.645375       0.00621447981    -86.645375       0.999655605      0.355578085      
239.7            0.999655459      0.347632162      0.00607604764    -86.5755082      0.00607604764    -86.5755082      0.999655459      0.347632162      
240.47           0.99965528       0.339715318      0.00593813435    -86.5021598      0.00593813435    -86.5021598      0.99965528       0.339715318      
241.24           0.99965507       0.331827273      0.00580073585    -86.4251032      0.00580073585    -86.4251032      0.99965507       0.331827273      
242.01           0.999654828      0.323967755      0.00566384819    -86.3440917      0.00566384819    -86.3440917      0.999654828      0.323967755      
242.78           0.999654556      0.316136492      0.00552746756    -86.2588559      0.00552746756    -86.2588559      0.999654556      0.316136492      
243.55           0.999654252      0.308333216      0.0053915903     -86.1691012      0.0053915903     -86.1691012      0.999654252      0.308333216      
244.32           0.999653918      0.300557665      0.00525621288    -86.0745048      0.00525621288    -86.0745048      0.999653918      0.300557665      
245.09           0.999653553      0.292809578      0.00512133195    -85.9747119      0.00512133195    -85.9747119      0.999653553      0.292809578      
245.86           0.999653159      0.285088697      0.00498694434    -85.8693325      0.00498694434    -85.8693325      0.999653159      0.285088697      
246.63           0.999652734      0.277394768      0.00485304707    -85.757936       0.00485304707    -85.757936       0.999652734      0.277394768      
247.4            0.99965228       0.269727541      0.00471963736    -85.6400462      0.00471963736    -85.6400462      0.99965228       0.269727541      
248.17           0.999651797      0.262086767      0.00458671268    -85.5151352      0.00458671268    -85.5151352      0.999651797      0.262086767      
248.94           0.999651285      0.254472201      0.00445427073    -85.3826161      0.00445427073    -85.3826161      0.999651285      0.254472201      
249.71           0.999650744      0.246883602      0.00432230949    -85.2418347      0.00432230949    -85.2418347      0.999650744      0.246883602      
250.48           0.999650174      0.239320732      0.00419082728    -85.0920592      0.00419082728    -85.0920592      0.999650174      0.239320732      
251.25           0.999649576      0.231783354      0.00405982275    -84.9324689      0.00405982275    -84.9324689      0.999649576      0.231783354      
252.02           0.99964895       0.224271235      0.00392929495    -84.7621401      0.00392929495    -84.7621401      0.99964895       0.224271235      
252.79           0.999648297      0.216784145      0.00379924339    -84.5800292      0.00379924339    -84.5800292      0.999648297      0.216784145      
253.56           0.999647615      0.209321857      0.00366966811    -84.3849534      0.00366966811    -84.3849534      0.999647615      0.209321857      
254.33           0.999646906      0.201884146      0.00354056973    -84.1755661      0.00354056973    -84.1755661      0.999646906      0.201884146      
255.1            0.999646171      0.19447079       0.00341194961    -83.950328       0.00341194961    -83.950328       0.999646171      0.19447079       
255.87           0.999645408      0.187081571      0.00328380988    -83.7074714      0.00328380988    -83.7074714      0.999645408      0.187081571      
256.64           0.999644618      0.179716271      0.0031561537     -83.4449568      0.0031561537     -83.4449568      0.999644618      0.179716271      
257.41           0.999643802      0.172374677      0.00302898535    -83.1604185      0.00302898535    -83.1604185      0.999643802      0.172374677      
258.18           0.99964296       0.165056576      0.0029023105     -82.8510973      0.0029023105     -82.8510973      0.99964296       0.165056576      
258.95           0.999642092      0.157761761      0.00277613652    -82.5137557      0.00277613652    -82.5137557      0.999642092      0.157761761      
259.72           0.999641197      0.150490025      0.00265047281    -82.1445705      0.00265047281    -82.1445705      0.999641197      0.150490025      
260.49           0.999640278      0.143241163      0.00252533132    -81.7389952      0.00252533132    -81.7389952      0.999640278      0.143241163      
261.26           0.999639332      0.136014974      0.00240072712    -81.2915825      0.00240072712    -81.2915825      0.999639332      0.136014974      
262.03           0.999638361      0.128811259      0.00227667926    -80.7957517      0.00227667926    -80.7957517      0.999638361      0.128811259      
262.8            0.999637366      0.121629821      0.0021532118     -80.2434817      0.0021532118     -80.2434817      0.999637366      0.121629821      
263.57           0.999636345      0.114470466      0.00203035531    -79.6248999      0.00203035531    -79.6248999      0.999636345      0.114470466      
264.34           0.9996353        0.107333         0.00190814879    -78.9277242      0.00190814879    -78.9277242      0.9996353        0.107333         
265.11           0.99963423       0.100217234      0.00178664249    -78.136494       0.00178664249    -78.136494       0.99963423       0.100217234      
265.88           0.999633135      0.09312298       0.00166590173    -77.2314942      0.00166590173    -77.2314942      0.999633135      0.09312298       
266.65           0.999632017      0.0860500522     0.00154601255    -76.1872224      0.00154601255    -76.1872224      0.999632017      0.0860500522     
267.42           0.999630874      0.078998267      0.00142708991    -74.9701648      0.00142708991    -74.9701648      0.999630874      0.078998267      
268.19           0.999629708      0.0719674429     0.00130929011    -73.5355052      0.00130929011    -73.5355052      0.999629708      0.0719674429     
268.96           0.999628518      0.0649574004     0.00119282998    -71.8221542      0.00119282998    -71.8221542      0.999628518      0.0649574004     
269.73           0.999627305      0.0579679623     0.00107801736    -69.745089       0.00107801736    -69.745089       0.999627305      0.0579679623     
270.5            0.999626068      0.0509989531     0.000965301103   -67.1833372      0.000965301103   -67.1833372      0.999626068      0.0509989531     
271.27           0.999624808      0.0440501994     0.000855355433   -63.960927       0.000855355433   -63.960927       0.999624808      0.0440501994     
272.04           0.999623525      0.03712153       0.000749226568   -59.8169277      0.000749226568   -59.8169277      0.999623525      0.03712153       
272.81           0.99962222       0.0302127753     0.000648591872   -54.3609617      0.000648591872   -54.3609617      0.99962222       0.0302127753     
273.58           0.999620891      0.0233237678     0.000556212205   -47.0202963      0.000556212205   -47.0202963      0.999620891      0.0233237678     
274.35           0.99961954       0.0164543417     0.000476646624   -37.0331316      0.000476646624   -37.0331316      0.99961954       0.0164543417     
275.12           0.999618167      0.00960433333    0.000416994746   -23.6929658      0.000416994746   -23.6929658      0.999618167      0.00960433333    
275.89           0.999616772      0.00277358061    0.000386272605   -7.19652658      0.000386272605   -7.19652658      0.999616772      0.00277358061    
276.66           0.999615354      -0.00403807663   0.000391047015   10.3790189       0.000391047015   10.3790189       0.999615354      -0.00403807663   
277.43           0.999613915      -0.0108307968    0.000429862422   26.0772583       0.000429862422   26.0772583       0.999613915      -0.0108307968    
278.2            0.999612453      -0.0176047366    0.000494535081   38.3944072       0.000494535081   38.3944072       0.999612453      -0.0176047366    
278.97           0.99961097       -0.0243600509    0.000576226801   47.5233654       0.000576226801   47.5233654       0.99961097       -0.0243600509    
279.74           0.999609466      -0.031096893     0.000668559513   54.2420325       0.000668559513   54.2420325       0.999609466      -0.031096893     
280.51           0.99960794       -0.0378154144    0.000767557502   59.2647257       0.000767557502   59.2647257       0.99960794       -0.0378154144    
281.28           0.999606394      -0.044515765     0.000870824064   63.1061127       0.000870824064   63.1061127       0.999606394      -0.044515765     
282.05           0.999604826      -0.051198093     0.000976895109   66.1132987       0.000976895109   66.1132987       0.999604826      -0.051198093     
282.82           0.999603237      -0.0578625451    0.00108484935    68.5184772       0.00108484935    68.5184772       0.999603237      -0.0578625451    
283.59           0.999601627      -0.0645092663    0.00119408741    70.4790229       0.00119408741    70.4790229       0.999601627      -0.0645092663    
284.36           0.999599997      -0.0711384001    0.00130420657    72.1038121       0.00130420657    72.1038121       0.999599997      -0.0711384001    
285.13           0.999598346      -0.0777500885    0.00141492823    73.4698671       0.00141492823    73.4698671       0.999598346      -0.0777500885    
285.9            0.999596674      -0.0843444717    0.00152605456    74.6328753       0.00152605456    74.6328753       0.999596674      -0.0843444717    
286.67           0.999594983      -0.0909216888    0.00163744185    75.6339263       0.00163744185    75.6339263       0.999594983      -0.0909216888    
287.44           0.999593271      -0.097481877     0.00174898359    76.5039098       0.00174898359    76.5039098       0.999593271      -0.097481877     
288.21           0.999591539      -0.104025172     0.00186059946    77.2664437       0.00186059946    77.2664437       0.999591539      -0.104025172     
288.98           0.999589787      -0.110551709     0.00197222796    77.9398656       0.00197222796    77.9398656       0.999589787      -0.110551709     
289.75           0.999588015      -0.117061621     0.00208382138    78.5386121       0.00208382138    78.5386121       0.999588015      -0.117061621     
290.52           0.999586224      -0.123555039     0.00219534229    79.0741928       0.00219534229    79.0741928       0.999586224      -0.123555039     
291.29           0.999584413      -0.130032094     0.002306761      79.5558894       0.002306761      79.5558894       0.999584413      -0.130032094     
292.06           0.999582583      -0.136492914     0.00241805382    79.9912647       0.00241805382    79.9912647       0.999582583      -0.136492914     
292.83           0.999580733      -0.142937626     0.00252920166    80.3865407       0.00252920166    80.3865407       0.999580733      -0.142937626     
293.6            0.999578864      -0.149366359     0.00264018909    80.7468802       0.00264018909    80.7468802       0.999578864      -0.149366359     
294.37           0.999576976      -0.155779235     0.00275100354    81.0766021       0.00275100354    81.0766021       0.999576976      -0.155779235     
295.14           0.999575069      -0.162176378     0.00286163479    81.3793458       0.00286163479    81.3793458       0.999575069      -0.162176378     
295.91           0.999573143      -0.168557912     0.00297207446    81.6581993       0.00297207446    81.6581993       0.999573143      -0.168557912     
296.68           0.999571198      -0.174923956     0.0030823157     81.9157988       0.0030823157     81.9157988       0.999571198      -0.174923956     
297.45           0.999569234      -0.181274631     0.00319235292    82.1544087       0.00319235292    82.1544087       0.999569234      -0.181274631     
298.22           0.999567252      -0.187610055     0.00330218155    82.3759841       0.00330218155    82.3759841       0.999567252      -0.187610055     
298.99           0.999565251      -0.193930345     0.0034117979     82.5822219       0.0034117979     82.5822219       0.999565251      -0.193930345     
299.76           0.999563232      -0.200235618     0.00352119899    82.7746018       0.00352119899    82.7746018       0.999563232      -0.200235618     
300.53           0.999561195      -0.206525989     0.00363038242    82.95442         0.00363038242    82.95442         0.999561195      -0.206525989     
301.3            0.999559139      -0.21280157      0.00373934633    83.1228164       0.00373934633    83.1228164       0.999559139      -0.21280157      
302.07           0.999557066      -0.219062475     0.00384808928    83.2807978       0.00384808928    83.2807978       0.999557066      -0.219062475     
302.84           0.999554974      -0.225308816     0.00395661021    83.4292564       0.00395661021    83.4292564       0.999554974      -0.225308816     
303.61           0.999552864      -0.231540701     0.00406490835    83.5689857       0.00406490835    83.5689857       0.999552864      -0.231540701     
304.38           0.999550737      -0.237758242     0.00417298323    83.7006937       0.00417298323    83.7006937       0.999550737      -0.237758242     
305.15           0.999548592      -0.243961545     0.00428083459    83.8250144       0.00428083459    83.8250144       0.999548592      -0.243961545     
305.92           0.999546429      -0.250150717     0.00438846238    83.9425166       0.00438846238    83.9425166       0.999546429      -0.250150717     
306.69           0.999544248      -0.256325865     0.00449586671    84.0537127       0.00449586671    84.0537127       0.999544248      -0.256325865     
307.46           0.99954205       -0.262487094     0.00460304787    84.1590649       0.00460304787    84.1590649       0.99954205       -0.262487094     
308.23           0.999539835      -0.268634506     0.00471000625    84.2589917       0.00471000625    84.2589917       0.999539835      -0.268634506     
309              0.999537603      -0.274768206     0.00481674237    84.3538727       0.00481674237    84.3538727       0.999537603      -0.274768206     
309.77           0.999535353      -0.280888294     0.00492325684    84.444053        0.00492325684    84.444053        0.999535353      -0.280888294     
310              0.999534678      -0.282713747     0.00495502996    84.4701256       0.00495502996    84.4701256       0.999534678      -0.282713747     
