! Coilcraft 1812CS-222 Chip Inductor				
! 31 July 2002			
# MHZ S MA R 50
!Freq             MagS11           AngS11           MagS21           AngS21           MagS12           AngS12           MagS22           AngS22
1                0.139050348      69.9759118       0.961305935      -7.81085247      0.961305935      -7.81085247      0.139050348      69.9759118       
1.77             0.237431868      68.7763045       0.94046181       -13.6116386      0.94046181       -13.6116386      0.237431868      68.7763045       
2.54             0.32921516       65.1983267       0.912241852      -19.1231461      0.912241852      -19.1231461      0.32921516       65.1983267       
3.31             0.412471306      61.12385         0.87849474       -24.2766551      0.87849474       -24.2766551      0.412471306      61.12385         
4.08             0.486445269      57.0620596       0.841212768      -29.033181       0.841212768      -29.033181       0.486445269      57.0620596       
4.85             0.551173369      53.202773        0.802186446      -33.3802904      0.802186446      -33.3802904      0.551173369      53.202773        
5.62             0.607209424      49.6203178       0.762851405      -37.3258432      0.762851405      -37.3258432      0.607209424      49.6203178       
6.39             0.655391922      46.3367645       0.724257778      -40.8912242      0.724257778      -40.8912242      0.655391922      46.3367645       
7.16             0.696669611      43.3482499       0.687109372      -44.1055042      0.687109372      -44.1055042      0.696669611      43.3482499       
7.93             0.731987619      40.6380627       0.651831754      -47.0010584      0.651831754      -47.0010584      0.731987619      40.6380627       
8.7              0.762223092      38.1837399       0.618643684      -49.6106163      0.618643684      -49.6106163      0.762223092      38.1837399       
9.47             0.788155606      35.9610131       0.587619381      -51.9654667      0.587619381      -51.9654667      0.788155606      35.9610131       
10.24            0.810459253      33.9459657       0.558737545      -54.0944967      0.558737545      -54.0944967      0.810459253      33.9459657       
11.01            0.829706806      32.1161435       0.53191752       -56.0237827      0.53191752       -56.0237827      0.829706806      32.1161435       
11.78            0.846379669      30.4510549       0.507044717      -57.7765209      0.507044717      -57.7765209      0.846379669      30.4510549       
12.55            0.860879878      28.9323213       0.48398782       -59.3731524      0.48398782       -59.3731524      0.860879878      28.9323213       
13.32            0.873542096      27.5436361       0.462610015      -60.8315853      0.462610015      -60.8315853      0.873542096      27.5436361       
14.09            0.884644618      26.2706254       0.442776032      -62.1674567      0.442776032      -62.1674567      0.884644618      26.2706254       
14.86            0.894418983      25.1006667       0.424356335      -63.3944         0.424356335      -63.3944         0.894418983      25.1006667       
15.63            0.903058148      24.0226953       0.407229414      -64.5242985      0.407229414      -64.5242985      0.903058148      24.0226953       
16.4             0.910723299      23.0270169       0.39128285       -65.5675171      0.39128285       -65.5675171      0.910723299      23.0270169       
17.17            0.917549475      22.105134        0.376413592      -66.533108       0.376413592      -66.533108       0.917549475      22.105134        
17.94            0.923650187      21.2495898       0.362527777      -67.4289912      0.362527777      -67.4289912      0.923650187      21.2495898       
18.71            0.929121175      20.4538304       0.349540262      -68.2621106      0.349540262      -68.2621106      0.929121175      20.4538304       
19.48            0.934043493      19.7120844       0.337374021      -69.0385682      0.337374021      -69.0385682      0.934043493      19.7120844       
20.25            0.938486008      19.0192585       0.325959476      -69.7637397      0.325959476      -69.7637397      0.938486008      19.0192585       
21.02            0.942507452      18.370848        0.31523383       -70.4423724      0.31523383       -70.4423724      0.942507452      18.370848        
21.79            0.946158101      17.7628589       0.305140408      -71.0786701      0.305140408      -71.0786701      0.946158101      17.7628589       
22.56            0.949481141      17.1917419       0.295628047      -71.6763646      0.295628047      -71.6763646      0.949481141      17.1917419       
23.33            0.952513807      16.654335        0.286650529      -72.238777       0.286650529      -72.238777       0.952513807      16.654335        
24.1             0.955288309      16.1478145       0.278166065      -72.7688709      0.278166065      -72.7688709      0.955288309      16.1478145       
24.87            0.957832608      15.6696528       0.27013683       -73.2692969      0.27013683       -73.2692969      0.957832608      15.6696528       
25.64            0.960171052      15.2175823       0.262528545      -73.742432       0.262528545      -73.742432       0.960171052      15.2175823       
26.41            0.962324913      14.7895634       0.255310102      -74.1904124      0.255310102      -74.1904124      0.962324913      14.7895634       
27.18            0.964312834      14.3837581       0.248453231      -74.6151627      0.248453231      -74.6151627      0.964312834      14.3837581       
27.95            0.966151196      13.998506        0.241932206      -75.0184204      0.241932206      -75.0184204      0.966151196      13.998506        
28.72            0.967854442      13.6323042       0.235723579      -75.4017578      0.235723579      -75.4017578      0.967854442      13.6323042       
29.49            0.969435334      13.2837894       0.229805951      -75.7666008      0.229805951      -75.7666008      0.969435334      13.2837894       
30.26            0.970905184      12.9517226       0.224159756      -76.1142446      0.224159756      -76.1142446      0.970905184      12.9517226       
31.03            0.972274041      12.6349754       0.218767085      -76.4458687      0.218767085      -76.4458687      0.972274041      12.6349754       
31.8             0.973550859      12.3325184       0.213611519      -76.7625488      0.213611519      -76.7625488      0.973550859      12.3325184       
32.57            0.974743627      12.0434105       0.208677981      -77.065268       0.208677981      -77.065268       0.974743627      12.0434105       
33.34            0.9758595        11.7667903       0.203952609      -77.3549263      0.203952609      -77.3549263      0.9758595        11.7667903       
34.11            0.976904891      11.5018674       0.199422639      -77.6323491      0.199422639      -77.6323491      0.976904891      11.5018674       
34.88            0.977885566      11.2479158       0.195076303      -77.8982944      0.195076303      -77.8982944      0.977885566      11.2479158       
35.65            0.978806718      11.0042675       0.190902735      -78.1534599      0.190902735      -78.1534599      0.978806718      11.0042675       
36.42            0.979673033      10.7703067       0.18689189       -78.3984883      0.18689189       -78.3984883      0.979673033      10.7703067       
37.19            0.980488751      10.5454653       0.18303447       -78.6339728      0.18303447       -78.6339728      0.980488751      10.5454653       
37.96            0.981257709      10.3292178       0.179321854      -78.8604618      0.179321854      -78.8604618      0.981257709      10.3292178       
38.73            0.981983393      10.121078        0.175746044      -79.0784628      0.175746044      -79.0784628      0.981983393      10.121078        
39.5             0.98266897       9.92059528       0.17229961       -79.2884461      0.17229961       -79.2884461      0.98266897       9.92059528       
40.27            0.983317325      9.72735135       0.168975637      -79.4908482      0.168975637      -79.4908482      0.983317325      9.72735135       
41.04            0.98393109       9.54095748       0.165767688      -79.6860747      0.165767688      -79.6860747      0.98393109       9.54095748       
41.81            0.984512669      9.361052         0.16266976       -79.874503       0.16266976       -79.874503       0.984512669      9.361052         
42.58            0.985064262      9.18729799       0.159676251      -80.0564847      0.159676251      -80.0564847      0.985064262      9.18729799       
43.35            0.985587886      9.01938122       0.156781928      -80.2323476      0.156781928      -80.2323476      0.985587886      9.01938122       
44.12            0.98608539       8.85700829       0.153981893      -80.4023979      0.153981893      -80.4023979      0.98608539       8.85700829       
44.89            0.986558476      8.69990496       0.151271565      -80.5669216      0.151271565      -80.5669216      0.986558476      8.69990496       
45.66            0.987008707      8.54781462       0.148646648      -80.7261864      0.148646648      -80.7261864      0.987008707      8.54781462       
46.43            0.987437525      8.40049689       0.146103113      -80.8804432      0.146103113      -80.8804432      0.987437525      8.40049689       
47.2             0.987846262      8.2577264        0.143637177      -81.0299269      0.143637177      -81.0299269      0.987846262      8.2577264        
47.97            0.988236146      8.11929163       0.141245286      -81.1748584      0.141245286      -81.1748584      0.988236146      8.11929163       
48.74            0.988608313      7.98499388       0.138924094      -81.3154447      0.138924094      -81.3154447      0.988608313      7.98499388       
49.51            0.988963815      7.85464631       0.136670455      -81.4518809      0.136670455      -81.4518809      0.988963815      7.85464631       
50.28            0.98930363       7.72807307       0.134481402      -81.5843502      0.134481402      -81.5843502      0.98930363       7.72807307       
51.05            0.989628661      7.60510852       0.13235414       -81.7130255      0.13235414       -81.7130255      0.989628661      7.60510852       
51.82            0.989939749      7.48559653       0.130286028      -81.8380697      0.130286028      -81.8380697      0.989939749      7.48559653       
52.59            0.990237678      7.36938975       0.128274574      -81.9596362      0.128274574      -81.9596362      0.990237678      7.36938975       
53.36            0.990523176      7.25634906       0.126317422      -82.0778704      0.126317422      -82.0778704      0.990523176      7.25634906       
54.13            0.99079692       7.146343         0.124412345      -82.1929091      0.124412345      -82.1929091      0.99079692       7.146343         
54.9             0.991059545      7.03924722       0.122557232      -82.3048821      0.122557232      -82.3048821      0.991059545      7.03924722       
55.67            0.99131164       6.93494405       0.120750086      -82.4139121      0.120750086      -82.4139121      0.99131164       6.93494405       
56.44            0.991553758      6.83332202       0.118989012      -82.5201153      0.118989012      -82.5201153      0.991553758      6.83332202       
57.21            0.991786416      6.7342755        0.117272216      -82.6236017      0.117272216      -82.6236017      0.991786416      6.7342755        
57.98            0.992010098      6.6377043        0.115597991      -82.7244759      0.115597991      -82.7244759      0.992010098      6.6377043        
58.75            0.992225255      6.54351333       0.113964719      -82.8228369      0.113964719      -82.8228369      0.992225255      6.54351333       
59.52            0.992432314      6.45161228       0.112370862      -82.9187788      0.112370862      -82.9187788      0.992432314      6.45161228       
60.29            0.992631672      6.36191534       0.110814955      -83.0123912      0.110814955      -83.0123912      0.992631672      6.36191534       
61.06            0.992823705      6.27434089       0.109295607      -83.1037589      0.109295607      -83.1037589      0.992823705      6.27434089       
61.83            0.993008764      6.1888113        0.107811492      -83.1929629      0.107811492      -83.1929629      0.993008764      6.1888113        
62.6             0.993187179      6.10525263       0.106361348      -83.2800802      0.106361348      -83.2800802      0.993187179      6.10525263       
63.37            0.993359263      6.02359448       0.104943971      -83.3651841      0.104943971      -83.3651841      0.993359263      6.02359448       
64.14            0.99352531       5.94376971       0.103558214      -83.4483446      0.103558214      -83.4483446      0.99352531       5.94376971       
64.91            0.993685595      5.86571433       0.102202982      -83.5296282      0.102202982      -83.5296282      0.993685595      5.86571433       
65.68            0.99384038       5.78936726       0.100877229      -83.6090986      0.100877229      -83.6090986      0.99384038       5.78936726       
66.45            0.993989911      5.71467018       0.0995799564     -83.6868163      0.0995799564     -83.6868163      0.993989911      5.71467018       
67.22            0.994134421      5.6415674        0.098310211      -83.7628395      0.098310211      -83.7628395      0.994134421      5.6415674        
67.99            0.994274129      5.57000569       0.0970670801     -83.8372234      0.0970670801     -83.8372234      0.994274129      5.57000569       
68.76            0.994409244      5.49993415       0.0958496911     -83.910021       0.0958496911     -83.910021       0.994409244      5.49993415       
69.53            0.994539963      5.43130411       0.0946572089     -83.9812829      0.0946572089     -83.9812829      0.994539963      5.43130411       
70.3             0.994666471      5.36406896       0.0934888338     -84.0510575      0.0934888338     -84.0510575      0.994666471      5.36406896       
71.07            0.994788945      5.29818408       0.0923438001     -84.1193911      0.0923438001     -84.1193911      0.994788945      5.29818408       
71.84            0.994907554      5.23360674       0.0912213737     -84.1863283      0.0912213737     -84.1863283      0.994907554      5.23360674       
72.61            0.995022454      5.17029597       0.0901208509     -84.2519115      0.0901208509     -84.2519115      0.995022454      5.17029597       
73.38            0.995133798      5.10821249       0.0890415568     -84.3161815      0.0890415568     -84.3161815      0.995133798      5.10821249       
74.15            0.995241727      5.04731864       0.0879828439     -84.3791774      0.0879828439     -84.3791774      0.995241727      5.04731864       
74.92            0.995346378      4.98757826       0.0869440903     -84.4409367      0.0869440903     -84.4409367      0.995346378      4.98757826       
75.69            0.995447881      4.92895665       0.0859246992     -84.5014953      0.0859246992     -84.5014953      0.995447881      4.92895665       
76.46            0.995546357      4.87142046       0.0849240969     -84.5608878      0.0849240969     -84.5608878      0.995546357      4.87142046       
77.23            0.995641924      4.81493768       0.0839417323     -84.6191475      0.0839417323     -84.6191475      0.995641924      4.81493768       
78               0.995734693      4.75947752       0.0829770754     -84.676306       0.0829770754     -84.676306       0.995734693      4.75947752       
78.77            0.99582477       4.70501039       0.0820296164     -84.7323942      0.0820296164     -84.7323942      0.99582477       4.70501039       
79.54            0.995912256      4.65150781       0.081098865      -84.7874413      0.081098865      -84.7874413      0.995912256      4.65150781       
80.31            0.995997247      4.59894238       0.0801843491     -84.8414758      0.0801843491     -84.8414758      0.995997247      4.59894238       
81.08            0.996079835      4.54728775       0.0792856142     -84.8945248      0.0792856142     -84.8945248      0.996079835      4.54728775       
81.85            0.996160108      4.49651852       0.0784022225     -84.9466146      0.0784022225     -84.9466146      0.996160108      4.49651852       
82.62            0.996238148      4.44661021       0.0775337524     -84.9977704      0.0775337524     -84.9977704      0.996238148      4.44661021       
83.39            0.996314037      4.39753928       0.0766797971     -85.0480164      0.0766797971     -85.0480164      0.996314037      4.39753928       
84.16            0.996387849      4.34928299       0.0758399649     -85.0973761      0.0758399649     -85.0973761      0.996387849      4.34928299       
84.93            0.996459659      4.30181944       0.0750138777     -85.1458721      0.0750138777     -85.1458721      0.996459659      4.30181944       
85.7             0.996529536      4.25512749       0.0742011708     -85.1935259      0.0742011708     -85.1935259      0.996529536      4.25512749       
86.47            0.996597546      4.20918677       0.0734014923     -85.2403587      0.0734014923     -85.2403587      0.996597546      4.20918677       
87.24            0.996663754      4.16397758       0.0726145024     -85.2863905      0.0726145024     -85.2863905      0.996663754      4.16397758       
88.01            0.996728219      4.11948094       0.071839873      -85.3316408      0.071839873      -85.3316408      0.996728219      4.11948094       
88.78            0.996791002      4.0756785        0.0710772872     -85.3761285      0.0710772872     -85.3761285      0.996791002      4.0756785        
89.55            0.996852157      4.03255252       0.0703264388     -85.4198715      0.0703264388     -85.4198715      0.996852157      4.03255252       
90.32            0.996911739      3.99008589       0.0695870319     -85.4628876      0.0695870319     -85.4628876      0.996911739      3.99008589       
91.09            0.996969799      3.94826205       0.0688587803     -85.5051934      0.0688587803     -85.5051934      0.996969799      3.94826205       
91.86            0.997026387      3.90706499       0.0681414074     -85.5468054      0.0681414074     -85.5468054      0.997026387      3.90706499       
92.63            0.997081549      3.86647923       0.0674346455     -85.5877392      0.0674346455     -85.5877392      0.997081549      3.86647923       
93.4             0.997135331      3.82648979       0.0667382356     -85.6280101      0.0667382356     -85.6280101      0.997135331      3.82648979       
94.17            0.997187777      3.78708218       0.0660519272     -85.6676328      0.0660519272     -85.6676328      0.997187777      3.78708218       
94.94            0.997238929      3.74824238       0.0653754777     -85.7066215      0.0653754777     -85.7066215      0.997238929      3.74824238       
95.71            0.997288826      3.7099568        0.064708652      -85.7449899      0.064708652      -85.7449899      0.997288826      3.7099568        
96.48            0.997337509      3.67221229       0.0640512226     -85.7827513      0.0640512226     -85.7827513      0.997337509      3.67221229       
97.25            0.997385013      3.63499612       0.0634029692     -85.8199185      0.0634029692     -85.8199185      0.997385013      3.63499612       
98.02            0.997431374      3.59829593       0.062763678      -85.8565039      0.062763678      -85.8565039      0.997431374      3.59829593       
98.79            0.997476628      3.56209976       0.062133142      -85.8925195      0.062133142      -85.8925195      0.997476628      3.56209976       
99.56            0.997520806      3.52639602       0.0615111604     -85.9279769      0.0615111604     -85.9279769      0.997520806      3.52639602       
100.33           0.997563942      3.49117347       0.0608975385     -85.9628874      0.0608975385     -85.9628874      0.997563942      3.49117347       
101.1            0.997606065      3.45642119       0.0602920876     -85.9972618      0.0602920876     -85.9972618      0.997606065      3.45642119       
101.87           0.997647205      3.42212861       0.0596946244     -86.0311107      0.0596946244     -86.0311107      0.997647205      3.42212861       
102.64           0.99768739       3.38828546       0.0591049712     -86.0644441      0.0591049712     -86.0644441      0.99768739       3.38828546       
103.41           0.997726648      3.35488179       0.0585229553     -86.0972719      0.0585229553     -86.0972719      0.997726648      3.35488179       
104.18           0.997765006      3.32190793       0.0579484093     -86.1296037      0.0579484093     -86.1296037      0.997765006      3.32190793       
104.95           0.997802488      3.28935447       0.0573811706     -86.1614487      0.0573811706     -86.1614487      0.997802488      3.28935447       
105.72           0.997839119      3.25721232       0.056821081      -86.1928158      0.056821081      -86.1928158      0.997839119      3.25721232       
106.49           0.997874924      3.2254726        0.0562679872     -86.2237136      0.0562679872     -86.2237136      0.997874924      3.2254726        
107.26           0.997909924      3.19412672       0.0557217399     -86.2541506      0.0557217399     -86.2541506      0.997909924      3.19412672       
108.03           0.997944142      3.16316632       0.0551821944     -86.2841348      0.0551821944     -86.2841348      0.997944142      3.16316632       
108.8            0.997977599      3.13258327       0.0546492096     -86.313674       0.0546492096     -86.313674       0.997977599      3.13258327       
109.57           0.998010315      3.10236967       0.0541226488     -86.3427758      0.0541226488     -86.3427758      0.998010315      3.10236967       
110.34           0.998042311      3.07251784       0.0536023785     -86.3714476      0.0536023785     -86.3714476      0.998042311      3.07251784       
111.11           0.998073606      3.0430203        0.0530882695     -86.3996965      0.0530882695     -86.3996965      0.998073606      3.0430203        
111.88           0.998104218      3.0138698        0.0525801955     -86.4275295      0.0525801955     -86.4275295      0.998104218      3.0138698        
112.65           0.998134165      2.98505926       0.0520780341     -86.454953       0.0520780341     -86.454953       0.998134165      2.98505926       
113.42           0.998163464      2.95658181       0.0515816658     -86.4819737      0.0515816658     -86.4819737      0.998163464      2.95658181       
114.19           0.998192133      2.92843074       0.0510909747     -86.5085977      0.0510909747     -86.5085977      0.998192133      2.92843074       
114.96           0.998220186      2.90059956       0.0506058476     -86.534831       0.0506058476     -86.534831       0.998220186      2.90059956       
115.73           0.998247641      2.8730819        0.0501261745     -86.5606796      0.0501261745     -86.5606796      0.998247641      2.8730819        
116.5            0.998274512      2.84587159       0.0496518482     -86.5861491      0.0496518482     -86.5861491      0.998274512      2.84587159       
117.27           0.998300813      2.81896262       0.0491827642     -86.611245       0.0491827642     -86.611245       0.998300813      2.81896262       
118.04           0.998326559      2.79234912       0.0487188209     -86.6359725      0.0487188209     -86.6359725      0.998326559      2.79234912       
118.81           0.998351764      2.76602539       0.0482599191     -86.6603368      0.0482599191     -86.6603368      0.998351764      2.76602539       
119.58           0.998376441      2.73998586       0.0478059623     -86.6843428      0.0478059623     -86.6843428      0.998376441      2.73998586       
120.35           0.998400603      2.7142251        0.0473568564     -86.7079952      0.0473568564     -86.7079952      0.998400603      2.7142251        
121.12           0.998424262      2.68873784       0.0469125095     -86.7312988      0.0469125095     -86.7312988      0.998424262      2.68873784       
121.89           0.998447431      2.66351891       0.0464728324     -86.754258       0.0464728324     -86.754258       0.998447431      2.66351891       
122.66           0.99847012       2.6385633        0.0460377376     -86.776877       0.0460377376     -86.776877       0.99847012       2.6385633        
123.43           0.998492342      2.6138661        0.0456071401     -86.79916        0.0456071401     -86.79916        0.998492342      2.6138661        
124.2            0.998514108      2.58942254       0.045180957      -86.8211111      0.045180957      -86.8211111      0.998514108      2.58942254       
124.97           0.998535428      2.56522795       0.0447591073     -86.8427341      0.0447591073     -86.8427341      0.998535428      2.56522795       
125.74           0.998556312      2.54127778       0.0443415119     -86.8640327      0.0443415119     -86.8640327      0.998556312      2.54127778       
126.51           0.998576771      2.5175676        0.0439280938     -86.8850105      0.0439280938     -86.8850105      0.998576771      2.5175676        
127.28           0.998596815      2.49409306       0.0435187778     -86.905671       0.0435187778     -86.905671       0.998596815      2.49409306       
128.05           0.998616452      2.47084996       0.0431134904     -86.9260175      0.0431134904     -86.9260175      0.998616452      2.47084996       
128.82           0.998635692      2.44783414       0.0427121599     -86.9460531      0.0427121599     -86.9460531      0.998635692      2.44783414       
129.59           0.998654545      2.42504159       0.0423147163     -86.965781       0.0423147163     -86.965781       0.998654545      2.42504159       
130.36           0.998673017      2.40246837       0.0419210911     -86.9852041      0.0419210911     -86.9852041      0.998673017      2.40246837       
131.13           0.998691119      2.38011064       0.0415312178     -87.0043252      0.0415312178     -87.0043252      0.998691119      2.38011064       
131.9            0.998708858      2.35796464       0.0411450309     -87.023147       0.0411450309     -87.023147       0.998708858      2.35796464       
132.67           0.998726243      2.3360267        0.0407624667     -87.0416721      0.0407624667     -87.0416721      0.998726243      2.3360267        
133.44           0.99874328       2.31429323       0.0403834631     -87.059903       0.0403834631     -87.059903       0.99874328       2.31429323       
134.21           0.998759977      2.29276075       0.0400079591     -87.0778419      0.0400079591     -87.0778419      0.998759977      2.29276075       
134.98           0.998776342      2.27142581       0.0396358952     -87.0954912      0.0396358952     -87.0954912      0.998776342      2.27142581       
135.75           0.998792382      2.25028509       0.0392672133     -87.112853       0.0392672133     -87.112853       0.998792382      2.25028509       
136.52           0.998808103      2.2293353        0.0389018567     -87.1299292      0.0389018567     -87.1299292      0.998808103      2.2293353        
137.29           0.998823512      2.20857325       0.0385397696     -87.1467219      0.0385397696     -87.1467219      0.998823512      2.20857325       
138.06           0.998838617      2.18799582       0.0381808978     -87.1632327      0.0381808978     -87.1632327      0.998838617      2.18799582       
138.83           0.998853422      2.16759994       0.0378251881     -87.1794635      0.0378251881     -87.1794635      0.998853422      2.16759994       
139.6            0.998867935      2.14738263       0.0374725886     -87.1954157      0.0374725886     -87.1954157      0.998867935      2.14738263       
140.37           0.998882161      2.12734095       0.0371230484     -87.2110909      0.0371230484     -87.2110909      0.998882161      2.12734095       
141.14           0.998896106      2.10747206       0.0367765177     -87.2264904      0.0367765177     -87.2264904      0.998896106      2.10747206       
141.91           0.998909776      2.08777315       0.0364329479     -87.2416156      0.0364329479     -87.2416156      0.998909776      2.08777315       
142.68           0.998923176      2.06824148       0.0360922914     -87.2564676      0.0360922914     -87.2564676      0.998923176      2.06824148       
143.45           0.998936312      2.04887436       0.0357545015     -87.2710475      0.0357545015     -87.2710475      0.998936312      2.04887436       
144.22           0.998949189      2.02966918       0.0354195326     -87.2853563      0.0354195326     -87.2853563      0.998949189      2.02966918       
144.99           0.998961812      2.01062337       0.0350873401     -87.2993948      0.0350873401     -87.2993948      0.998961812      2.01062337       
145.76           0.998974185      1.99173441       0.0347578802     -87.3131638      0.0347578802     -87.3131638      0.998974185      1.99173441       
146.53           0.998986315      1.97299983       0.0344311102     -87.326664       0.0344311102     -87.326664       0.998986315      1.97299983       
147.3            0.998998206      1.95441724       0.034106988      -87.3398959      0.034106988      -87.3398959      0.998998206      1.95441724       
148.07           0.999009861      1.93598426       0.0337854727     -87.3528602      0.0337854727     -87.3528602      0.999009861      1.93598426       
148.84           0.999021286      1.91769859       0.0334665241     -87.365557       0.0334665241     -87.365557       0.999021286      1.91769859       
149.61           0.999032486      1.89955795       0.0331501027     -87.3779867      0.0331501027     -87.3779867      0.999032486      1.89955795       
150.38           0.999043463      1.88156014       0.03283617       -87.3901494      0.03283617       -87.3901494      0.999043463      1.88156014       
151.15           0.999054223      1.86370298       0.0325246882     -87.4020453      0.0325246882     -87.4020453      0.999054223      1.86370298       
151.92           0.99906477       1.84598433       0.0322156202     -87.4136743      0.0322156202     -87.4136743      0.99906477       1.84598433       
152.69           0.999075107      1.82840212       0.0319089297     -87.4250363      0.0319089297     -87.4250363      0.999075107      1.82840212       
153.46           0.999085238      1.81095429       0.0316045813     -87.4361309      0.0316045813     -87.4361309      0.999085238      1.81095429       
154.23           0.999095167      1.79363884       0.0313025399     -87.446958       0.0313025399     -87.446958       0.999095167      1.79363884       
155              0.999104898      1.77645381       0.0310027714     -87.457517       0.0310027714     -87.457517       0.999104898      1.77645381       
155.77           0.999114434      1.75939726       0.0307052424     -87.4678074      0.0307052424     -87.4678074      0.999114434      1.75939726       
156.54           0.999123779      1.74246732       0.03040992       -87.4778286      0.03040992       -87.4778286      0.999123779      1.74246732       
157.31           0.999132937      1.72566213       0.0301167719     -87.4875797      0.0301167719     -87.4875797      0.999132937      1.72566213       
158.08           0.999141909      1.70897987       0.0298257666     -87.4970598      0.0298257666     -87.4970598      0.999141909      1.70897987       
158.85           0.999150701      1.69241876       0.0295368731     -87.5062681      0.0295368731     -87.5062681      0.999150701      1.69241876       
159.62           0.999159314      1.67597706       0.0292500611     -87.5152034      0.0292500611     -87.5152034      0.999159314      1.67597706       
160.39           0.999167752      1.65965306       0.0289653007     -87.5238645      0.0289653007     -87.5238645      0.999167752      1.65965306       
161.16           0.999176019      1.64344506       0.0286825627     -87.53225        0.0286825627     -87.53225        0.999176019      1.64344506       
161.93           0.999184116      1.62735143       0.0284018184     -87.5403586      0.0284018184     -87.5403586      0.999184116      1.62735143       
162.7            0.999192047      1.61137055       0.0281230398     -87.5481885      0.0281230398     -87.5481885      0.999192047      1.61137055       
163.47           0.999199815      1.59550082       0.0278461991     -87.5557383      0.0278461991     -87.5557383      0.999199815      1.59550082       
164.24           0.999207422      1.5797407        0.0275712693     -87.5630059      0.0275712693     -87.5630059      0.999207422      1.5797407        
165.01           0.999214872      1.56408865       0.0272982239     -87.5699895      0.0272982239     -87.5699895      0.999214872      1.56408865       
165.78           0.999222166      1.54854317       0.0270270366     -87.576687       0.0270270366     -87.576687       0.999222166      1.54854317       
166.55           0.999229307      1.5331028        0.026757682      -87.5830962      0.026757682      -87.5830962      0.999229307      1.5331028        
167.32           0.999236298      1.51776607       0.0264901348     -87.5892147      0.0264901348     -87.5892147      0.999236298      1.51776607       
168.09           0.999243142      1.50253159       0.0262243704     -87.5950401      0.0262243704     -87.5950401      0.999243142      1.50253159       
168.86           0.99924984       1.48739794       0.0259603645     -87.6005697      0.0259603645     -87.6005697      0.99924984       1.48739794       
169.63           0.999256395      1.47236377       0.0256980934     -87.6058007      0.0256980934     -87.6058007      0.999256395      1.47236377       
170.4            0.999262809      1.45742773       0.0254375336     -87.6107303      0.0254375336     -87.6107303      0.999262809      1.45742773       
171.17           0.999269084      1.4425885        0.0251786623     -87.6153553      0.0251786623     -87.6153553      0.999269084      1.4425885        
171.94           0.999275224      1.42784478       0.0249214568     -87.6196724      0.0249214568     -87.6196724      0.999275224      1.42784478       
172.71           0.999281229      1.41319531       0.0246658951     -87.6236783      0.0246658951     -87.6236783      0.999281229      1.41319531       
173.48           0.999287102      1.39863882       0.0244119554     -87.6273695      0.0244119554     -87.6273695      0.999287102      1.39863882       
174.25           0.999292845      1.3841741        0.0241596163     -87.630742       0.0241596163     -87.630742       0.999292845      1.3841741        
175.02           0.99929846       1.36979994       0.0239088569     -87.6337921      0.0239088569     -87.6337921      0.99929846       1.36979994       
175.79           0.99930395       1.35551514       0.0236596565     -87.6365156      0.0236596565     -87.6365156      0.99930395       1.35551514       
176.56           0.999309314      1.34131855       0.023411995      -87.6389081      0.023411995      -87.6389081      0.999309314      1.34131855       
177.33           0.999314557      1.32720903       0.0231658523     -87.6409653      0.0231658523     -87.6409653      0.999314557      1.32720903       
178.1            0.999319679      1.31318543       0.0229212089     -87.6426823      0.0229212089     -87.6426823      0.999319679      1.31318543       
178.87           0.999324683      1.29924667       0.0226780456     -87.6440543      0.0226780456     -87.6440543      0.999324683      1.29924667       
179.64           0.99932957       1.28539165       0.0224363435     -87.6450761      0.0224363435     -87.6450761      0.99932957       1.28539165       
180.41           0.999334341      1.2716193        0.022196084      -87.6457424      0.022196084      -87.6457424      0.999334341      1.2716193        
181.18           0.999338999      1.25792858       0.0219572489     -87.6460475      0.0219572489     -87.6460475      0.999338999      1.25792858       
181.95           0.999343546      1.24431844       0.0217198202     -87.6459857      0.0217198202     -87.6459857      0.999343546      1.24431844       
182.72           0.999347982      1.23078788       0.0214837803     -87.6455508      0.0214837803     -87.6455508      0.999347982      1.23078788       
183.49           0.999352309      1.2173359        0.0212491118     -87.6447365      0.0212491118     -87.6447365      0.999352309      1.2173359        
184.26           0.99935653       1.20396152       0.0210157977     -87.6435362      0.0210157977     -87.6435362      0.99935653       1.20396152       
185.03           0.999360645      1.19066377       0.0207838212     -87.6419429      0.0207838212     -87.6419429      0.999360645      1.19066377       
185.8            0.999364656      1.17744169       0.0205531658     -87.6399495      0.0205531658     -87.6399495      0.999364656      1.17744169       
186.57           0.999368564      1.16429437       0.0203238153     -87.6375484      0.0203238153     -87.6375484      0.999368564      1.16429437       
187.34           0.999372371      1.15122087       0.0200957538     -87.6347319      0.0200957538     -87.6347319      0.999372371      1.15122087       
188.11           0.999376079      1.1382203        0.0198689655     -87.6314918      0.0198689655     -87.6314918      0.999376079      1.1382203        
188.88           0.999379688      1.12529176       0.019643435      -87.6278197      0.019643435      -87.6278197      0.999379688      1.12529176       
189.65           0.9993832        1.11243439       0.0194191472     -87.6237065      0.0194191472     -87.6237065      0.9993832        1.11243439       
190.42           0.999386616      1.09964732       0.0191960871     -87.6191432      0.0191960871     -87.6191432      0.999386616      1.09964732       
191.19           0.999389938      1.0869297        0.0189742401     -87.6141201      0.0189742401     -87.6141201      0.999389938      1.0869297        
191.96           0.999393167      1.0742807        0.0187535916     -87.6086273      0.0187535916     -87.6086273      0.999393167      1.0742807        
192.73           0.999396304      1.06169951       0.0185341275     -87.6026541      0.0185341275     -87.6026541      0.999396304      1.06169951       
193.5            0.99939935       1.04918532       0.0183158337     -87.5961898      0.0183158337     -87.5961898      0.99939935       1.04918532       
194.27           0.999402307      1.03673733       0.0180986966     -87.589223       0.0180986966     -87.589223       0.999402307      1.03673733       
195.04           0.999405175      1.02435475       0.0178827025     -87.5817419      0.0178827025     -87.5817419      0.999405175      1.02435475       
195.81           0.999407956      1.01203683       0.0176678382     -87.573734       0.0176678382     -87.573734       0.999407956      1.01203683       
196.58           0.999410652      0.999782809      0.0174540905     -87.5651865      0.0174540905     -87.5651865      0.999410652      0.999782809      
197.35           0.999413262      0.987591934      0.0172414466     -87.5560859      0.0172414466     -87.5560859      0.999413262      0.987591934      
198.12           0.999415788      0.975463475      0.0170298936     -87.5464183      0.0170298936     -87.5464183      0.999415788      0.975463475      
198.89           0.999418232      0.963396709      0.0168194192     -87.5361688      0.0168194192     -87.5361688      0.999418232      0.963396709      
199.66           0.999420594      0.951390925      0.016610011      -87.5253223      0.016610011      -87.5253223      0.999420594      0.951390925      
200.43           0.999422875      0.939445423      0.0164016569     -87.5138627      0.0164016569     -87.5138627      0.999422875      0.939445423      
201.2            0.999425076      0.927559513      0.0161943449     -87.5017733      0.0161943449     -87.5017733      0.999425076      0.927559513      
201.97           0.999427199      0.915732517      0.0159880635     -87.4890366      0.0159880635     -87.4890366      0.999427199      0.915732517      
202.74           0.999429244      0.903963764      0.0157828009     -87.4756344      0.0157828009     -87.4756344      0.999429244      0.903963764      
203.51           0.999431212      0.892252597      0.0155785458     -87.4615476      0.0155785458     -87.4615476      0.999431212      0.892252597      
204.28           0.999433104      0.880598366      0.0153752871     -87.4467562      0.0153752871     -87.4467562      0.999433104      0.880598366      
205.05           0.999434922      0.869000432      0.0151730136     -87.4312393      0.0151730136     -87.4312393      0.999434922      0.869000432      
205.82           0.999436665      0.857458167      0.0149717147     -87.414975       0.0149717147     -87.414975       0.999436665      0.857458167      
206.59           0.999438335      0.845970948      0.0147713795     -87.3979404      0.0147713795     -87.3979404      0.999438335      0.845970948      
207.36           0.999439932      0.834538166      0.0145719976     -87.3801114      0.0145719976     -87.3801114      0.999439932      0.834538166      
208.13           0.999441458      0.823159219      0.0143735586     -87.3614629      0.0143735586     -87.3614629      0.999441458      0.823159219      
208.9            0.999442914      0.811833513      0.0141760523     -87.3419685      0.0141760523     -87.3419685      0.999442914      0.811833513      
209.67           0.9994443        0.800560463      0.0139794688     -87.3216004      0.0139794688     -87.3216004      0.9994443        0.800560463      
210.44           0.999445616      0.789339495      0.0137837981     -87.3003295      0.0137837981     -87.3003295      0.999445616      0.789339495      
211.21           0.999446865      0.77817004       0.0135890304     -87.2781254      0.0135890304     -87.2781254      0.999446865      0.77817004       
211.98           0.999448046      0.767051538      0.0133951564     -87.2549559      0.0133951564     -87.2549559      0.999448046      0.767051538      
212.75           0.99944916       0.75598344       0.0132021664     -87.2307873      0.0132021664     -87.2307873      0.99944916       0.75598344       
213.52           0.999450208      0.744965201      0.0130100513     -87.205584       0.0130100513     -87.205584       0.999450208      0.744965201      
214.29           0.999451191      0.733996286      0.0128188019     -87.1793088      0.0128188019     -87.1793088      0.999451191      0.733996286      
215.06           0.99945211       0.723076167      0.0126284093     -87.1519223      0.0126284093     -87.1519223      0.99945211       0.723076167      
215.83           0.999452964      0.712204325      0.0124388646     -87.123383       0.0124388646     -87.123383       0.999452964      0.712204325      
216.6            0.999453756      0.701380245      0.0122501591     -87.0936473      0.0122501591     -87.0936473      0.999453756      0.701380245      
217.37           0.999454485      0.690603422      0.0120622842     -87.0626691      0.0120622842     -87.0626691      0.999454485      0.690603422      
218.14           0.999455153      0.679873357      0.0118752316     -87.0303997      0.0118752316     -87.0303997      0.999455153      0.679873357      
218.91           0.999455759      0.66918956       0.0116889929     -86.9967876      0.0116889929     -86.9967876      0.999455759      0.66918956       
219.68           0.999456305      0.658551546      0.0115035601     -86.9617786      0.0115035601     -86.9617786      0.999456305      0.658551546      
220.45           0.999456791      0.647958835      0.011318925      -86.9253151      0.011318925      -86.9253151      0.999456791      0.647958835      
221.22           0.999457218      0.637410958      0.0111350798     -86.8873364      0.0111350798     -86.8873364      0.999457218      0.637410958      
221.99           0.999457587      0.626907449      0.0109520168     -86.8477778      0.0109520168     -86.8477778      0.999457587      0.626907449      
222.76           0.999457897      0.616447851      0.0107697284     -86.806571       0.0107697284     -86.806571       0.999457897      0.616447851      
223.53           0.999458151      0.606031711      0.010588207      -86.7636435      0.010588207      -86.7636435      0.999458151      0.606031711      
224.3            0.999458347      0.595658582      0.0104074454     -86.7189182      0.0104074454     -86.7189182      0.999458347      0.595658582      
225.07           0.999458487      0.585328027      0.0102274363     -86.6723132      0.0102274363     -86.6723132      0.999458487      0.585328027      
225.84           0.999458572      0.57503961       0.0100481726     -86.6237412      0.0100481726     -86.6237412      0.999458572      0.57503961       
226.61           0.999458602      0.564792904      0.00986964745    -86.5731096      0.00986964745    -86.5731096      0.999458602      0.564792904      
227.38           0.999458577      0.554587487      0.00969185397    -86.5203192      0.00969185397    -86.5203192      0.999458577      0.554587487      
228.15           0.999458498      0.544422942      0.0095147855     -86.4652646      0.0095147855     -86.4652646      0.999458498      0.544422942      
228.92           0.999458365      0.534298859      0.0093384355     -86.4078329      0.0093384355     -86.4078329      0.999458365      0.534298859      
229.69           0.99945818       0.524214832      0.00916279757    -86.3479036      0.00916279757    -86.3479036      0.99945818       0.524214832      
230.46           0.999457943      0.514170462      0.00898786545    -86.2853474      0.00898786545    -86.2853474      0.999457943      0.514170462      
231.23           0.999457653      0.504165354      0.00881363303    -86.2200262      0.00881363303    -86.2200262      0.999457653      0.504165354      
232              0.999457312      0.494199118      0.00864009434    -86.1517913      0.00864009434    -86.1517913      0.999457312      0.494199118      
232.77           0.99945692       0.48427137       0.00846724356    -86.0804834      0.00846724356    -86.0804834      0.99945692       0.48427137       
233.54           0.999456478      0.474381732      0.00829507502    -86.0059309      0.00829507502    -86.0059309      0.999456478      0.474381732      
234.31           0.999455986      0.464529829      0.00812358323    -85.927949       0.00812358323    -85.927949       0.999455986      0.464529829      
235.08           0.999455444      0.454715292      0.00795276285    -85.8463385      0.00795276285    -85.8463385      0.999455444      0.454715292      
235.85           0.999454853      0.444937756      0.0077826087     -85.760884       0.0077826087     -85.760884       0.999454853      0.444937756      
236.62           0.999454213      0.435196862      0.0076131158     -85.6713529      0.0076131158     -85.6713529      0.999454213      0.435196862      
237.39           0.999453526      0.425492254      0.00744427936    -85.5774929      0.00744427936    -85.5774929      0.999453526      0.425492254      
238.16           0.999452791      0.415823583      0.00727609477    -85.4790303      0.00727609477    -85.4790303      0.999452791      0.415823583      
238.93           0.999452008      0.406190501      0.00710855765    -85.3756678      0.00710855765    -85.3756678      0.999452008      0.406190501      
239.7            0.999451178      0.396592669      0.00694166382    -85.2670815      0.00694166382    -85.2670815      0.999451178      0.396592669      
240.47           0.999450302      0.387029748      0.00677540937    -85.1529182      0.00677540937    -85.1529182      0.999450302      0.387029748      
241.24           0.999449381      0.377501406      0.00660979061    -85.0327919      0.00660979061    -85.0327919      0.999449381      0.377501406      
242.01           0.999448413      0.368007314      0.00644480416    -84.9062801      0.00644480416    -84.9062801      0.999448413      0.368007314      
242.78           0.9994474        0.358547148      0.00628044691    -84.7729191      0.00628044691    -84.7729191      0.9994474        0.358547148      
243.55           0.999446342      0.349120587      0.00611671611    -84.6321992      0.00611671611    -84.6321992      0.999446342      0.349120587      
244.32           0.99944524       0.339727315      0.00595360934    -84.4835584      0.00595360934    -84.4835584      0.99944524       0.339727315      
245.09           0.999444094      0.33036702       0.0057911246     -84.3263763      0.0057911246     -84.3263763      0.999444094      0.33036702       
245.86           0.999442904      0.321039393      0.0056292603     -84.1599655      0.0056292603     -84.1599655      0.999442904      0.321039393      
246.63           0.99944167       0.31174413       0.00546801537    -83.9835632      0.00546801537    -83.9835632      0.99944167       0.31174413       
247.4            0.999440394      0.30248093       0.00530738926    -83.7963199      0.00530738926    -83.7963199      0.999440394      0.30248093       
248.17           0.999439075      0.293249496      0.00514738206    -83.5972874      0.00514738206    -83.5972874      0.999439075      0.293249496      
248.94           0.999437714      0.284049534      0.00498799454    -83.3854036      0.00498799454    -83.3854036      0.999437714      0.284049534      
249.71           0.999436311      0.274880755      0.00482922828    -83.1594752      0.00482922828    -83.1594752      0.999436311      0.274880755      
250.48           0.999434866      0.265742872      0.00467108576    -82.9181575      0.00467108576    -82.9181575      0.999434866      0.265742872      
251.25           0.99943338       0.256635603      0.00451357051    -82.6599287      0.00451357051    -82.6599287      0.99943338       0.256635603      
252.02           0.999431853      0.247558668      0.0043566873     -82.3830608      0.0043566873     -82.3830608      0.999431853      0.247558668      
252.79           0.999430285      0.238511792      0.00420044229    -82.0855838      0.00420044229    -82.0855838      0.999430285      0.238511792      
253.56           0.999428677      0.229494703      0.00404484333    -81.7652418      0.00404484333    -81.7652418      0.999428677      0.229494703      
254.33           0.999427029      0.22050713       0.00388990024    -81.4194397      0.00388990024    -81.4194397      0.999427029      0.22050713       
255.1            0.999425341      0.211548808      0.00373562517    -81.0451782      0.00373562517    -81.0451782      0.999425341      0.211548808      
255.87           0.999423614      0.202619474      0.0035820331     -80.6389727      0.0035820331     -80.6389727      0.999423614      0.202619474      
256.64           0.999421848      0.193718869      0.00342914238    -80.1967522      0.00342914238    -80.1967522      0.999421848      0.193718869      
257.41           0.999420043      0.184846736      0.00327697551    -79.7137322      0.00327697551    -79.7137322      0.999420043      0.184846736      
258.18           0.9994182        0.176002821      0.00312556003    -79.1842545      0.00312556003    -79.1842545      0.9994182        0.176002821      
258.95           0.999416319      0.167186875      0.00297492977    -78.6015817      0.00297492977    -78.6015817      0.999416319      0.167186875      
259.72           0.999414399      0.158398649      0.00282512638    -77.9576321      0.00282512638    -77.9576321      0.999414399      0.158398649      
260.49           0.999412442      0.149637899      0.00267620141    -77.2426351      0.00267620141    -77.2426351      0.999412442      0.149637899      
261.26           0.999410448      0.140904384      0.00252821901    -76.4446773      0.00252821901    -76.4446773      0.999410448      0.140904384      
262.03           0.999408416      0.132197864      0.00238125965    -75.5490996      0.00238125965    -75.5490996      0.999408416      0.132197864      
262.8            0.999406348      0.123518104      0.00223542508    -74.5376859      0.00223542508    -74.5376859      0.999406348      0.123518104      
263.57           0.999404243      0.114864871      0.00209084528    -73.3875598      0.00209084528    -73.3875598      0.999404243      0.114864871      
264.34           0.999402102      0.106237933      0.00194768822    -72.0696676      0.00194768822    -72.0696676      0.999402102      0.106237933      
265.11           0.999399925      0.0976370629     0.00180617373    -70.5466683      0.00180617373    -70.5466683      0.999399925      0.0976370629     
265.88           0.999397712      0.0890620356     0.0016665937     -68.7699736      0.0016665937     -68.7699736      0.999397712      0.0890620356     
266.65           0.999395464      0.0805126282     0.00152934193    -66.6755686      0.00152934193    -66.6755686      0.999395464      0.0805126282     
267.42           0.99939318       0.0719886207     0.00139495886    -64.1781185      0.00139495886    -64.1781185      0.99939318       0.0719886207     
268.19           0.999390861      0.0634897956     0.00126419979    -61.1627715      0.00126419979    -61.1627715      0.999390861      0.0634897956     
268.96           0.999388507      0.0550159378     0.00113813933    -57.4742409      0.00113813933    -57.4742409      0.999388507      0.0550159378     
269.73           0.999386119      0.0465668347     0.00101833088    -52.9038456      0.00101833088    -52.9038456      0.999386119      0.0465668347     
270.5            0.999383697      0.0381422761     0.000907041371   -47.1790518      0.000907041371   -47.1790518      0.999383697      0.0381422761     
271.27           0.99938124       0.0297420542     0.00080756325    -39.9707302      0.00080756325    -39.9707302      0.99938124       0.0297420542     
272.04           0.99937875       0.0213659636     0.000724516859   -30.9558152      0.000724516859   -30.9558152      0.99937875       0.0213659636     
272.81           0.999376226      0.0130138011     0.000663816236   -19.9957262      0.000663816236   -19.9957262      0.999376226      0.0130138011     
273.58           0.999373668      0.00468536581    0.000631644407   -7.43392081      0.000631644407   -7.43392081      0.999373668      0.00468536581    
274.35           0.999371077      -0.00361954076   0.000632085496   5.73230351       0.000632085496   5.73230351       0.999371077      -0.00361954076   
275.12           0.999368454      -0.011901115     0.000664807245   18.1945515       0.000664807245   18.1945515       0.999368454      -0.011901115     
275.89           0.999365797      -0.0201595511    0.000725212946   29.0033584       0.000725212946   29.0033584       0.999365797      -0.0201595511    
276.66           0.999363108      -0.0283950411    0.000806896348   37.8646271       0.000806896348   37.8646271       0.999363108      -0.0283950411    
277.43           0.999360386      -0.0366077749    0.000903919996   44.9417212       0.000903919996   44.9417212       0.999360386      -0.0366077749    
278.2            0.999357632      -0.0447979402    0.00101171459    50.5628439       0.00101171459    50.5628439       0.999357632      -0.0447979402    
278.97           0.999354847      -0.0529657228    0.00112704711    55.0538162       0.00112704711    55.0538162       0.999354847      -0.0529657228    
279.74           0.999352029      -0.0611113063    0.00124769808    58.6819321       0.00124769808    58.6819321       0.999352029      -0.0611113063    
280.51           0.99934918       -0.0692348723    0.00137214782    61.6511269       0.00137214782    61.6511269       0.99934918       -0.0692348723    
281.28           0.9993463        -0.0773366006    0.00149934462    64.1129889       0.00149934462    64.1129889       0.9993463        -0.0773366006    
282.05           0.999343388      -0.0854166688    0.00162854858    66.179643        0.00162854858    66.179643        0.999343388      -0.0854166688    
282.82           0.999340445      -0.0934752527    0.0017592295     67.9344509       0.0017592295     67.9344509       0.999340445      -0.0934752527    
283.59           0.999337472      -0.101512526     0.00189100043    69.4400024       0.00189100043    69.4400024       0.999337472      -0.101512526     
284.36           0.999334468      -0.109528661     0.00202357395    70.7438513       0.00202357395    70.7438513       0.999334468      -0.109528661     
285.13           0.999331433      -0.117523828     0.00215673313    71.8825797       0.00215673313    71.8825797       0.999331433      -0.117523828     
285.9            0.999328368      -0.125498194     0.00229031177    72.8846788       0.00229031177    72.8846788       0.999328368      -0.125498194     
286.67           0.999325273      -0.133451927     0.00242418081    73.7726028       0.00242418081    73.7726028       0.999325273      -0.133451927     
287.44           0.999322148      -0.141385191     0.00255823884    74.564247        0.00255823884    74.564247        0.999322148      -0.141385191     
288.21           0.999318993      -0.149298149     0.00269240528    75.2740245       0.00269240528    75.2740245       0.999318993      -0.149298149     
288.98           0.999315808      -0.157190962     0.00282661549    75.9136572       0.00282661549    75.9136572       0.999315808      -0.157190962     
289.75           0.999312594      -0.16506379      0.00296081719    76.4927657       0.00296081719    76.4927657       0.999312594      -0.16506379      
290.52           0.999309351      -0.17291679      0.00309496771    77.0193127       0.00309496771    77.0193127       0.999309351      -0.17291679      
291.29           0.999306079      -0.180750119     0.00322903205    77.4999407       0.00322903205    77.4999407       0.999306079      -0.180750119     
292.06           0.999302778      -0.188563931     0.00336298129    77.9402312       0.00336298129    77.9402312       0.999302778      -0.188563931     
292.83           0.999299447      -0.196358379     0.00349679144    78.344906        0.00349679144    78.344906        0.999299447      -0.196358379     
293.6            0.999296089      -0.204133614     0.00363044249    78.7179852       0.00363044249    78.7179852       0.999296089      -0.204133614     
294.37           0.999292701      -0.211889785     0.00376391769    79.0629113       0.00376391769    79.0629113       0.999292701      -0.211889785     
295.14           0.999289286      -0.219627042     0.00389720299    79.3826487       0.00389720299    79.3826487       0.999289286      -0.219627042     
295.91           0.999285842      -0.22734553      0.00403028659    79.6797631       0.00403028659    79.6797631       0.999285842      -0.22734553      
296.68           0.99928237       -0.235045395     0.00416315853    79.9564859       0.00416315853    79.9564859       0.99928237       -0.235045395     
297.45           0.99927887       -0.242726779     0.00429581043    80.2147665       0.00429581043    80.2147665       0.99927887       -0.242726779     
298.22           0.999275343      -0.250389826     0.00442823523    80.4563152       0.00442823523    80.4563152       0.999275343      -0.250389826     
298.99           0.999271788      -0.258034675     0.00456042697    80.6826386       0.00456042697    80.6826386       0.999271788      -0.258034675     
299.76           0.999268205      -0.265661466     0.00469238068    80.8950689       0.00469238068    80.8950689       0.999268205      -0.265661466     
300.53           0.999264595      -0.273270336     0.00482409219    81.0947882       0.00482409219    81.0947882       0.999264595      -0.273270336     
301.3            0.999260958      -0.280861423     0.00495555801    81.282849        0.00495555801    81.282849        0.999260958      -0.280861423     
302.07           0.999257293      -0.28843486      0.00508677529    81.4601914       0.00508677529    81.4601914       0.999257293      -0.28843486      
302.84           0.999253602      -0.295990781     0.00521774168    81.6276575       0.00521774168    81.6276575       0.999253602      -0.295990781     
303.61           0.999249884      -0.303529319     0.0053484553     81.7860041       0.0053484553     81.7860041       0.999249884      -0.303529319     
304.38           0.999246139      -0.311050604     0.00547891464    81.935913        0.00547891464    81.935913        0.999246139      -0.311050604     
305.15           0.999242368      -0.318554766     0.00560911856    82.0779999       0.00560911856    82.0779999       0.999242368      -0.318554766     
305.92           0.99923857       -0.326041932     0.0057390662     82.2128225       0.0057390662     82.2128225       0.99923857       -0.326041932     
306.69           0.999234746      -0.333512231     0.00586875699    82.3408868       0.00586875699    82.3408868       0.999234746      -0.333512231     
307.46           0.999230896      -0.340965788     0.00599819056    82.4626533       0.00599819056    82.4626533       0.999230896      -0.340965788     
308.23           0.99922702       -0.348402726     0.00612736676    82.5785416       0.00612736676    82.5785416       0.99922702       -0.348402726     
309              0.999223118      -0.35582317      0.00625628564    82.6889353       0.00625628564    82.6889353       0.999223118      -0.35582317      
309.77           0.99921919       -0.363227241     0.00638494736    82.7941852       0.00638494736    82.7941852       0.99921919       -0.363227241     
310              0.999218012      -0.365435688     0.00642332895    82.8246743       0.00642332895    82.8246743       0.999218012      -0.365435688     
