! Coilcraft 1812CS-152 Chip Inductor				
! 31 July 2002			
# MHZ S MA R 50
!Freq             MagS11           AngS11           MagS21           AngS21           MagS12           AngS12           MagS22           AngS22
1                0.0954506252     71.8247303       0.974455734      -5.33999227      0.974455734      -5.33999227      0.0954506252     71.8247303       
1.97             0.182174671      72.2946884       0.960406782      -10.4105446      0.960406782      -10.4105446      0.182174671      72.2946884       
2.94             0.265126671      69.4266913       0.940190506      -15.3080139      0.940190506      -15.3080139      0.265126671      69.4266913       
3.91             0.342556724      65.8283211       0.914773332      -19.9767626      0.914773332      -19.9767626      0.342556724      65.8283211       
4.88             0.413519733      62.0964258       0.88541321       -24.3768613      0.88541321       -24.3768613      0.413519733      62.0964258       
5.85             0.477608156      58.4487341       0.853394315      -28.4847121      0.853394315      -28.4847121      0.477608156      58.4487341       
6.82             0.534830052      54.9801394       0.819882715      -32.2912792      0.819882715      -32.2912792      0.534830052      54.9801394       
7.79             0.585488992      51.7320739       0.785852593      -35.7991445      0.785852593      -35.7991445      0.585488992      51.7320739       
8.76             0.630072861      48.7185412       0.752063783      -39.019277       0.752063783      -39.019277       0.630072861      48.7185412       
9.73             0.669163155      45.9383993       0.719072491      -41.9680815      0.719072491      -41.9680815      0.669163155      45.9383993       
10.7             0.703368857      43.3820847       0.687259475      -44.6649958      0.687259475      -44.6649958      0.703368857      43.3820847       
11.67            0.733283012      41.0356022       0.656864233      -47.1306977      0.656864233      -47.1306977      0.733283012      41.0356022       
12.64            0.759457359      38.8829665       0.62801831       -49.3858637      0.62801831       -49.3858637      0.759457359      38.8829665       
13.61            0.782389905      36.9076933       0.600774268      -51.4503726      0.600774268      -51.4503726      0.782389905      36.9076933       
14.58            0.802521045      35.0936855       0.575129194      -53.3428412      0.575129194      -53.3428412      0.802521045      35.0936855       
15.55            0.820234824      33.4257302       0.551042885      -55.0803934      0.551042885      -55.0803934      0.820234824      33.4257302       
16.52            0.835863033      31.8897489       0.528451397      -56.6785857      0.528451397      -56.6785857      0.835863033      31.8897489       
17.49            0.849690581      30.4728916       0.507276855      -58.151429       0.507276855      -58.151429       0.849690581      30.4728916       
18.46            0.861961219      29.1635374       0.487434371      -59.5114699      0.487434371      -59.5114699      0.861961219      29.1635374       
19.43            0.872883094      27.9512416       0.468836791      -60.7699009      0.468836791      -60.7699009      0.872883094      27.9512416       
20.4             0.882633836      26.826653        0.451397847      -61.9366837      0.451397847      -61.9366837      0.882633836      26.826653        
21.37            0.891365093      25.7814194       0.435034188      -63.0206745      0.435034188      -63.0206745      0.891365093      25.7814194       
22.34            0.899206466      24.8080903       0.419666587      -64.0297437      0.419666587      -64.0297437      0.899206466      24.8080903       
23.31            0.906268901      23.9000218       0.405220614      -64.9708879      0.405220614      -64.9708879      0.906268901      23.9000218       
24.28            0.912647558      23.0512878       0.391626912      -65.8503318      0.391626912      -65.8503318      0.912647558      23.0512878       
25.25            0.918424246      22.2565989       0.378821241      -66.6736193      0.378821241      -66.6736193      0.918424246      22.2565989       
26.22            0.923669468      21.5112293       0.366744343      -67.4456948      0.366744343      -67.4456948      0.923669468      21.5112293       
27.19            0.928444144      20.8109506       0.355341718      -68.170975       0.355341718      -68.170975       0.928444144      20.8109506       
28.16            0.932801052      20.1519746       0.344563347      -68.853412       0.344563347      -68.853412       0.932801052      20.1519746       
29.13            0.936786043      19.5309016       0.334363377      -69.4965485      0.334363377      -69.4965485      0.936786043      19.5309016       
30.1             0.940439056      18.9446752       0.324699807      -70.1035657      0.324699807      -70.1035657      0.940439056      18.9446752       
31.07            0.943794978      18.3905432       0.315534174      -70.6773262      0.315534174      -70.6773262      0.943794978      18.3905432       
32.04            0.946884363      17.8660227       0.306831256      -71.2204103      0.306831256      -71.2204103      0.946884363      17.8660227       
33.01            0.949734043      17.3688698       0.29855879       -71.7351487      0.29855879       -71.7351487      0.949734043      17.3688698       
33.98            0.952367642      16.8970526       0.290687203      -72.22365        0.290687203      -72.22365        0.952367642      16.8970526       
34.95            0.954806012      16.4487282       0.283189376      -72.6878263      0.283189376      -72.6878263      0.954806012      16.4487282       
35.92            0.957067606      16.0222221       0.276040418      -73.1294137      0.276040418      -73.1294137      0.957067606      16.0222221       
36.89            0.959168793      15.61601         0.269217463      -73.5499922      0.269217463      -73.5499922      0.959168793      15.61601         
37.86            0.961124125      15.228702        0.262699488      -73.9510018      0.262699488      -73.9510018      0.961124125      15.228702        
38.83            0.962946575      14.8590287       0.256467139      -74.3337572      0.256467139      -74.3337572      0.962946575      14.8590287       
39.8             0.964647727      14.5058286       0.250502587      -74.6994612      0.250502587      -74.6994612      0.964647727      14.5058286       
40.77            0.966237953      14.1680376       0.244789386      -75.0492152      0.244789386      -75.0492152      0.966237953      14.1680376       
41.74            0.967726556      13.8446788       0.239312351      -75.3840301      0.239312351      -75.3840301      0.967726556      13.8446788       
42.71            0.969121897      13.5348544       0.234057444      -75.7048349      0.234057444      -75.7048349      0.969121897      13.5348544       
43.68            0.970431508      13.2377379       0.229011677      -76.0124847      0.229011677      -76.0124847      0.970431508      13.2377379       
44.65            0.971662186      12.9525672       0.224163015      -76.3077676      0.224163015      -76.3077676      0.971662186      12.9525672       
45.62            0.972820074      12.6786387       0.219500299      -76.5914111      0.219500299      -76.5914111      0.972820074      12.6786387       
46.59            0.97391074       12.4153022       0.215013168      -76.8640876      0.215013168      -76.8640876      0.97391074       12.4153022       
47.56            0.974939231      12.1619554       0.210691993      -77.1264198      0.210691993      -77.1264198      0.974939231      12.1619554       
48.53            0.975910137      11.9180402       0.206527814      -77.3789845      0.206527814      -77.3789845      0.975910137      11.9180402       
49.5             0.976827635      11.6830385       0.202512287      -77.6223172      0.202512287      -77.6223172      0.976827635      11.6830385       
50.47            0.977695536      11.456469        0.198637634      -77.8569153      0.198637634      -77.8569153      0.977695536      11.456469        
51.44            0.978517317      11.2378838       0.194896594      -78.0832418      0.194896594      -78.0832418      0.978517317      11.2378838       
52.41            0.979296161      11.0268656       0.191282386      -78.3017276      0.191282386      -78.3017276      0.979296161      11.0268656       
53.38            0.980034982      10.8230254       0.187788669      -78.5127749      0.187788669      -78.5127749      0.980034982      10.8230254       
54.35            0.980736454      10.626           0.184409507      -78.7167587      0.184409507      -78.7167587      0.980736454      10.626           
55.32            0.981403031      10.43545         0.18113934       -78.9140297      0.18113934       -78.9140297      0.981403031      10.43545         
56.29            0.982036971      10.2510577       0.177972955      -79.104916       0.177972955      -79.104916       0.982036971      10.2510577       
57.26            0.982640356      10.0725259       0.174905458      -79.2897248      0.174905458      -79.2897248      0.982640356      10.0725259       
58.23            0.983215101      9.89957562       0.171932253      -79.4687439      0.171932253      -79.4687439      0.983215101      9.89957562       
59.2             0.983762979      9.73194542       0.169049019      -79.6422436      0.169049019      -79.6422436      0.983762979      9.73194542       
60.17            0.984285626      9.56938958       0.16625169       -79.8104774      0.16625169       -79.8104774      0.984285626      9.56938958       
61.14            0.984784556      9.41167719       0.163536437      -79.973684       0.163536437      -79.973684       0.984784556      9.41167719       
62.11            0.985261172      9.25859094       0.160899653      -80.1320876      0.160899653      -80.1320876      0.985261172      9.25859094       
63.08            0.985716776      9.10992624       0.158337933      -80.2858994      0.158337933      -80.2858994      0.985716776      9.10992624       
64.05            0.986152576      8.96549024       0.155848065      -80.4353187      0.155848065      -80.4353187      0.986152576      8.96549024       
65.02            0.986569696      8.82510105       0.153427016      -80.5805332      0.153427016      -80.5805332      0.986569696      8.82510105       
65.99            0.98696918       8.68858695       0.151071915      -80.7217201      0.151071915      -80.7217201      0.98696918       8.68858695       
66.96            0.987352002      8.55578573       0.14878005       -80.8590469      0.14878005       -80.8590469      0.987352002      8.55578573       
67.93            0.987719069      8.42654403       0.146548853      -80.9926719      0.146548853      -80.9926719      0.987719069      8.42654403       
68.9             0.988071226      8.30071673       0.144375889      -81.1227448      0.144375889      -81.1227448      0.988071226      8.30071673       
69.87            0.988409266      8.17816645       0.142258852      -81.2494075      0.142258852      -81.2494075      0.988409266      8.17816645       
70.84            0.988733926      8.058763         0.140195554      -81.3727943      0.140195554      -81.3727943      0.988733926      8.058763         
71.81            0.989045899      7.94238295       0.138183919      -81.4930325      0.138183919      -81.4930325      0.989045899      7.94238295       
72.78            0.989345831      7.82890921       0.136221974      -81.6102429      0.136221974      -81.6102429      0.989345831      7.82890921       
73.75            0.989634329      7.71823059       0.134307845      -81.7245404      0.134307845      -81.7245404      0.989634329      7.71823059       
74.72            0.989911964      7.61024147       0.13243975       -81.8360337      0.13243975       -81.8360337      0.989911964      7.61024147       
75.69            0.990179267      7.50484145       0.130615993      -81.9448265      0.130615993      -81.9448265      0.990179267      7.50484145       
76.66            0.990436742      7.40193503       0.12883496       -82.0510173      0.12883496       -82.0510173      0.990436742      7.40193503       
77.63            0.990684861      7.3014313        0.127095113      -82.1546997      0.127095113      -82.1546997      0.990684861      7.3014313        
78.6             0.990924066      7.20324372       0.125394986      -82.2559631      0.125394986      -82.2559631      0.990924066      7.20324372       
79.57            0.991154776      7.10728981       0.123733182      -82.3548925      0.123733182      -82.3548925      0.991154776      7.10728981       
80.54            0.991377384      7.01349093       0.122108368      -82.4515688      0.122108368      -82.4515688      0.991377384      7.01349093       
81.51            0.991592262      6.92177209       0.120519271      -82.5460695      0.120519271      -82.5460695      0.991592262      6.92177209       
82.48            0.99179976       6.83206169       0.118964675      -82.6384683      0.118964675      -82.6384683      0.99179976       6.83206169       
83.45            0.992000207      6.74429139       0.117443419      -82.7288355      0.117443419      -82.7288355      0.992000207      6.74429139       
84.42            0.992193917      6.65839586       0.115954392      -82.8172386      0.115954392      -82.8172386      0.992193917      6.65839586       
85.39            0.992381184      6.5743127        0.114496533      -82.9037416      0.114496533      -82.9037416      0.992381184      6.5743127        
86.36            0.992562288      6.4919822        0.113068825      -82.9884063      0.113068825      -82.9884063      0.992562288      6.4919822        
87.33            0.992737492      6.41134724       0.111670295      -83.0712912      0.111670295      -83.0712912      0.992737492      6.41134724       
88.3             0.992907047      6.33235314       0.110300011      -83.1524527      0.110300011      -83.1524527      0.992907047      6.33235314       
89.27            0.99307119       6.25494755       0.108957081      -83.2319447      0.108957081      -83.2319447      0.99307119       6.25494755       
90.24            0.993230146      6.17908029       0.107640649      -83.3098188      0.107640649      -83.3098188      0.993230146      6.17908029       
91.21            0.993384127      6.10470327       0.106349893      -83.3861244      0.106349893      -83.3861244      0.993384127      6.10470327       
92.18            0.993533336      6.03177039       0.105084027      -83.4609089      0.105084027      -83.4609089      0.993533336      6.03177039       
93.15            0.993677965      5.9602374        0.103842294      -83.5342178      0.103842294      -83.5342178      0.993677965      5.9602374        
94.12            0.993818196      5.89006184       0.102623968      -83.6060947      0.102623968      -83.6060947      0.993818196      5.89006184       
95.09            0.993954204      5.82120294       0.101428353      -83.6765815      0.101428353      -83.6765815      0.993954204      5.82120294       
96.06            0.994086152      5.75362156       0.100254779      -83.7457183      0.100254779      -83.7457183      0.994086152      5.75362156       
97.03            0.994214198      5.68728005       0.099102601      -83.8135439      0.099102601      -83.8135439      0.994214198      5.68728005       
98               0.994338491      5.62214225       0.0979712003     -83.8800952      0.0979712003     -83.8800952      0.994338491      5.62214225       
98.97            0.994459174      5.55817338       0.0968599811     -83.945408       0.0968599811     -83.945408       0.994459174      5.55817338       
99.94            0.994576382      5.49533997       0.0957683699     -84.0095165      0.0957683699     -84.0095165      0.994576382      5.49533997       
100.91           0.994690244      5.43360984       0.0946958149     -84.0724537      0.0946958149     -84.0724537      0.994690244      5.43360984       
101.88           0.994800884      5.37295197       0.0936417843     -84.1342514      0.0936417843     -84.1342514      0.994800884      5.37295197       
102.85           0.99490842       5.31333652       0.0926057663     -84.1949401      0.0926057663     -84.1949401      0.99490842       5.31333652       
103.82           0.995012963      5.25473472       0.0915872672     -84.2545492      0.0915872672     -84.2545492      0.995012963      5.25473472       
104.79           0.995114621      5.19711886       0.0905858113     -84.313107       0.0905858113     -84.313107       0.995114621      5.19711886       
105.76           0.995213497      5.14046223       0.0896009399     -84.3706408      0.0896009399     -84.3706408      0.995213497      5.14046223       
106.73           0.995309688      5.08473906       0.0886322105     -84.427177       0.0886322105     -84.427177       0.995309688      5.08473906       
107.7            0.995403288      5.0299245        0.0876791961     -84.4827408      0.0876791961     -84.4827408      0.995403288      5.0299245        
108.67           0.995494386      4.97599457       0.0867414845     -84.5373567      0.0867414845     -84.5373567      0.995494386      4.97599457       
109.64           0.995583069      4.92292612       0.0858186778     -84.5910483      0.0858186778     -84.5910483      0.995583069      4.92292612       
110.61           0.995669417      4.8706968        0.0849103917     -84.6438382      0.0849103917     -84.6438382      0.995669417      4.8706968        
111.58           0.995753511      4.81928503       0.084016255      -84.6957486      0.084016255      -84.6957486      0.995753511      4.81928503       
112.55           0.995835424      4.76866995       0.0831359088     -84.7468004      0.0831359088     -84.7468004      0.995835424      4.76866995       
113.52           0.99591523       4.71883141       0.0822690063     -84.7970142      0.0822690063     -84.7970142      0.99591523       4.71883141       
114.49           0.995992997      4.66974994       0.0814152122     -84.8464098      0.0814152122     -84.8464098      0.995992997      4.66974994       
115.46           0.996068792      4.62140668       0.0805742023     -84.8950062      0.0805742023     -84.8950062      0.996068792      4.62140668       
116.43           0.996142678      4.57378344       0.0797456626     -84.9428218      0.0797456626     -84.9428218      0.996142678      4.57378344       
117.4            0.996214716      4.52686257       0.0789292897     -84.9898744      0.0789292897     -84.9898744      0.996214716      4.52686257       
118.37           0.996284965      4.48062703       0.0781247896     -85.0361812      0.0781247896     -85.0361812      0.996284965      4.48062703       
119.34           0.996353481      4.4350603        0.0773318778     -85.081759       0.0773318778     -85.081759       0.996353481      4.4350603        
120.31           0.996420318      4.39014641       0.0765502788     -85.1266237      0.0765502788     -85.1266237      0.996420318      4.39014641       
121.28           0.996485528      4.34586986       0.0757797256     -85.170791       0.0757797256     -85.170791       0.996485528      4.34586986       
122.25           0.996549161      4.30221566       0.0750199597     -85.2142758      0.0750199597     -85.2142758      0.996549161      4.30221566       
123.22           0.996611266      4.25916928       0.0742707303     -85.2570928      0.0742707303     -85.2570928      0.996611266      4.25916928       
124.19           0.996671887      4.21671664       0.0735317946     -85.299256       0.0735317946     -85.299256       0.996671887      4.21671664       
125.16           0.99673107       4.17484407       0.072802917      -85.3407791      0.072802917      -85.3407791      0.99673107       4.17484407       
126.13           0.996788858      4.13353836       0.072083869      -85.3816752      0.072083869      -85.3816752      0.996788858      4.13353836       
127.1            0.996845291      4.09278665       0.071374429      -85.4219572      0.071374429      -85.4219572      0.996845291      4.09278665       
128.07           0.996900409      4.05257648       0.0706743819     -85.4616373      0.0706743819     -85.4616373      0.996900409      4.05257648       
129.04           0.996954251      4.01289578       0.0699835191     -85.5007277      0.0699835191     -85.5007277      0.996954251      4.01289578       
130.01           0.997006852      3.97373282       0.069301638      -85.5392398      0.069301638      -85.5392398      0.997006852      3.97373282       
130.98           0.99705825       3.9350762        0.0686285419     -85.5771849      0.0686285419     -85.5771849      0.99705825       3.9350762        
131.95           0.997108477      3.89691487       0.0679640399     -85.6145739      0.0679640399     -85.6145739      0.997108477      3.89691487       
132.92           0.997157566      3.85923809       0.0673079463     -85.6514174      0.0673079463     -85.6514174      0.997157566      3.85923809       
133.89           0.99720555       3.82203544       0.066660081      -85.6877255      0.066660081      -85.6877255      0.99720555       3.82203544       
134.86           0.99725246       3.78529678       0.0660202689     -85.7235081      0.0660202689     -85.7235081      0.99725246       3.78529678       
135.83           0.997298324      3.74901227       0.0653883398     -85.7587749      0.0653883398     -85.7587749      0.997298324      3.74901227       
136.8            0.997343171      3.71317232       0.0647641281     -85.7935351      0.0647641281     -85.7935351      0.997343171      3.71317232       
137.77           0.997387029      3.67776765       0.064147473      -85.8277977      0.064147473      -85.8277977      0.997387029      3.67776765       
138.74           0.997429924      3.6427892        0.0635382181     -85.8615714      0.0635382181     -85.8615714      0.997429924      3.6427892        
139.71           0.997471883      3.60822817       0.0629362111     -85.8948648      0.0629362111     -85.8948648      0.997471883      3.60822817       
140.68           0.99751293       3.57407601       0.0623413041     -85.927686       0.0623413041     -85.927686       0.99751293       3.57407601       
141.65           0.997553089      3.54032439       0.061753353      -85.9600429      0.061753353      -85.9600429      0.997553089      3.54032439       
142.62           0.997592383      3.50696521       0.0611722176     -85.9919433      0.0611722176     -85.9919433      0.997592383      3.50696521       
143.59           0.997630835      3.47399057       0.0605977614     -86.0233946      0.0605977614     -86.0233946      0.997630835      3.47399057       
144.56           0.997668466      3.44139281       0.0600298517     -86.054404       0.0600298517     -86.054404       0.997668466      3.44139281       
145.53           0.997705297      3.40916446       0.059468359      -86.0849785      0.059468359      -86.0849785      0.997705297      3.40916446       
146.5            0.99774135       3.37729822       0.0589131574     -86.115125       0.0589131574     -86.115125       0.99774135       3.37729822       
147.47           0.997776643      3.34578703       0.0583641241     -86.1448501      0.0583641241     -86.1448501      0.997776643      3.34578703       
148.44           0.997811195      3.31462396       0.0578211397     -86.17416        0.0578211397     -86.17416        0.997811195      3.31462396       
149.41           0.997845025      3.2838023        0.0572840876     -86.203061       0.0572840876     -86.203061       0.997845025      3.2838023        
150.38           0.997878151      3.25331549       0.0567528544     -86.231559       0.0567528544     -86.231559       0.997878151      3.25331549       
151.35           0.99791059       3.22315714       0.0562273293     -86.2596599      0.0562273293     -86.2596599      0.99791059       3.22315714       
152.32           0.997942358      3.19332103       0.0557074045     -86.2873693      0.0557074045     -86.2873693      0.997942358      3.19332103       
153.29           0.997973473      3.16380108       0.0551929749     -86.3146925      0.0551929749     -86.3146925      0.997973473      3.16380108       
154.26           0.998003949      3.13459137       0.0546839379     -86.3416349      0.0546839379     -86.3416349      0.998003949      3.13459137       
155.23           0.998033802      3.10568613       0.0541801934     -86.3682016      0.0541801934     -86.3682016      0.998033802      3.10568613       
156.2            0.998063046      3.07707974       0.0536816439     -86.3943974      0.0536816439     -86.3943974      0.998063046      3.07707974       
157.17           0.998091697      3.04876669       0.0531881942     -86.4202272      0.0531881942     -86.4202272      0.998091697      3.04876669       
158.14           0.998119768      3.02074162       0.0526997514     -86.4456955      0.0526997514     -86.4456955      0.998119768      3.02074162       
159.11           0.998147272      2.99299932       0.0522162248     -86.4708069      0.0522162248     -86.4708069      0.998147272      2.99299932       
160.08           0.998174222      2.96553466       0.051737526      -86.4955655      0.051737526      -86.4955655      0.998174222      2.96553466       
161.05           0.998200631      2.93834268       0.0512635687     -86.5199756      0.0512635687     -86.5199756      0.998200631      2.93834268       
162.02           0.998226512      2.9114185        0.0507942684     -86.5440412      0.0507942684     -86.5440412      0.998226512      2.9114185        
162.99           0.998251876      2.88475739       0.0503295428     -86.5677662      0.0503295428     -86.5677662      0.998251876      2.88475739       
163.96           0.998276736      2.85835469       0.0498693116     -86.5911542      0.0498693116     -86.5911542      0.998276736      2.85835469       
164.93           0.998301101      2.83220588       0.0494134961     -86.614209       0.0494134961     -86.614209       0.998301101      2.83220588       
165.9            0.998324984      2.80630655       0.0489620197     -86.6369339      0.0489620197     -86.6369339      0.998324984      2.80630655       
166.87           0.998348394      2.78065235       0.0485148074     -86.6593324      0.0485148074     -86.6593324      0.998348394      2.78065235       
167.84           0.998371343      2.75523908       0.0480717859     -86.6814076      0.0480717859     -86.6814076      0.998371343      2.75523908       
168.81           0.99839384       2.73006261       0.0476328837     -86.7031626      0.0476328837     -86.7031626      0.99839384       2.73006261       
169.78           0.998415895      2.70511889       0.0471980307     -86.7246004      0.0471980307     -86.7246004      0.998415895      2.70511889       
170.75           0.998437518      2.680404         0.0467671587     -86.7457238      0.0467671587     -86.7457238      0.998437518      2.680404         
171.72           0.998458717      2.65591407       0.0463402007     -86.7665357      0.0463402007     -86.7665357      0.998458717      2.65591407       
172.69           0.998479501      2.63164535       0.0459170914     -86.7870385      0.0459170914     -86.7870385      0.998479501      2.63164535       
173.66           0.99849988       2.60759414       0.0454977669     -86.8072348      0.0454977669     -86.8072348      0.99849988       2.60759414       
174.63           0.998519862      2.58375684       0.0450821645     -86.827127       0.0450821645     -86.827127       0.998519862      2.58375684       
175.6            0.998539456      2.56012993       0.0446702232     -86.8467173      0.0446702232     -86.8467173      0.998539456      2.56012993       
176.57           0.998558668      2.53670996       0.0442618832     -86.866008       0.0442618832     -86.866008       0.998558668      2.53670996       
177.54           0.998577507      2.51349357       0.0438570859     -86.885001       0.0438570859     -86.885001       0.998577507      2.51349357       
178.51           0.998595981      2.49047744       0.0434557741     -86.9036983      0.0434557741     -86.9036983      0.998595981      2.49047744       
179.48           0.998614096      2.46765836       0.0430578917     -86.9221018      0.0430578917     -86.9221018      0.998614096      2.46765836       
180.45           0.998631861      2.44503316       0.0426633838     -86.9402132      0.0426633838     -86.9402132      0.998631861      2.44503316       
181.42           0.998649282      2.42259875       0.0422721969     -86.9580342      0.0422721969     -86.9580342      0.998649282      2.42259875       
182.39           0.998666366      2.4003521        0.0418842783     -86.9755662      0.0418842783     -86.9755662      0.998666366      2.4003521        
183.36           0.99868312       2.37829026       0.0414995766     -86.9928106      0.0414995766     -86.9928106      0.99868312       2.37829026       
184.33           0.99869955       2.35641032       0.0411180414     -87.0097689      0.0411180414     -87.0097689      0.99869955       2.35641032       
185.3            0.998715662      2.33470943       0.0407396233     -87.0264422      0.0407396233     -87.0264422      0.998715662      2.33470943       
186.27           0.998731463      2.31318482       0.0403642742     -87.0428316      0.0403642742     -87.0428316      0.998731463      2.31318482       
187.24           0.998746959      2.29183377       0.0399919467     -87.0589381      0.0399919467     -87.0589381      0.998746959      2.29183377       
188.21           0.998762155      2.27065359       0.0396225943     -87.0747628      0.0396225943     -87.0747628      0.998762155      2.27065359       
189.18           0.998777057      2.24964169       0.0392561718     -87.0903063      0.0392561718     -87.0903063      0.998777057      2.24964169       
190.15           0.998791671      2.22879549       0.0388926345     -87.1055694      0.0388926345     -87.1055694      0.998791671      2.22879549       
191.12           0.998806003      2.2081125        0.038531939      -87.1205527      0.038531939      -87.1205527      0.998806003      2.2081125        
192.09           0.998820056      2.18759023       0.0381740426     -87.1352568      0.0381740426     -87.1352568      0.998820056      2.18759023       
193.06           0.998833837      2.1672263        0.0378189032     -87.149682       0.0378189032     -87.149682       0.998833837      2.1672263        
194.03           0.998847351      2.14701833       0.03746648       -87.1638286      0.03746648       -87.1638286      0.998847351      2.14701833       
195              0.998860602      2.12696402       0.0371167327     -87.1776969      0.0371167327     -87.1776969      0.998860602      2.12696402       
195.97           0.998873596      2.10706108       0.0367696218     -87.191287       0.0367696218     -87.191287       0.998873596      2.10706108       
196.94           0.998886336      2.0873073        0.0364251088     -87.2045988      0.0364251088     -87.2045988      0.998886336      2.0873073        
197.91           0.998898828      2.06770049       0.0360831556     -87.2176324      0.0360831556     -87.2176324      0.998898828      2.06770049       
198.88           0.998911076      2.04823851       0.0357437251     -87.2303874      0.0357437251     -87.2303874      0.998911076      2.04823851       
199.85           0.998923084      2.02891927       0.0354067809     -87.2428635      0.0354067809     -87.2428635      0.998923084      2.02891927       
200.82           0.998934857      2.0097407        0.0350722872     -87.2550605      0.0350722872     -87.2550605      0.998934857      2.0097407        
201.79           0.998946398      1.99070079       0.034740209      -87.2669776      0.034740209      -87.2669776      0.998946398      1.99070079       
202.76           0.998957712      1.97179756       0.0344105117     -87.2786144      0.0344105117     -87.2786144      0.998957712      1.97179756       
203.73           0.998968803      1.95302906       0.0340831617     -87.2899701      0.0340831617     -87.2899701      0.998968803      1.95302906       
204.7            0.998979674      1.93439339       0.0337581259     -87.3010437      0.0337581259     -87.3010437      0.998979674      1.93439339       
205.67           0.998990329      1.91588868       0.0334353717     -87.3118345      0.0334353717     -87.3118345      0.998990329      1.91588868       
206.64           0.999000772      1.8975131        0.0331148672     -87.3223413      0.0331148672     -87.3223413      0.999000772      1.8975131        
207.61           0.999011007      1.87926483       0.0327965812     -87.3325628      0.0327965812     -87.3325628      0.999011007      1.87926483       
208.58           0.999021037      1.86114212       0.032480483      -87.3424979      0.032480483      -87.3424979      0.999021037      1.86114212       
209.55           0.999030865      1.84314322       0.0321665423     -87.3521451      0.0321665423     -87.3521451      0.999030865      1.84314322       
210.52           0.999040495      1.82526644       0.0318547296     -87.3615028      0.0318547296     -87.3615028      0.999040495      1.82526644       
211.49           0.99904993       1.8075101        0.0315450159     -87.3705694      0.0315450159     -87.3705694      0.99904993       1.8075101        
212.46           0.999059173      1.78987257       0.0312373725     -87.379343       0.0312373725     -87.379343       0.999059173      1.78987257       
213.43           0.999068228      1.77235222       0.0309317714     -87.3878218      0.0309317714     -87.3878218      0.999068228      1.77235222       
214.4            0.999077097      1.75494747       0.0306281853     -87.3960036      0.0306281853     -87.3960036      0.999077097      1.75494747       
215.37           0.999085783      1.73765677       0.030326587      -87.4038864      0.030326587      -87.4038864      0.999085783      1.73765677       
216.34           0.99909429       1.7204786        0.0300269499     -87.4114677      0.0300269499     -87.4114677      0.99909429       1.7204786        
217.31           0.99910262       1.70341145       0.0297292482     -87.4187451      0.0297292482     -87.4187451      0.99910262       1.70341145       
218.28           0.999110776      1.68645385       0.029433456      -87.425716       0.029433456      -87.425716       0.999110776      1.68645385       
219.25           0.999118761      1.66960435       0.0291395484     -87.4323776      0.0291395484     -87.4323776      0.999118761      1.66960435       
220.22           0.999126577      1.65286153       0.0288475005     -87.4387269      0.0288475005     -87.4387269      0.999126577      1.65286153       
221.19           0.999134228      1.636224         0.0285572881     -87.444761       0.0285572881     -87.444761       0.999134228      1.636224         
222.16           0.999141715      1.61969037       0.0282688874     -87.4504766      0.0282688874     -87.4504766      0.999141715      1.61969037       
223.13           0.999149041      1.60325931       0.0279822749     -87.4558702      0.0279822749     -87.4558702      0.999149041      1.60325931       
224.1            0.999156208      1.58692948       0.0276974275     -87.4609384      0.0276974275     -87.4609384      0.999156208      1.58692948       
225.07           0.99916322       1.57069958       0.0274143227     -87.4656773      0.0274143227     -87.4656773      0.99916322       1.57069958       
226.04           0.999170078      1.55456833       0.0271329382     -87.470083       0.0271329382     -87.470083       0.999170078      1.55456833       
227.01           0.999176784      1.53853447       0.026853252      -87.4741515      0.026853252      -87.4741515      0.999176784      1.53853447       
227.98           0.999183342      1.52259677       0.0265752428     -87.4778784      0.0265752428     -87.4778784      0.999183342      1.52259677       
228.95           0.999189752      1.506754         0.0262988894     -87.4812592      0.0262988894     -87.4812592      0.999189752      1.506754         
229.92           0.999196018      1.49100498       0.0260241709     -87.4842892      0.0260241709     -87.4842892      0.999196018      1.49100498       
230.89           0.999202141      1.47534852       0.0257510671     -87.4869635      0.0257510671     -87.4869635      0.999202141      1.47534852       
231.86           0.999208124      1.45978347       0.0254795576     -87.4892769      0.0254795576     -87.4892769      0.999208124      1.45978347       
232.83           0.999213968      1.44430869       0.025209623      -87.4912241      0.025209623      -87.4912241      0.999213968      1.44430869       
233.8            0.999219675      1.42892306       0.0249412436     -87.4927995      0.0249412436     -87.4927995      0.999219675      1.42892306       
234.77           0.999225248      1.41362548       0.0246744004     -87.4939973      0.0246744004     -87.4939973      0.999225248      1.41362548       
235.74           0.999230688      1.39841487       0.0244090746     -87.4948112      0.0244090746     -87.4948112      0.999230688      1.39841487       
236.71           0.999235998      1.38329017       0.0241452477     -87.4952351      0.0241452477     -87.4952351      0.999235998      1.38329017       
237.68           0.999241178      1.36825032       0.0238829016     -87.4952621      0.0238829016     -87.4952621      0.999241178      1.36825032       
238.65           0.999246231      1.35329431       0.0236220184     -87.4948856      0.0236220184     -87.4948856      0.999246231      1.35329431       
239.62           0.999251159      1.3384211        0.0233625804     -87.4940981      0.0233625804     -87.4940981      0.999251159      1.3384211        
240.59           0.999255963      1.32362971       0.0231045704     -87.4928922      0.0231045704     -87.4928922      0.999255963      1.32362971       
241.56           0.999260645      1.30891916       0.0228479713     -87.4912601      0.0228479713     -87.4912601      0.999260645      1.30891916       
242.53           0.999265207      1.29428847       0.0225927665     -87.4891936      0.0225927665     -87.4891936      0.999265207      1.29428847       
243.5            0.99926965       1.27973671       0.0223389393     -87.4866842      0.0223389393     -87.4866842      0.99926965       1.27973671       
244.47           0.999273976      1.26526292       0.0220864736     -87.483723       0.0220864736     -87.483723       0.999273976      1.26526292       
245.44           0.999278186      1.2508662        0.0218353535     -87.4803008      0.0218353535     -87.4803008      0.999278186      1.2508662        
246.41           0.999282282      1.23654564       0.0215855632     -87.476408       0.0215855632     -87.476408       0.999282282      1.23654564       
247.38           0.999286266      1.22230034       0.0213370872     -87.4720344      0.0213370872     -87.4720344      0.999286266      1.22230034       
248.35           0.999290138      1.20812943       0.0210899104     -87.4671697      0.0210899104     -87.4671697      0.999290138      1.20812943       
249.32           0.999293901      1.19403204       0.0208440178     -87.461803       0.0208440178     -87.461803       0.999293901      1.19403204       
250.29           0.999297556      1.18000732       0.0205993945     -87.4559227      0.0205993945     -87.4559227      0.999297556      1.18000732       
251.26           0.999301104      1.16605443       0.0203560262     -87.4495172      0.0203560262     -87.4495172      0.999301104      1.16605443       
252.23           0.999304547      1.15217255       0.0201138986     -87.442574       0.0201138986     -87.442574       0.999304547      1.15217255       
253.2            0.999307885      1.13836086       0.0198729975     -87.4350801      0.0198729975     -87.4350801      0.999307885      1.13836086       
254.17           0.999311121      1.12461857       0.0196333091     -87.4270222      0.0196333091     -87.4270222      0.999311121      1.12461857       
255.14           0.999314255      1.11094489       0.0193948199     -87.4183861      0.0193948199     -87.4183861      0.999314255      1.11094489       
256.11           0.999317289      1.09733903       0.0191575163     -87.4091572      0.0191575163     -87.4091572      0.999317289      1.09733903       
257.08           0.999320224      1.08380024       0.0189213853     -87.3993202      0.0189213853     -87.3993202      0.999320224      1.08380024       
258.05           0.999323061      1.07032777       0.0186864137     -87.388859       0.0186864137     -87.388859       0.999323061      1.07032777       
259.02           0.999325801      1.05692086       0.0184525888     -87.3777569      0.0184525888     -87.3777569      0.999325801      1.05692086       
259.99           0.999328446      1.0435788        0.0182198979     -87.3659965      0.0182198979     -87.3659965      0.999328446      1.0435788        
260.96           0.999330997      1.03030085       0.0179883287     -87.3535594      0.0179883287     -87.3535594      0.999330997      1.03030085       
261.93           0.999333455      1.01708632       0.0177578689     -87.3404267      0.0177578689     -87.3404267      0.999333455      1.01708632       
262.9            0.99933582       1.0039345        0.0175285065     -87.3265783      0.0175285065     -87.3265783      0.99933582       1.0039345        
263.87           0.999338095      0.990844703      0.0173002296     -87.3119933      0.0173002296     -87.3119933      0.999338095      0.990844703      
264.84           0.99934028       0.977816251      0.0170730266     -87.2966499      0.0170730266     -87.2966499      0.99934028       0.977816251      
265.81           0.999342376      0.964848475      0.0168468859     -87.2805251      0.0168468859     -87.2805251      0.999342376      0.964848475      
266.78           0.999344384      0.951940717      0.0166217963     -87.2635949      0.0166217963     -87.2635949      0.999344384      0.951940717      
267.75           0.999346305      0.939092326      0.0163977466     -87.2458343      0.0163977466     -87.2458343      0.999346305      0.939092326      
268.72           0.999348141      0.926302663      0.0161747258     -87.2272168      0.0161747258     -87.2272168      0.999348141      0.926302663      
269.69           0.999349892      0.913571098      0.0159527231     -87.2077149      0.0159527231     -87.2077149      0.999349892      0.913571098      
270.66           0.999351559      0.900897007      0.0157317279     -87.1872994      0.0157317279     -87.1872994      0.999351559      0.900897007      
271.63           0.999353143      0.888279778      0.0155117297     -87.1659399      0.0155117297     -87.1659399      0.999353143      0.888279778      
272.6            0.999354646      0.875718807      0.0152927182     -87.1436045      0.0152927182     -87.1436045      0.999354646      0.875718807      
273.57           0.999356067      0.863213498      0.0150746832     -87.1202595      0.0150746832     -87.1202595      0.999356067      0.863213498      
274.54           0.999357408      0.850763264      0.0148576147     -87.0958695      0.0148576147     -87.0958695      0.999357408      0.850763264      
275.51           0.99935867       0.838367525      0.014641503      -87.0703974      0.014641503      -87.0703974      0.99935867       0.838367525      
276.48           0.999359853      0.826025711      0.0144263381     -87.043804       0.0144263381     -87.043804       0.999359853      0.826025711      
277.45           0.999360959      0.813737258      0.0142121108     -87.0160481      0.0142121108     -87.0160481      0.999360959      0.813737258      
278.42           0.999361988      0.801501612      0.0139988115     -86.9870862      0.0139988115     -86.9870862      0.999361988      0.801501612      
279.39           0.999362941      0.789318224      0.013786431      -86.9568725      0.013786431      -86.9568725      0.999362941      0.789318224      
280.36           0.999363819      0.777186555      0.0135749602     -86.9253587      0.0135749602     -86.9253587      0.999363819      0.777186555      
281.33           0.999364623      0.765106072      0.0133643902     -86.8924936      0.0133643902     -86.8924936      0.999364623      0.765106072      
282.3            0.999365353      0.75307625       0.0131547122     -86.8582234      0.0131547122     -86.8582234      0.999365353      0.75307625       
283.27           0.999366011      0.741096571      0.0129459175     -86.822491       0.0129459175     -86.822491       0.999366011      0.741096571      
284.24           0.999366596      0.729166525      0.0127379976     -86.7852361      0.0127379976     -86.7852361      0.999366596      0.729166525      
285.21           0.999367111      0.717285606      0.0125309442     -86.7463946      0.0125309442     -86.7463946      0.999367111      0.717285606      
286.18           0.999367554      0.705453317      0.012324749      -86.705899       0.012324749      -86.705899       0.999367554      0.705453317      
287.15           0.999367928      0.693669169      0.0121194039     -86.6636774      0.0121194039     -86.6636774      0.999367928      0.693669169      
288.12           0.999368233      0.681932677      0.011914901      -86.6196535      0.011914901      -86.6196535      0.999368233      0.681932677      
289.09           0.99936847       0.670243364      0.0117112325     -86.5737463      0.0117112325     -86.5737463      0.99936847       0.670243364      
290.06           0.999368638      0.658600759      0.0115083908     -86.5258696      0.0115083908     -86.5258696      0.999368638      0.658600759      
291.03           0.99936874       0.647004396      0.0113063683     -86.475932       0.0113063683     -86.475932       0.99936874       0.647004396      
292              0.999368775      0.635453818      0.0111051577     -86.4238355      0.0111051577     -86.4238355      0.999368775      0.635453818      
292.97           0.999368745      0.623948571      0.0109047518     -86.3694763      0.0109047518     -86.3694763      0.999368745      0.623948571      
293.94           0.999368649      0.61248821       0.0107051435     -86.312743       0.0107051435     -86.312743       0.999368649      0.61248821       
294.91           0.999368489      0.601072292      0.0105063259     -86.253517       0.0105063259     -86.253517       0.999368489      0.601072292      
295.88           0.999368265      0.589700384      0.0103082923     -86.1916713      0.0103082923     -86.1916713      0.999368265      0.589700384      
296.85           0.999367978      0.578372056      0.010111036      -86.1270698      0.010111036      -86.1270698      0.999367978      0.578372056      
297.82           0.999367628      0.567086884      0.00991455053    -86.0595667      0.00991455053    -86.0595667      0.999367628      0.567086884      
298.79           0.999367216      0.55584445       0.00971882971    -85.9890056      0.00971882971    -85.9890056      0.999367216      0.55584445       
299.76           0.999366742      0.544644341      0.00952386741    -85.9152182      0.00952386741    -85.9152182      0.999366742      0.544644341      
300.73           0.999366208      0.53348615       0.00932965768    -85.8380236      0.00932965768    -85.8380236      0.999366208      0.53348615       
301.7            0.999365613      0.522369474      0.00913619478    -85.7572268      0.00913619478    -85.7572268      0.999365613      0.522369474      
302.67           0.999364959      0.511293916      0.00894347314    -85.6726174      0.00894347314    -85.6726174      0.999364959      0.511293916      
303.64           0.999364245      0.500259084      0.0087514874     -85.583968       0.0087514874     -85.583968       0.999364245      0.500259084      
304.61           0.999363473      0.489264592      0.0085602324     -85.4910328      0.0085602324     -85.4910328      0.999363473      0.489264592      
305.58           0.999362642      0.478310056      0.00836970321    -85.3935451      0.00836970321    -85.3935451      0.999362642      0.478310056      
306.55           0.999361753      0.4673951        0.00817989512    -85.2912154      0.00817989512    -85.2912154      0.999361753      0.4673951        
307.52           0.999360808      0.456519351      0.00799080366    -85.1837292      0.00799080366    -85.1837292      0.999360808      0.456519351      
308.49           0.999359805      0.445682441      0.00780242465    -85.0707437      0.00780242465    -85.0707437      0.999359805      0.445682441      
309.46           0.999358747      0.434884006      0.00761475417    -84.9518848      0.00761475417    -84.9518848      0.999358747      0.434884006      
310.43           0.999357633      0.424123689      0.00742778861    -84.8267435      0.00742778861    -84.8267435      0.999357633      0.424123689      
311.4            0.999356464      0.413401134      0.0072415247     -84.6948719      0.0072415247     -84.6948719      0.999356464      0.413401134      
312.37           0.999355239      0.402715991      0.00705595952    -84.5557781      0.00705595952    -84.5557781      0.999355239      0.402715991      
313.34           0.999353961      0.392067916      0.00687109055    -84.408921       0.00687109055    -84.408921       0.999353961      0.392067916      
314.31           0.999352629      0.381456567      0.0066869157     -84.2537041      0.0066869157     -84.2537041      0.999352629      0.381456567      
315.28           0.999351243      0.370881606      0.00650343338    -84.0894678      0.00650343338    -84.0894678      0.999351243      0.370881606      
316.25           0.999349805      0.360342701      0.00632064252    -83.9154813      0.00632064252    -83.9154813      0.999349805      0.360342701      
317.22           0.999348314      0.349839522      0.00613854266    -83.7309329      0.00613854266    -83.7309329      0.999348314      0.349839522      
318.19           0.999346771      0.339371746      0.005957134      -83.5349179      0.005957134      -83.5349179      0.999346771      0.339371746      
319.16           0.999345176      0.32893905       0.00577641751    -83.326426       0.00577641751    -83.326426       0.999345176      0.32893905       
320.13           0.99934353       0.318541117      0.00559639503    -83.1043243      0.00559639503    -83.1043243      0.99934353       0.318541117      
321.1            0.999341834      0.308177636      0.00541706939    -82.8673394      0.00541706939    -82.8673394      0.999341834      0.308177636      
322.07           0.999340087      0.297848295      0.00523844455    -82.6140345      0.00523844455    -82.6140345      0.999340087      0.297848295      
323.04           0.99933829       0.287552789      0.00506052579    -82.3427826      0.00506052579    -82.3427826      0.99933829       0.287552789      
324.01           0.999336443      0.277290816      0.00488331992    -82.0517345      0.00488331992    -82.0517345      0.999336443      0.277290816      
324.98           0.999334547      0.267062078      0.00470683552    -81.7387795      0.00470683552    -81.7387795      0.999334547      0.267062078      
325.95           0.999332603      0.256866279      0.0045310833     -81.4014984      0.0045310833     -81.4014984      0.999332603      0.256866279      
326.92           0.99933061       0.246703128      0.00435607644    -81.0371053      0.00435607644    -81.0371053      0.99933061       0.246703128      
327.89           0.999328568      0.236572337      0.00418183108    -80.6423767      0.00418183108    -80.6423767      0.999328568      0.236572337      
328.86           0.99932648       0.226473622      0.00400836695    -80.2135628      0.00400836695    -80.2135628      0.99932648       0.226473622      
329.83           0.999324343      0.2164067        0.00383570808    -79.7462773      0.00383570808    -79.7462773      0.999324343      0.2164067        
330.8            0.99932216       0.206371294      0.00366388375    -79.2353591      0.00366388375    -79.2353591      0.99932216       0.206371294      
331.77           0.99931993       0.19636713       0.00349292973    -78.6746955      0.00349292973    -78.6746955      0.99931993       0.19636713       
332.74           0.999317654      0.186393935      0.00332288979    -78.0569978      0.00332288979    -78.0569978      0.999317654      0.186393935      
333.71           0.999315332      0.176451442      0.00315381777    -77.3735105      0.00315381777    -77.3735105      0.999315332      0.176451442      
334.68           0.999312964      0.166539385      0.00298578022    -76.6136323      0.00298578022    -76.6136323      0.999312964      0.166539385      
335.65           0.999310551      0.156657501      0.00281885995    -75.7644175      0.00281885995    -75.7644175      0.999310551      0.156657501      
336.62           0.999308093      0.146805532      0.00265316082    -74.8099125      0.00265316082    -74.8099125      0.999308093      0.146805532      
337.59           0.999305591      0.136983222      0.0024888143     -73.7302636      0.0024888143     -73.7302636      0.999305591      0.136983222      
338.56           0.999303044      0.127190316      0.00232598848    -72.5005048      0.00232598848    -72.5005048      0.999303044      0.127190316      
339.53           0.999300453      0.117426565      0.00216490089    -71.0888929      0.00216490089    -71.0888929      0.999300453      0.117426565      
340.5            0.999297818      0.107691722      0.00200583665    -69.454601       0.00200583665    -69.454601       0.999297818      0.107691722      
341.47           0.99929514       0.0979855404     0.001849175      -67.5445009      0.001849175      -67.5445009      0.99929514       0.0979855404     
342.44           0.999292419      0.0883077795     0.00169542831    -65.2886678      0.00169542831    -65.2886678      0.999292419      0.0883077795     
343.41           0.999289655      0.0786581998     0.00154530052    -62.5941486      0.00154530052    -62.5941486      0.999289655      0.0786581998     
344.38           0.999286848      0.0690365647     0.00139977538    -59.336558       0.00139977538    -59.336558       0.999286848      0.0690365647     
345.35           0.999283999      0.0594426404     0.00126024987    -55.3495341      0.00126024987    -55.3495341      0.999283999      0.0594426404     
346.32           0.999281109      0.0498761955     0.0011287324     -50.4139109      0.0011287324     -50.4139109      0.999281109      0.0498761955     
347.29           0.999278176      0.0403370015     0.00100812033    -44.2538487      0.00100812033    -44.2538487      0.999278176      0.0403370015     
348.26           0.999275203      0.030824832      0.000902529711   -36.5600124      0.000902529711   -36.5600124      0.999275203      0.030824832      
349.23           0.999272188      0.0213394636     0.000817510946   -27.0810968      0.000817510946   -27.0810968      0.999272188      0.0213394636     
350.2            0.999269132      0.0118806751     0.000759692952   -15.8279026      0.000759692952   -15.8279026      0.999269132      0.0118806751     
351.17           0.999266036      0.00244824777    0.000735206062   -3.3294451       0.000735206062   -3.3294451       0.999266036      0.00244824777    
352.14           0.999262899      -0.00695803472   0.000747030474   9.34882081       0.000747030474   9.34882081       0.999262899      -0.00695803472   
353.11           0.999259723      -0.0163383863    0.000793262851   21.0516553       0.000793262851   21.0516553       0.999259723      -0.0163383863    
354.08           0.999256506      -0.0256930185    0.000868171154   31.0734141       0.000868171154   31.0734141       0.999256506      -0.0256930185    
355.05           0.99925325       -0.0350221405    0.000964875665   39.2740206       0.000964875665   39.2740206       0.99925325       -0.0350221405    
356.02           0.999249955      -0.0443259595    0.00107732467    45.8540451       0.00107732467    45.8540451       0.999249955      -0.0443259595    
356.99           0.99924662       -0.0536046802    0.00120092795    51.1196996       0.00120092795    51.1196996       0.99924662       -0.0536046802    
357.96           0.999243247      -0.062858505     0.00133242854    55.3611743       0.00133242854    55.3611743       0.999243247      -0.062858505     
358.93           0.999239835      -0.0720876343    0.00146956796    58.8145977       0.00146956796    58.8145977       0.999239835      -0.0720876343    
359.9            0.999236385      -0.0812922663    0.00161078051    61.6608627       0.00161078051    61.6608627       0.999236385      -0.0812922663    
360.87           0.999232897      -0.0904725969    0.00175496902    64.0355509       0.00175496902    64.0355509       0.999232897      -0.0904725969    
361.84           0.999229371      -0.0996288203    0.00190135252    66.0398982       0.00190135252    66.0398982       0.999229371      -0.0996288203    
362.81           0.999225807      -0.108761128     0.00204936543    67.7498763       0.00204936543    67.7498763       0.999225807      -0.108761128     
363.78           0.999222205      -0.11786971      0.00219859108    69.2230264       0.00219859108    69.2230264       0.999222205      -0.11786971      
364.75           0.999218567      -0.126954755     0.00234871736    70.503416        0.00234871736    70.503416        0.999218567      -0.126954755     
365.72           0.999214891      -0.136016447     0.00249950694    71.6251901       0.00249950694    71.6251901       0.999214891      -0.136016447     
366.69           0.999211179      -0.145054971     0.00265077675    72.615114        0.00265077675    72.615114        0.999211179      -0.145054971     
367.66           0.99920743       -0.154070509     0.00280238383    73.4944044       0.00280238383    73.4944044       0.99920743       -0.154070509     
368.63           0.999203645      -0.163063241     0.00295421519    74.2800588       0.00295421519    74.2800588       0.999203645      -0.163063241     
369.6            0.999199823      -0.172033344     0.00310618063    74.9858316       0.00310618063    74.9858316       0.999199823      -0.172033344     
370.57           0.999195966      -0.180980996     0.00325820747    75.6229566       0.00325820747    75.6229566       0.999195966      -0.180980996     
371.54           0.999192073      -0.189906369     0.00341023663    76.2006893       0.00341023663    76.2006893       0.999192073      -0.189906369     
372.51           0.999188144      -0.198809638     0.00356221977    76.726717        0.00356221977    76.726717        0.999188144      -0.198809638     
373.48           0.99918418       -0.207690973     0.00371411703    77.2074728       0.00371411703    77.2074728       0.99918418       -0.207690973     
374.45           0.999180181      -0.216550542     0.00386589538    77.6483783       0.00386589538    77.6483783       0.999180181      -0.216550542     
375.42           0.999176146      -0.225388514     0.00401752732    78.0540322       0.00401752732    78.0540322       0.999176146      -0.225388514     
376.39           0.999172077      -0.234205053     0.00416898983    78.4283592       0.00416898983    78.4283592       0.999172077      -0.234205053     
377.36           0.999167973      -0.243000324     0.00432026356    78.7747282       0.00432026356    78.7747282       0.999167973      -0.243000324     
378.33           0.999163835      -0.251774488     0.00447133226    79.096046        0.00447133226    79.096046        0.999163835      -0.251774488     
379.3            0.999159663      -0.260527707     0.00462218217    79.3948333       0.00462218217    79.3948333       0.999159663      -0.260527707     
380.27           0.999155456      -0.269260138     0.00477280167    79.6732865       0.00477280167    79.6732865       0.999155456      -0.269260138     
381.24           0.999151216      -0.27797194      0.00492318094    79.9333277       0.00492318094    79.9333277       0.999151216      -0.27797194      
382.21           0.999146942      -0.286663268     0.00507331165    80.1766459       0.00507331165    80.1766459       0.999146942      -0.286663268     
383.18           0.999142634      -0.295334275     0.00522318676    80.404731        0.00522318676    80.404731        0.999142634      -0.295334275     
384.15           0.999138293      -0.303985115     0.00537280033    80.6189023       0.00537280033    80.6189023       0.999138293      -0.303985115     
385.12           0.999133919      -0.312615939     0.00552214737    80.820332        0.00552214737    80.820332        0.999133919      -0.312615939     
386.09           0.999129512      -0.321226895     0.00567122367    81.0100651       0.00567122367    81.0100651       0.999129512      -0.321226895     
387.06           0.999125072      -0.329818133     0.00582002574    81.189036        0.00582002574    81.189036        0.999125072      -0.329818133     
388.03           0.999120599      -0.338389797     0.0059685507     81.3580827       0.0059685507     81.3580827       0.999120599      -0.338389797     
389              0.999116093      -0.346942034     0.00611679617    81.5179591       0.00611679617    81.5179591       0.999116093      -0.346942034     
389.97           0.999111555      -0.355474988     0.00626476025    81.6693448       0.00626476025    81.6693448       0.999111555      -0.355474988     
390              0.999111414      -0.355738587     0.00626933195    81.6738983       0.00626933195    81.6738983       0.999111414      -0.355738587     
