! Coilcraft 1812CS-472 Chip Inductor				
! 31 July 2002			
# MHZ S MA R 50
!Freq             MagS11           AngS11           MagS21           AngS21           MagS12           AngS12           MagS22           AngS22
1                0.277172826      60.8696319       0.898315191      -15.6357408      0.898315191      -15.6357408      0.277172826      60.8696319       
1.55             0.4019304        57.3027312       0.85282019       -23.3665772      0.85282019       -23.3665772      0.4019304        57.3027312       
2.1              0.507959654      52.4975703       0.799710161      -30.2587261      0.799710161      -30.2587261      0.507959654      52.4975703       
2.65             0.594969383      47.7390514       0.744140402      -36.2799156      0.744140402      -36.2799156      0.594969383      47.7390514       
3.2              0.665011286      43.3906519       0.689731986      -41.4791369      0.689731986      -41.4791369      0.665011286      43.3906519       
3.75             0.720923456      39.5384851       0.638578409      -45.9460867      0.638578409      -45.9460867      0.720923456      39.5384851       
4.3              0.765508449      36.1686896       0.591641245      -49.7824121      0.591641245      -49.7824121      0.765508449      36.1686896       
4.85             0.801188517      33.232487        0.549171037      -53.0857131      0.549171037      -53.0857131      0.801188517      33.232487        
5.4              0.829923996      30.6727072       0.511024721      -55.9425284      0.511024721      -55.9425284      0.829923996      30.6727072       
5.95             0.853248764      28.4345337       0.476869809      -58.4264289      0.476869809      -58.4264289      0.853248764      28.4345337       
6.5              0.872343652      26.4693544       0.44630334       -60.5985814      0.44630334       -60.5985814      0.872343652      26.4693544       
7.05             0.888112185      24.7356051       0.418915789      -62.5092808      0.418915789      -62.5092808      0.888112185      24.7356051       
7.6              0.901245676      23.1983735       0.394322345      -64.1997057      0.394322345      -64.1997057      0.901245676      23.1983735       
8.15             0.912274979      21.8285697       0.372175948      -65.7035635      0.372175948      -65.7035635      0.912274979      21.8285697       
8.7              0.921610077      20.6020177       0.352170657      -67.0485107      0.352170657      -67.0485107      0.921610077      20.6020177       
9.25             0.929569815      19.4986135       0.334040223      -68.2573265      0.334040223      -68.2573265      0.929569815      19.4986135       
9.8              0.936404047      18.5015971       0.317554542      -69.3488617      0.317554542      -69.3488617      0.936404047      18.5015971       
10.35            0.9423101        17.5969456       0.30251539       -70.3387985      0.30251539       -70.3387985      0.9423101        17.5969456       
10.9             0.947445046      16.7728757       0.288752159      -71.2402542      0.288752159      -71.2402542      0.947445046      16.7728757       
11.45            0.951934877      16.0194402       0.276117913      -72.0642611      0.276117913      -72.0642611      0.951934877      16.0194402       
12               0.955881415      15.328202        0.264485895      -72.8201485      0.264485895      -72.8201485      0.955881415      15.328202        
12.55            0.959367544      14.6919702       0.253746507      -73.5158482      0.253746507      -73.5158482      0.959367544      14.6919702       
13.1             0.962461196      14.1045871       0.243804724      -74.1581378      0.243804724      -74.1581378      0.962461196      14.1045871       
13.65            0.965218416      13.5607553       0.234577917      -74.7528381      0.234577917      -74.7528381      0.965218416      13.5607553       
14.2             0.967685733      13.0558972       0.225994008      -75.3049717      0.225994008      -75.3049717      0.967685733      13.0558972       
14.75            0.969902005      12.58604         0.217989923      -75.8188921      0.217989923      -75.8188921      0.969902005      12.58604         
15.3             0.971899866      12.1477215       0.210510296      -76.2983893      0.210510296      -76.2983893      0.971899866      12.1477215       
15.85            0.973706873      11.7379124       0.203506367      -76.7467765      0.203506367      -76.7467765      0.973706873      11.7379124       
16.4             0.975346411      11.3539523       0.196935065      -77.166961       0.196935065      -77.166961       0.975346411      11.3539523       
16.95            0.976838424      10.9934961       0.190758228      -77.5615043      0.190758228      -77.5615043      0.976838424      10.9934961       
17.5             0.978199995      10.6544695       0.184941942      -77.9326704      0.184941942      -77.9326704      0.978199995      10.6544695       
18.05            0.979445824      10.3350316       0.179455984      -78.2824678      0.179455984      -78.2824678      0.979445824      10.3350316       
18.6             0.980588612      10.0335436       0.174273343      -78.6126837      0.174273343      -78.6126837      0.980588612      10.0335436       
19.15            0.981639373      9.7485421        0.169369819      -78.9249137      0.169369819      -78.9249137      0.981639373      9.7485421        
19.7             0.982607697      9.47871665       0.164723668      -79.2205859      0.164723668      -79.2205859      0.982607697      9.47871665       
20.25            0.983501966      9.22289039       0.160315311      -79.5009828      0.160315311      -79.5009828      0.983501966      9.22289039       
20.8             0.984329524      8.98000378       0.156127069      -79.7672586      0.156127069      -79.7672586      0.984329524      8.98000378       
21.35            0.985096833      8.74910042       0.15214295       -80.0204551      0.15214295       -80.0204551      0.985096833      8.74910042       
21.9             0.985809594      8.52931497       0.148348449      -80.2615147      0.148348449      -80.2615147      0.985809594      8.52931497       
22.45            0.986472852      8.31986267       0.144730385      -80.491292       0.144730385      -80.491292       0.986472852      8.31986267       
23               0.987091082      8.12003025       0.141276754      -80.7105636      0.141276754      -80.7105636      0.987091082      8.12003025       
23.55            0.987668269      7.92916802       0.137976605      -80.9200371      0.137976605      -80.9200371      0.987668269      7.92916802       
24.1             0.988207965      7.74668307       0.134819924      -81.1203579      0.134819924      -81.1203579      0.988207965      7.74668307       
24.65            0.988713348      7.57203319       0.131797543      -81.3121163      0.131797543      -81.3121163      0.988713348      7.57203319       
25.2             0.989187268      7.40472161       0.128901048      -81.4958533      0.128901048      -81.4958533      0.989187268      7.40472161       
25.75            0.989632284      7.24429242       0.126122706      -81.6720652      0.126122706      -81.6720652      0.989632284      7.24429242       
26.3             0.9900507        7.09032641       0.123455399      -81.8412084      0.123455399      -81.8412084      0.9900507        7.09032641       
26.85            0.990444598      6.94243756       0.120892566      -82.0037033      0.120892566      -82.0037033      0.990444598      6.94243756       
27.4             0.990815858      6.80026976       0.118428145      -82.1599376      0.118428145      -82.1599376      0.990815858      6.80026976       
27.95            0.991166183      6.66349404       0.116056531      -82.3102695      0.116056531      -82.3102695      0.991166183      6.66349404       
28.5             0.991497122      6.53180602       0.113772535      -82.4550304      0.113772535      -82.4550304      0.991497122      6.53180602       
29.05            0.99181008       6.4049237        0.111571342      -82.5945275      0.111571342      -82.5945275      0.99181008       6.4049237        
29.6             0.992106338      6.2825854        0.109448483      -82.7290458      0.109448483      -82.7290458      0.992106338      6.2825854        
30.15            0.992387066      6.16454803       0.107399802      -82.8588499      0.107399802      -82.8588499      0.992387066      6.16454803       
30.7             0.992653333      6.05058543       0.105421427      -82.9841864      0.105421427      -82.9841864      0.992653333      6.05058543       
31.25            0.992906116      5.94048695       0.103509753      -83.1052846      0.103509753      -83.1052846      0.992906116      5.94048695       
31.8             0.993146313      5.83405615       0.101661414      -83.2223585      0.101661414      -83.2223585      0.993146313      5.83405615       
32.35            0.993374747      5.73110962       0.099873265      -83.335608       0.099873265      -83.335608       0.993374747      5.73110962       
32.9             0.993592175      5.63147594       0.0981423646     -83.4452198      0.0981423646     -83.4452198      0.993592175      5.63147594       
33.45            0.993799295      5.53499467       0.0964659591     -83.5513687      0.0964659591     -83.5513687      0.993799295      5.53499467       
34               0.993996749      5.44151557       0.0948414677     -83.6542186      0.0948414677     -83.6542186      0.993996749      5.44151557       
34.55            0.99418513       5.35089772       0.0932664689     -83.7539229      0.0932664689     -83.7539229      0.99418513       5.35089772       
35.1             0.994364986      5.26300888       0.0917386888     -83.8506258      0.0917386888     -83.8506258      0.994364986      5.26300888       
35.65            0.994536827      5.17772477       0.0902559898     -83.9444628      0.0902559898     -83.9444628      0.994536827      5.17772477       
36.2             0.994701121      5.09492856       0.0888163609     -84.0355612      0.0888163609     -84.0355612      0.994701121      5.09492856       
36.75            0.994858305      5.01451025       0.0874179083     -84.124041       0.0874179083     -84.124041       0.994858305      5.01451025       
37.3             0.995008784      4.93636621       0.0860588471     -84.210015       0.0860588471     -84.210015       0.995008784      4.93636621       
37.85            0.995152935      4.86039873       0.0847374936     -84.2935899      0.0847374936     -84.2935899      0.995152935      4.86039873       
38.4             0.995291107      4.78651561       0.0834522584     -84.3748663      0.0834522584     -84.3748663      0.995291107      4.78651561       
38.95            0.995423629      4.71462976       0.0822016396     -84.4539389      0.0822016396     -84.4539389      0.995423629      4.71462976       
39.5             0.995550803      4.64465886       0.0809842171     -84.5308978      0.0809842171     -84.5308978      0.995550803      4.64465886       
40.05            0.995672915      4.57652504       0.0797986474     -84.6058276      0.0797986474     -84.6058276      0.995672915      4.57652504       
40.6             0.995790229      4.51015458       0.0786436578     -84.678809       0.0786436578     -84.678809       0.995790229      4.51015458       
41.15            0.995902994      4.44547764       0.0775180426     -84.7499179      0.0775180426     -84.7499179      0.995902994      4.44547764       
41.7             0.996011442      4.38242803       0.0764206581     -84.8192267      0.0764206581     -84.8192267      0.996011442      4.38242803       
42.25            0.996115791      4.32094294       0.0753504194     -84.8868039      0.0753504194     -84.8868039      0.996115791      4.32094294       
42.8             0.996216245      4.26096272       0.0743062959     -84.9527144      0.0743062959     -84.9527144      0.996216245      4.26096272       
43.35            0.996312996      4.20243076       0.0732873085     -85.0170201      0.0732873085     -85.0170201      0.996312996      4.20243076       
43.9             0.996406223      4.1452932        0.0722925263     -85.0797796      0.0722925263     -85.0797796      0.996406223      4.1452932        
44.45            0.996496095      4.08949884       0.0713210637     -85.141049       0.0713210637     -85.141049       0.996496095      4.08949884       
45               0.996582771      4.03499893       0.0703720774     -85.2008812      0.0703720774     -85.2008812      0.996582771      4.03499893       
45.55            0.996666401      3.98174706       0.0694447643     -85.259327       0.0694447643     -85.259327       0.996666401      3.98174706       
46.1             0.996747125      3.92969901       0.0685383592     -85.3164346      0.0685383592     -85.3164346      0.996747125      3.92969901       
46.65            0.996825078      3.8788126        0.0676521319     -85.37225        0.0676521319     -85.37225        0.996825078      3.8788126        
47.2             0.996900382      3.82904761       0.0667853862     -85.4268171      0.0667853862     -85.4268171      0.996900382      3.82904761       
47.75            0.996973158      3.78036565       0.0659374572     -85.4801776      0.0659374572     -85.4801776      0.996973158      3.78036565       
48.3             0.997043517      3.73273006       0.0651077099     -85.5323717      0.0651077099     -85.5323717      0.997043517      3.73273006       
48.85            0.997111564      3.68610581       0.0642955374     -85.5834374      0.0642955374     -85.5834374      0.997111564      3.68610581       
49.4             0.9971774        3.64045941       0.0635003597     -85.6334114      0.0635003597     -85.6334114      0.9971774        3.64045941       
49.95            0.997241117      3.59575883       0.0627216216     -85.6823284      0.0627216216     -85.6823284      0.997241117      3.59575883       
50.5             0.997302808      3.55197343       0.061958792      -85.730222       0.061958792      -85.730222       0.997302808      3.55197343       
51.05            0.997362554      3.50907387       0.0612113624     -85.7771242      0.0612113624     -85.7771242      0.997362554      3.50907387       
51.6             0.997420438      3.46703205       0.0604788455     -85.8230654      0.0604788455     -85.8230654      0.997420438      3.46703205       
52.15            0.997476536      3.42582104       0.0597607745     -85.8680751      0.0597607745     -85.8680751      0.997476536      3.42582104       
52.7             0.997530919      3.38541503       0.0590567017     -85.9121814      0.0590567017     -85.9121814      0.997530919      3.38541503       
53.25            0.997583657      3.34578927       0.0583661977     -85.9554112      0.0583661977     -85.9554112      0.997583657      3.34578927       
53.8             0.997634815      3.30691999       0.0576888505     -85.9977905      0.0576888505     -85.9977905      0.997634815      3.30691999       
54.35            0.997684454      3.26878441       0.0570242645     -86.0393439      0.0570242645     -86.0393439      0.997684454      3.26878441       
54.9             0.997732634      3.23136063       0.0563720598     -86.0800955      0.0563720598     -86.0800955      0.997732634      3.23136063       
55.45            0.997779411      3.19462761       0.0557318715     -86.1200679      0.0557318715     -86.1200679      0.997779411      3.19462761       
56               0.997824838      3.15856513       0.0551033486     -86.1592833      0.0551033486     -86.1592833      0.997824838      3.15856513       
56.55            0.997868967      3.12315378       0.0544861538     -86.1977628      0.0544861538     -86.1977628      0.997868967      3.12315378       
57.1             0.997911846      3.08837485       0.0538799627     -86.2355266      0.0538799627     -86.2355266      0.997911846      3.08837485       
57.65            0.99795352       3.05421035       0.0532844631     -86.2725944      0.0532844631     -86.2725944      0.99795352       3.05421035       
58.2             0.997994035      3.02064299       0.0526993544     -86.3089848      0.0526993544     -86.3089848      0.997994035      3.02064299       
58.75            0.998033432      2.9876561        0.0521243472     -86.3447161      0.0521243472     -86.3447161      0.998033432      2.9876561        
59.3             0.998071751      2.95523362       0.0515591627     -86.3798056      0.0515591627     -86.3798056      0.998071751      2.95523362       
59.85            0.998109032      2.92336009       0.0510035323     -86.41427        0.0510035323     -86.41427        0.998109032      2.92336009       
60.4             0.99814531       2.89202059       0.0504571971     -86.4481257      0.0504571971     -86.4481257      0.99814531       2.89202059       
60.95            0.998180621      2.86120077       0.0499199074     -86.4813881      0.0499199074     -86.4813881      0.998180621      2.86120077       
61.5             0.998214997      2.83088674       0.0493914223     -86.5140722      0.0493914223     -86.5140722      0.998214997      2.83088674       
62.05            0.998248472      2.80106515       0.0488715094     -86.5461925      0.0488715094     -86.5461925      0.998248472      2.80106515       
62.6             0.998281076      2.77172308       0.0483599446     -86.577763       0.0483599446     -86.577763       0.998281076      2.77172308       
63.15            0.998312838      2.74284807       0.0478565111     -86.6087972      0.0478565111     -86.6087972      0.998312838      2.74284807       
63.7             0.998343787      2.71442808       0.047361         -86.6393079      0.047361         -86.6393079      0.998343787      2.71442808       
64.25            0.998373949      2.68645151       0.0468732091     -86.6693079      0.0468732091     -86.6693079      0.998373949      2.68645151       
64.8             0.998403351      2.6589071        0.0463929433     -86.6988091      0.0463929433     -86.6988091      0.998403351      2.6589071        
65.35            0.998432016      2.63178401       0.0459200138     -86.7278233      0.0459200138     -86.7278233      0.998432016      2.63178401       
65.9             0.998459969      2.60507173       0.0454542382     -86.7563618      0.0454542382     -86.7563618      0.998459969      2.60507173       
66.45            0.998487233      2.57876013       0.0449954401     -86.7844354      0.0449954401     -86.7844354      0.998487233      2.57876013       
67               0.99851383       2.55283938       0.0445434485     -86.8120548      0.0445434485     -86.8120548      0.99851383       2.55283938       
67.55            0.99853978       2.52729997       0.0440980985     -86.8392301      0.0440980985     -86.8392301      0.99853978       2.52729997       
68.1             0.998565104      2.50213272       0.04365923       -86.8659712      0.04365923       -86.8659712      0.998565104      2.50213272       
68.65            0.998589821      2.47732872       0.0432266883     -86.8922876      0.0432266883     -86.8922876      0.998589821      2.47732872       
69.2             0.99861395       2.45287934       0.0428003234     -86.9181885      0.0428003234     -86.9181885      0.99861395       2.45287934       
69.75            0.998637508      2.42877625       0.0423799901     -86.9436829      0.0423799901     -86.9436829      0.998637508      2.42877625       
70.3             0.998660514      2.40501133       0.0419655475     -86.9687793      0.0419655475     -86.9687793      0.998660514      2.40501133       
70.85            0.998682983      2.38157677       0.0415568594     -86.9934862      0.0415568594     -86.9934862      0.998682983      2.38157677       
71.4             0.998704932      2.35846494       0.0411537936     -87.0178115      0.0411537936     -87.0178115      0.998704932      2.35846494       
71.95            0.998726375      2.33566849       0.0407562217     -87.0417632      0.0407562217     -87.0417632      0.998726375      2.33566849       
72.5             0.998747328      2.31318026       0.0403640195     -87.0653488      0.0403640195     -87.0653488      0.998747328      2.31318026       
73.05            0.998767805      2.29099333       0.0399770664     -87.0885755      0.0399770664     -87.0885755      0.998767805      2.29099333       
73.6             0.99878782       2.26910096       0.0395952453     -87.1114506      0.0395952453     -87.1114506      0.99878782       2.26910096       
74.15            0.998807386      2.24749663       0.0392184426     -87.133981       0.0392184426     -87.133981       0.998807386      2.24749663       
74.7             0.998826515      2.226174         0.038846548      -87.1561731      0.038846548      -87.1561731      0.998826515      2.226174         
75.25            0.99884522       2.20512692       0.0384794546     -87.1780336      0.0384794546     -87.1780336      0.99884522       2.20512692       
75.8             0.998863513      2.18434941       0.0381170583     -87.1995687      0.0381170583     -87.1995687      0.998863513      2.18434941       
76.35            0.998881405      2.16383568       0.0377592581     -87.2207844      0.0377592581     -87.2207844      0.998881405      2.16383568       
76.9             0.998898908      2.14358007       0.0374059558     -87.2416867      0.0374059558     -87.2416867      0.998898908      2.14358007       
77.45            0.998916031      2.12357711       0.0370570563     -87.2622811      0.0370570563     -87.2622811      0.998916031      2.12357711       
78               0.998932785      2.10382149       0.0367124667     -87.2825733      0.0367124667     -87.2825733      0.998932785      2.10382149       
78.55            0.998949181      2.08430801       0.0363720969     -87.3025685      0.0363720969     -87.3025685      0.998949181      2.08430801       
79.1             0.998965227      2.06503165       0.0360358594     -87.322272       0.0360358594     -87.322272       0.998965227      2.06503165       
79.65            0.998980933      2.04598752       0.0357036689     -87.3416888      0.0357036689     -87.3416888      0.998980933      2.04598752       
80.2             0.998996309      2.02717085       0.0353754427     -87.3608237      0.0353754427     -87.3608237      0.998996309      2.02717085       
80.75            0.999011361      2.008577         0.0350510999     -87.3796815      0.0350510999     -87.3796815      0.999011361      2.008577         
81.3             0.9990261        1.99020149       0.0347305622     -87.3982668      0.0347305622     -87.3982668      0.9990261        1.99020149       
81.85            0.999040533      1.97203991       0.0344137533     -87.416584       0.0344137533     -87.416584       0.999040533      1.97203991       
82.4             0.999054668      1.95408799       0.0341005987     -87.4346374      0.0341005987     -87.4346374      0.999054668      1.95408799       
82.95            0.999068512      1.93634159       0.0337910261     -87.4524312      0.0337910261     -87.4524312      0.999068512      1.93634159       
83.5             0.999082073      1.91879665       0.033484965      -87.4699695      0.033484965      -87.4699695      0.999082073      1.91879665       
84.05            0.999095358      1.90144923       0.0331823468     -87.4872561      0.0331823468     -87.4872561      0.999095358      1.90144923       
84.6             0.999108373      1.88429549       0.0328831046     -87.5042949      0.0328831046     -87.5042949      0.999108373      1.88429549       
85.15            0.999121127      1.86733169       0.0325871733     -87.5210895      0.0325871733     -87.5210895      0.999121127      1.86733169       
85.7             0.999133624      1.85055418       0.0322944893     -87.5376436      0.0322944893     -87.5376436      0.999133624      1.85055418       
86.25            0.999145871      1.83395941       0.0320049908     -87.5539606      0.0320049908     -87.5539606      0.999145871      1.83395941       
86.8             0.999157874      1.81754392       0.0317186176     -87.5700438      0.0317186176     -87.5700438      0.999157874      1.81754392       
87.35            0.999169639      1.80130433       0.0314353107     -87.5858966      0.0314353107     -87.5858966      0.999169639      1.80130433       
87.9             0.999181173      1.78523735       0.0311550129     -87.601522       0.0311550129     -87.601522       0.999181173      1.78523735       
88.45            0.999192479      1.76933977       0.0308776682     -87.6169231      0.0308776682     -87.6169231      0.999192479      1.76933977       
89               0.999203564      1.75360846       0.0306032221     -87.6321029      0.0306032221     -87.6321029      0.999203564      1.75360846       
89.55            0.999214432      1.73804035       0.0303316214     -87.6470642      0.0303316214     -87.6470642      0.999214432      1.73804035       
90.1             0.99922509       1.72263248       0.0300628142     -87.6618099      0.0300628142     -87.6618099      0.99922509       1.72263248       
90.65            0.999235541      1.70738193       0.0297967498     -87.6763425      0.0297967498     -87.6763425      0.999235541      1.70738193       
91.2             0.99924579       1.69228587       0.0295333788     -87.6906647      0.0295333788     -87.6906647      0.99924579       1.69228587       
91.75            0.999255843      1.67734152       0.0292726529     -87.7047791      0.0292726529     -87.7047791      0.999255843      1.67734152       
92.3             0.999265703      1.66254618       0.029014525      -87.7186879      0.029014525      -87.7186879      0.999265703      1.66254618       
92.85            0.999275375      1.64789721       0.0287589491     -87.7323937      0.0287589491     -87.7323937      0.999275375      1.64789721       
93.4             0.999284862      1.63339203       0.0285058803     -87.7458985      0.0285058803     -87.7458985      0.999284862      1.63339203       
93.95            0.99929417       1.61902812       0.0282552747     -87.7592048      0.0282552747     -87.7592048      0.99929417       1.61902812       
94.5             0.999303302      1.60480302       0.0280070895     -87.7723144      0.0280070895     -87.7723144      0.999303302      1.60480302       
95.05            0.999312262      1.59071433       0.0277612827     -87.7852296      0.0277612827     -87.7852296      0.999312262      1.59071433       
95.6             0.999321053      1.5767597        0.0275178134     -87.7979522      0.0275178134     -87.7979522      0.999321053      1.5767597        
96.15            0.99932968       1.56293683       0.0272766418     -87.8104842      0.0272766418     -87.8104842      0.99932968       1.56293683       
96.7             0.999338145      1.54924348       0.0270377287     -87.8228273      0.0270377287     -87.8228273      0.999338145      1.54924348       
97.25            0.999346453      1.53567747       0.0268010358     -87.8349834      0.0268010358     -87.8349834      0.999346453      1.53567747       
97.8             0.999354607      1.52223664       0.026566526      -87.8469541      0.026566526      -87.8469541      0.999354607      1.52223664       
98.35            0.999362609      1.5089189        0.0263341626     -87.8587411      0.0263341626     -87.8587411      0.999362609      1.5089189        
98.9             0.999370464      1.49572221       0.02610391       -87.8703458      0.02610391       -87.8703458      0.999370464      1.49572221       
99.45            0.999378173      1.48264455       0.0258757333     -87.8817699      0.0258757333     -87.8817699      0.999378173      1.48264455       
100              0.999385741      1.46968398       0.0256495983     -87.8930147      0.0256495983     -87.8930147      0.999385741      1.46968398       
100.55           0.99939317       1.45683857       0.0254254716     -87.9040816      0.0254254716     -87.9040816      0.99939317       1.45683857       
101.1            0.999400462      1.44410645       0.0252033206     -87.9149719      0.0252033206     -87.9149719      0.999400462      1.44410645       
101.65           0.999407622      1.43148578       0.0249831133     -87.9256869      0.0249831133     -87.9256869      0.999407622      1.43148578       
102.2            0.99941465       1.41897477       0.0247648184     -87.9362277      0.0247648184     -87.9362277      0.99941465       1.41897477       
102.75           0.999421551      1.40657166       0.0245484052     -87.9465954      0.0245484052     -87.9465954      0.999421551      1.40657166       
103.3            0.999428326      1.39427474       0.0243338439     -87.9567912      0.0243338439     -87.9567912      0.999428326      1.39427474       
103.85           0.999434978      1.38208231       0.0241211051     -87.9668161      0.0241211051     -87.9668161      0.999434978      1.38208231       
104.4            0.99944151       1.36999273       0.02391016       -87.9766709      0.02391016       -87.9766709      0.99944151       1.36999273       
104.95           0.999447923      1.35800439       0.0237009806     -87.9863567      0.0237009806     -87.9863567      0.999447923      1.35800439       
105.5            0.999454221      1.34611571       0.0234935393     -87.9958742      0.0234935393     -87.9958742      0.999454221      1.34611571       
106.05           0.999460405      1.33432514       0.0232878091     -88.0052242      0.0232878091     -88.0052242      0.999460405      1.33432514       
106.6            0.999466477      1.32263117       0.0230837637     -88.0144075      0.0230837637     -88.0144075      0.999466477      1.32263117       
107.15           0.99947244       1.3110323        0.0228813772     -88.0234247      0.0228813772     -88.0234247      0.99947244       1.3110323        
107.7            0.999478296      1.29952709       0.0226806242     -88.0322765      0.0226806242     -88.0322765      0.999478296      1.29952709       
108.25           0.999484046      1.28811411       0.02248148       -88.0409634      0.02248148       -88.0409634      0.999484046      1.28811411       
108.8            0.999489694      1.27679197       0.0222839201     -88.049486       0.0222839201     -88.049486       0.999489694      1.27679197       
109.35           0.99949524       1.2655593        0.0220879207     -88.0578446      0.0220879207     -88.0578446      0.99949524       1.2655593        
109.9            0.999500686      1.25441476       0.0218934585     -88.0660398      0.0218934585     -88.0660398      0.999500686      1.25441476       
110.45           0.999506035      1.24335703       0.0217005106     -88.0740718      0.0217005106     -88.0740718      0.999506035      1.24335703       
111              0.999511288      1.23238483       0.0215090546     -88.0819409      0.0215090546     -88.0819409      0.999511288      1.23238483       
111.55           0.999516447      1.22149689       0.0213190684     -88.0896475      0.0213190684     -88.0896475      0.999516447      1.22149689       
112.1            0.999521514      1.21069197       0.0211305304     -88.0971917      0.0211305304     -88.0971917      0.999521514      1.21069197       
112.65           0.999526489      1.19996887       0.0209434195     -88.1045735      0.0209434195     -88.1045735      0.999526489      1.19996887       
113.2            0.999531376      1.18932639       0.020757715      -88.1117932      0.020757715      -88.1117932      0.999531376      1.18932639       
113.75           0.999536175      1.17876337       0.0205733965     -88.1188508      0.0205733965     -88.1188508      0.999536175      1.17876337       
114.3            0.999540888      1.16827866       0.0203904441     -88.1257461      0.0203904441     -88.1257461      0.999540888      1.16827866       
114.85           0.999545517      1.15787113       0.0202088381     -88.1324792      0.0202088381     -88.1324792      0.999545517      1.15787113       
115.4            0.999550063      1.14753969       0.0200285595     -88.1390499      0.0200285595     -88.1390499      0.999550063      1.14753969       
115.95           0.999554527      1.13728326       0.0198495893     -88.145458       0.0198495893     -88.145458       0.999554527      1.13728326       
116.5            0.999558911      1.12710077       0.019671909      -88.1517033      0.019671909      -88.1517033      0.999558911      1.12710077       
117.05           0.999563217      1.11699118       0.0194955007     -88.1577855      0.0194955007     -88.1577855      0.999563217      1.11699118       
117.6            0.999567445      1.10695348       0.0193203463     -88.1637041      0.0193203463     -88.1637041      0.999567445      1.10695348       
118.15           0.999571596      1.09698666       0.0191464285     -88.1694588      0.0191464285     -88.1694588      0.999571596      1.09698666       
118.7            0.999575673      1.08708974       0.0189737302     -88.1750492      0.0189737302     -88.1750492      0.999575673      1.08708974       
119.25           0.999579677      1.07726175       0.0188022345     -88.1804746      0.0188022345     -88.1804746      0.999579677      1.07726175       
119.8            0.999583608      1.06750175       0.0186319248     -88.1857346      0.0186319248     -88.1857346      0.999583608      1.06750175       
120.35           0.999587468      1.0578088        0.0184627851     -88.1908284      0.0184627851     -88.1908284      0.999587468      1.0578088        
120.9            0.999591258      1.04818199       0.0182947992     -88.1957553      0.0182947992     -88.1957553      0.999591258      1.04818199       
121.45           0.999594979      1.03862043       0.0181279517     -88.2005145      0.0181279517     -88.2005145      0.999594979      1.03862043       
122              0.999598633      1.02912323       0.0179622272     -88.2051053      0.0179622272     -88.2051053      0.999598633      1.02912323       
122.55           0.99960222       1.01968953       0.0177976105     -88.2095267      0.0177976105     -88.2095267      0.99960222       1.01968953       
123.1            0.999605741      1.01031847       0.017634087      -88.2137777      0.017634087      -88.2137777      0.999605741      1.01031847       
123.65           0.999609198      1.00100924       0.0174716419     -88.2178574      0.0174716419     -88.2178574      0.999609198      1.00100924       
124.2            0.999612591      0.991760992      0.0173102611     -88.2217645      0.0173102611     -88.2217645      0.999612591      0.991760992      
124.75           0.999615922      0.982572938      0.0171499305     -88.2254981      0.0171499305     -88.2254981      0.999615922      0.982572938      
125.3            0.999619192      0.973444283      0.0169906363     -88.2290567      0.0169906363     -88.2290567      0.999619192      0.973444283      
125.85           0.999622401      0.964374248      0.016832365      -88.2324391      0.016832365      -88.2324391      0.999622401      0.964374248      
126.4            0.99962555       0.95536207       0.0166751032     -88.2356439      0.0166751032     -88.2356439      0.99962555       0.95536207       
126.95           0.999628641      0.946406998      0.0165188379     -88.2386697      0.0165188379     -88.2386697      0.999628641      0.946406998      
127.5            0.999631674      0.937508294      0.0163635562     -88.241515       0.0163635562     -88.241515       0.999631674      0.937508294      
128.05           0.999634651      0.928665234      0.0162092454     -88.244178       0.0162092454     -88.244178       0.999634651      0.928665234      
128.6            0.999637571      0.919877105      0.0160558932     -88.2466571      0.0160558932     -88.2466571      0.999637571      0.919877105      
129.15           0.999640436      0.911143205      0.0159034874     -88.2489506      0.0159034874     -88.2489506      0.999640436      0.911143205      
129.7            0.999643247      0.902462847      0.0157520158     -88.2510565      0.0157520158     -88.2510565      0.999643247      0.902462847      
130.25           0.999646004      0.893835353      0.0156014668     -88.252973       0.0156014668     -88.252973       0.999646004      0.893835353      
130.8            0.999648708      0.885260058      0.0154518288     -88.254698       0.0154518288     -88.254698       0.999648708      0.885260058      
131.35           0.999651361      0.876736306      0.0153030902     -88.2562293      0.0153030902     -88.2562293      0.999651361      0.876736306      
131.9            0.999653962      0.868263455      0.0151552399     -88.2575648      0.0151552399     -88.2575648      0.999653962      0.868263455      
132.45           0.999656513      0.85984087       0.015008267      -88.2587021      0.015008267      -88.2587021      0.999656513      0.85984087       
133              0.999659015      0.851467931      0.0148621604     -88.2596388      0.0148621604     -88.2596388      0.999659015      0.851467931      
133.55           0.999661467      0.843144023      0.0147169096     -88.2603724      0.0147169096     -88.2603724      0.999661467      0.843144023      
134.1            0.999663871      0.834868546      0.014572504      -88.2609002      0.014572504      -88.2609002      0.999663871      0.834868546      
134.65           0.999666227      0.826640906      0.0144289334     -88.2612196      0.0144289334     -88.2612196      0.999666227      0.826640906      
135.2            0.999668537      0.81846052       0.0142861876     -88.2613277      0.0142861876     -88.2613277      0.999668537      0.81846052       
135.75           0.9996708        0.810326816      0.0141442565     -88.2612215      0.0141442565     -88.2612215      0.9996708        0.810326816      
136.3            0.999673018      0.802239229      0.0140031304     -88.2608979      0.0140031304     -88.2608979      0.999673018      0.802239229      
136.85           0.999675191      0.794197203      0.0138627995     -88.2603538      0.0138627995     -88.2603538      0.999675191      0.794197203      
137.4            0.999677319      0.786200194      0.0137232545     -88.2595857      0.0137232545     -88.2595857      0.999677319      0.786200194      
137.95           0.999679403      0.778247662      0.0135844858     -88.2585903      0.0135844858     -88.2585903      0.999679403      0.778247662      
138.5            0.999681445      0.770339079      0.0134464843     -88.2573639      0.0134464843     -88.2573639      0.999681445      0.770339079      
139.05           0.999683444      0.762473925      0.0133092409     -88.2559028      0.0133092409     -88.2559028      0.999683444      0.762473925      
139.6            0.999685401      0.754651687      0.0131727467     -88.254203       0.0131727467     -88.254203       0.999685401      0.754651687      
140.15           0.999687316      0.746871861      0.0130369929     -88.2522606      0.0130369929     -88.2522606      0.999687316      0.746871861      
140.7            0.999689191      0.739133949      0.0129019709     -88.2500713      0.0129019709     -88.2500713      0.999689191      0.739133949      
141.25           0.999691026      0.731437464      0.0127676721     -88.2476308      0.0127676721     -88.2476308      0.999691026      0.731437464      
141.8            0.99969282       0.723781923      0.0126340882     -88.2449345      0.0126340882     -88.2449345      0.99969282       0.723781923      
142.35           0.999694576      0.716166853      0.0125012108     -88.2419777      0.0125012108     -88.2419777      0.999694576      0.716166853      
142.9            0.999696292      0.708591788      0.012369032      -88.2387556      0.012369032      -88.2387556      0.999696292      0.708591788      
143.45           0.999697971      0.701056269      0.0122375436     -88.2352629      0.0122375436     -88.2352629      0.999697971      0.701056269      
144              0.999699611      0.693559841      0.0121067378     -88.2314945      0.0121067378     -88.2314945      0.999699611      0.693559841      
144.55           0.999701215      0.686102061      0.0119766069     -88.2274449      0.0119766069     -88.2274449      0.999701215      0.686102061      
145.1            0.999702781      0.67868249       0.0118471432     -88.2231082      0.0118471432     -88.2231082      0.999702781      0.67868249       
145.65           0.999704312      0.671300695      0.0117183392     -88.2184787      0.0117183392     -88.2184787      0.999704312      0.671300695      
146.2            0.999705806      0.66395625       0.0115901875     -88.2135501      0.0115901875     -88.2135501      0.999705806      0.66395625       
146.75           0.999707265      0.656648737      0.0114626807     -88.2083161      0.0114626807     -88.2083161      0.999707265      0.656648737      
147.3            0.999708689      0.649377742      0.0113358118     -88.2027699      0.0113358118     -88.2027699      0.999708689      0.649377742      
147.85           0.999710079      0.642142858      0.0112095736     -88.1969046      0.0112095736     -88.1969046      0.999710079      0.642142858      
148.4            0.999711434      0.634943686      0.0110839591     -88.1907131      0.0110839591     -88.1907131      0.999711434      0.634943686      
148.95           0.999712756      0.627779828      0.0109589615     -88.1841878      0.0109589615     -88.1841878      0.999712756      0.627779828      
149.5            0.999714044      0.620650898      0.0108345741     -88.177321       0.0108345741     -88.177321       0.999714044      0.620650898      
150.05           0.9997153        0.61355651       0.01071079       -88.1701044      0.01071079       -88.1701044      0.9997153        0.61355651       
150.6            0.999716523      0.606496288      0.0105876029     -88.1625298      0.0105876029     -88.1625298      0.999716523      0.606496288      
151.15           0.999717714      0.599469858      0.0104650061     -88.1545883      0.0104650061     -88.1545883      0.999717714      0.599469858      
151.7            0.999718874      0.592476855      0.0103429934     -88.1462707      0.0103429934     -88.1462707      0.999718874      0.592476855      
152.25           0.999720002      0.585516915      0.0102215585     -88.1375676      0.0102215585     -88.1375676      0.999720002      0.585516915      
152.8            0.999721099      0.578589683      0.010100695      -88.128469       0.010100695      -88.128469       0.999721099      0.578589683      
153.35           0.999722165      0.571694808      0.00998039706    -88.1189646      0.00998039706    -88.1189646      0.999722165      0.571694808      
153.9            0.999723202      0.564831943      0.00986065852    -88.1090435      0.00986065852    -88.1090435      0.999723202      0.564831943      
154.45           0.999724208      0.558000746      0.00974147349    -88.0986947      0.00974147349    -88.0986947      0.999724208      0.558000746      
155              0.999725185      0.551200882      0.00962283612    -88.0879062      0.00962283612    -88.0879062      0.999725185      0.551200882      
155.55           0.999726132      0.544432018      0.00950474067    -88.076666       0.00950474067    -88.076666       0.999726132      0.544432018      
156.1            0.999727051      0.537693827      0.00938718145    -88.0649612      0.00938718145    -88.0649612      0.999727051      0.537693827      
156.65           0.999727941      0.530985986      0.00927015288    -88.0527786      0.00927015288    -88.0527786      0.999727941      0.530985986      
157.2            0.999728803      0.524308179      0.00915364943    -88.0401043      0.00915364943    -88.0401043      0.999728803      0.524308179      
157.75           0.999729637      0.51766009       0.00903766568    -88.0269236      0.00903766568    -88.0269236      0.999729637      0.51766009       
158.3            0.999730444      0.51104141       0.00892219627    -88.0132214      0.00892219627    -88.0132214      0.999730444      0.51104141       
158.85           0.999731223      0.504451836      0.00880723592    -87.9989819      0.00880723592    -87.9989819      0.999731223      0.504451836      
159.4            0.999731975      0.497891065      0.00869277943    -87.9841885      0.00869277943    -87.9841885      0.999731975      0.497891065      
159.95           0.999732701      0.491358802      0.00857882166    -87.9688237      0.00857882166    -87.9688237      0.999732701      0.491358802      
160.5            0.9997334        0.484854753      0.00846535756    -87.9528694      0.00846535756    -87.9528694      0.9997334        0.484854753      
161.05           0.999734073      0.47837863       0.00835238214    -87.9363065      0.00835238214    -87.9363065      0.999734073      0.47837863       
161.6            0.99973472       0.471930149      0.00823989048    -87.9191151      0.00823989048    -87.9191151      0.99973472       0.471930149      
162.15           0.999735341      0.465509029      0.00812787774    -87.9012743      0.00812787774    -87.9012743      0.999735341      0.465509029      
162.7            0.999735937      0.459114992      0.00801633914    -87.882762       0.00801633914    -87.882762       0.999735937      0.459114992      
163.25           0.999736509      0.452747766      0.00790526997    -87.8635553      0.00790526997    -87.8635553      0.999736509      0.452747766      
163.8            0.999737055      0.44640708       0.00779466559    -87.84363        0.00779466559    -87.84363        0.999737055      0.44640708       
164.35           0.999737577      0.440092669      0.00768452142    -87.8229607      0.00768452142    -87.8229607      0.999737577      0.440092669      
164.9            0.999738074      0.43380427       0.00757483295    -87.8015208      0.00757483295    -87.8015208      0.999738074      0.43380427       
165.45           0.999738548      0.427541625      0.00746559574    -87.779282       0.00746559574    -87.779282       0.999738548      0.427541625      
166              0.999738998      0.421304477      0.00735680539    -87.756215       0.00735680539    -87.756215       0.999738998      0.421304477      
166.55           0.999739424      0.415092575      0.00724845759    -87.7322886      0.00724845759    -87.7322886      0.999739424      0.415092575      
167.1            0.999739827      0.40890567       0.00714054807    -87.70747        0.00714054807    -87.70747        0.999739827      0.40890567       
167.65           0.999740207      0.402743516      0.00703307265    -87.6817246      0.00703307265    -87.6817246      0.999740207      0.402743516      
168.2            0.999740564      0.39660587       0.00692602717    -87.6550162      0.00692602717    -87.6550162      0.999740564      0.39660587       
168.75           0.999740899      0.390492494      0.00681940757    -87.6273061      0.00681940757    -87.6273061      0.999740899      0.390492494      
169.3            0.999741211      0.384403152      0.00671320982    -87.5985538      0.00671320982    -87.5985538      0.999741211      0.384403152      
169.85           0.999741501      0.37833761       0.00660742997    -87.5687162      0.00660742997    -87.5687162      0.999741501      0.37833761       
170.4            0.999741769      0.372295638      0.00650206411    -87.537748       0.00650206411    -87.537748       0.999741769      0.372295638      
170.95           0.999742015      0.366277009      0.00639710841    -87.505601       0.00639710841    -87.505601       0.999742015      0.366277009      
171.5            0.99974224       0.3602815        0.00629255908    -87.4722243      0.00629255908    -87.4722243      0.99974224       0.3602815        
172.05           0.999742443      0.354308888      0.00618841239    -87.4375638      0.00618841239    -87.4375638      0.999742443      0.354308888      
172.6            0.999742626      0.348358955      0.00608466467    -87.401562       0.00608466467    -87.401562       0.999742626      0.348358955      
173.15           0.999742787      0.342431486      0.00598131232    -87.3641581      0.00598131232    -87.3641581      0.999742787      0.342431486      
173.7            0.999742928      0.336526267      0.00587835177    -87.3252873      0.00587835177    -87.3252873      0.999742928      0.336526267      
174.25           0.999743048      0.330643089      0.00577577953    -87.2848805      0.00577577953    -87.2848805      0.999743048      0.330643089      
174.8            0.999743148      0.324781742      0.00567359217    -87.2428644      0.00567359217    -87.2428644      0.999743148      0.324781742      
175.35           0.999743227      0.318942024      0.00557178628    -87.1991605      0.00557178628    -87.1991605      0.999743227      0.318942024      
175.9            0.999743287      0.31312373       0.00547035856    -87.1536854      0.00547035856    -87.1536854      0.999743287      0.31312373       
176.45           0.999743327      0.307326661      0.00536930573    -87.1063496      0.00536930573    -87.1063496      0.999743327      0.307326661      
177              0.999743347      0.301550619      0.00526862459    -87.0570576      0.00526862459    -87.0570576      0.999743347      0.301550619      
177.55           0.999743348      0.29579541       0.00516831198    -87.0057071      0.00516831198    -87.0057071      0.999743348      0.29579541       
178.1            0.99974333       0.290060841      0.00506836482    -86.9521884      0.00506836482    -86.9521884      0.99974333       0.290060841      
178.65           0.999743293      0.284346721      0.00496878008    -86.8963838      0.00496878008    -86.8963838      0.999743293      0.284346721      
179.2            0.999743236      0.278652863      0.0048695548     -86.8381668      0.0048695548     -86.8381668      0.999743236      0.278652863      
179.75           0.999743161      0.272979081      0.00477068608    -86.777401       0.00477068608    -86.777401       0.999743161      0.272979081      
180.3            0.999743067      0.267325191      0.00467217108    -86.71394        0.00467217108    -86.71394        0.999743067      0.267325191      
180.85           0.999742955      0.261691012      0.00457400703    -86.6476252      0.00457400703    -86.6476252      0.999742955      0.261691012      
181.4            0.999742825      0.256076366      0.00447619124    -86.5782855      0.00447619124    -86.5782855      0.999742825      0.256076366      
181.95           0.999742677      0.250481076      0.00437872108    -86.5057359      0.00437872108    -86.5057359      0.999742677      0.250481076      
182.5            0.99974251       0.244904967      0.00428159401    -86.4297754      0.00428159401    -86.4297754      0.99974251       0.244904967      
183.05           0.999742326      0.239347866      0.00418480755    -86.3501863      0.00418480755    -86.3501863      0.999742326      0.239347866      
183.6            0.999742124      0.233809603      0.00408835933    -86.2667313      0.00408835933    -86.2667313      0.999742124      0.233809603      
184.15           0.999741905      0.22829001       0.00399224703    -86.1791522      0.00399224703    -86.1791522      0.999741905      0.22829001       
184.7            0.999741668      0.222788919      0.00389646847    -86.0871671      0.00389646847    -86.0871671      0.999741668      0.222788919      
185.25           0.999741414      0.217306167      0.00380102154    -85.9904676      0.00380102154    -85.9904676      0.999741414      0.217306167      
185.8            0.999741143      0.211841592      0.00370590423    -85.8887156      0.00370590423    -85.8887156      0.999741143      0.211841592      
186.35           0.999740855      0.206395031      0.00361111468    -85.7815402      0.00361111468    -85.7815402      0.999740855      0.206395031      
186.9            0.99974055       0.200966328      0.00351665113    -85.6685328      0.00351665113    -85.6685328      0.99974055       0.200966328      
187.45           0.999740228      0.195555324      0.00342251197    -85.5492427      0.00342251197    -85.5492427      0.999740228      0.195555324      
188              0.99973989       0.190161865      0.00332869572    -85.4231714      0.00332869572    -85.4231714      0.99973989       0.190161865      
188.55           0.999739536      0.184785798      0.0032352011     -85.2897665      0.0032352011     -85.2897665      0.999739536      0.184785798      
189.1            0.999739165      0.179426971      0.00314202698    -85.1484135      0.00314202698    -85.1484135      0.999739165      0.179426971      
189.65           0.999738778      0.174085234      0.00304917248    -84.9984274      0.00304917248    -84.9984274      0.999738778      0.174085234      
190.2            0.999738375      0.16876044       0.0029566369     -84.8390422      0.0029566369     -84.8390422      0.999738375      0.16876044       
190.75           0.999737957      0.163452443      0.00286441985    -84.6693988      0.00286441985    -84.6693988      0.999737957      0.163452443      
191.3            0.999737522      0.158161097      0.00277252122    -84.4885299      0.00277252122    -84.4885299      0.999737522      0.158161097      
191.85           0.999737072      0.15288626       0.00268094123    -84.2953431      0.00268094123    -84.2953431      0.999737072      0.15288626       
192.4            0.999736606      0.14762779       0.00258968052    -84.0885999      0.00258968052    -84.0885999      0.999736606      0.14762779       
192.95           0.999736125      0.142385548      0.00249874018    -83.8668903      0.00249874018    -83.8668903      0.999736125      0.142385548      
193.5            0.999735629      0.137159397      0.00240812182    -83.6286028      0.00240812182    -83.6286028      0.999735629      0.137159397      
194.05           0.999735117      0.131949198      0.00231782769    -83.3718866      0.00231782769    -83.3718866      0.999735117      0.131949198      
194.6            0.99973459       0.126754818      0.00222786079    -83.0946062      0.00222786079    -83.0946062      0.99973459       0.126754818      
195.15           0.999734048      0.121576123      0.00213822501    -82.7942847      0.00213822501    -82.7942847      0.999734048      0.121576123      
195.7            0.999733492      0.116412981      0.00204892528    -82.4680333      0.00204892528    -82.4680333      0.999733492      0.116412981      
196.25           0.99973292       0.111265261      0.00195996787    -82.1124628      0.00195996787    -82.1124628      0.99973292       0.111265261      
196.8            0.999732334      0.106132835      0.00187136058    -81.7235708      0.00187136058    -81.7235708      0.999732334      0.106132835      
197.35           0.999731734      0.101015574      0.0017831132     -81.2965986      0.0017831132     -81.2965986      0.999731734      0.101015574      
197.9            0.999731119      0.0959133537     0.00169523793    -80.8258453      0.00169523793    -80.8258453      0.999731119      0.0959133537     
198.45           0.99973049       0.0908260481     0.00160775002    -80.3044251      0.00160775002    -80.3044251      0.99973049       0.0908260481     
199              0.999729846      0.0857535341     0.00152066863    -79.7239475      0.00152066863    -79.7239475      0.999729846      0.0857535341     
199.55           0.999729189      0.0806956897     0.0014340179     -79.074089       0.0014340179     -79.074089       0.999729189      0.0806956897     
200.1            0.999728517      0.0756523943     0.00134782855    -78.342012       0.00134782855    -78.342012       0.999728517      0.0756523943     
200.65           0.999727831      0.0706235285     0.00126213994    -77.5115667      0.00126213994    -77.5115667      0.999727831      0.0706235285     
201.2            0.999727132      0.0656089741     0.0011770031     -76.5621758      0.0011770031     -76.5621758      0.999727132      0.0656089741     
201.75           0.999726418      0.0606086145     0.00109248504    -75.4672492      0.00109248504    -75.4672492      0.999726418      0.0606086145     
202.3            0.999725691      0.0556223342     0.00100867506    -74.1918936      0.00100867506    -74.1918936      0.999725691      0.0556223342     
202.85           0.999724951      0.0506500189     0.000925694294   -72.6895362      0.000925694294   -72.6895362      0.999724951      0.0506500189     
203.4            0.999724197      0.0456915557     0.000843710371   -70.8968584      0.000843710371   -70.8968584      0.999724197      0.0456915557     
203.95           0.99972343       0.0407468326     0.000762960595   -68.726053       0.000762960595   -68.726053       0.99972343       0.0407468326     
204.5            0.999722649      0.0358157392     0.000683789729   -66.0528259      0.000683789729   -66.0528259      0.999722649      0.0358157392     
205.05           0.999721855      0.0308981661     0.00060671318    -62.697719       0.00060671318    -62.697719       0.999721855      0.0308981661     
205.6            0.999721048      0.025994005      0.000532525232   -58.3976014      0.000532525232   -58.3976014      0.999721048      0.025994005      
206.15           0.999720228      0.0211031488     0.000462486258   -52.7656371      0.000462486258   -52.7656371      0.999720228      0.0211031488     
206.7            0.999719395      0.0162254916     0.000398637892   -45.2504048      0.000398637892   -45.2504048      0.999719395      0.0162254916     
207.25           0.999718549      0.0113609287     0.000344268261   -35.155704       0.000344268261   -35.155704       0.999718549      0.0113609287     
207.8            0.999717691      0.00650935618    0.000304305972   -21.9152639      0.000304305972   -21.9152639      0.999717691      0.00650935618    
208.35           0.999716819      0.00167067161    0.000284677642   -5.87728325      0.000284677642   -5.87728325      0.999716819      0.00167067161    
208.9            0.999715935      -0.0031552266    0.000289351994   10.968228        0.000289351994   10.968228        0.999715935      -0.0031552266    
209.45           0.999715039      -0.0079684389    0.000317079641   26.0074988       0.000317079641   26.0074988       0.999715039      -0.0079684389    
210              0.999714129      -0.0127690647    0.000362457331   37.9293211       0.000362457331   37.9293211       0.999714129      -0.0127690647    
210.55           0.999713208      -0.0175572024    0.000419669708   46.883241        0.000419669708   46.883241        0.999713208      -0.0175572024    
211.1            0.999712274      -0.0223329493    0.000484431204   53.5513294       0.000484431204   53.5513294       0.999712274      -0.0223329493    
211.65           0.999711328      -0.0270964017    0.000554005012   58.5828276       0.000554005012   58.5828276       0.999711328      -0.0270964017    
212.2            0.99971037       -0.031847655     0.000626706769   62.4583961       0.000626706769   62.4583961       0.99971037       -0.031847655     
212.75           0.9997094        -0.0365868035    0.000701490726   65.5089005       0.000701490726   65.5089005       0.9997094        -0.0365868035    
213.3            0.999708417      -0.0413139406    0.000777690596   67.959092        0.000777690596   67.959092        0.999708417      -0.0413139406    
213.85           0.999707423      -0.0460291588    0.00085486869    69.9630824       0.00085486869    69.9630824       0.999707423      -0.0460291588    
214.4            0.999706416      -0.0507325494    0.000932728688   71.6284494       0.000932728688   71.6284494       0.999706416      -0.0507325494    
214.95           0.999705398      -0.055424203     0.00101106431    73.0318331       0.00101106431    73.0318331       0.999705398      -0.055424203     
215.5            0.999704369      -0.0601042092    0.00108972834    74.2289561       0.00108972834    74.2289561       0.999704369      -0.0601042092    
216.05           0.999703327      -0.0647726568    0.00116861332    75.2611212       0.00116861332    75.2611212       0.999703327      -0.0647726568    
216.6            0.999702274      -0.0694296334    0.00124763933    76.1594944       0.00124763933    76.1594944       0.999702274      -0.0694296334    
217.15           0.999701209      -0.0740752261    0.00132674585    76.9479795       0.00132674585    76.9479795       0.999701209      -0.0740752261    
217.7            0.999700133      -0.0787095208    0.00140588639    77.6451848       0.00140588639    77.6451848       0.999700133      -0.0787095208    
218.25           0.999699045      -0.0833326026    0.00148502475    78.2657929       0.00148502475    78.2657929       0.999699045      -0.0833326026    
218.8            0.999697946      -0.087944556     0.00156413242    78.8215322       0.00156413242    78.8215322       0.999697946      -0.087944556     
219.35           0.999696836      -0.0925454643    0.00164318673    79.3218764       0.00164318673    79.3218764       0.999696836      -0.0925454643    
219.9            0.999695714      -0.0971354102    0.00172216949    79.7745567       0.00172216949    79.7745567       0.999695714      -0.0971354102    
220              0.999695509      -0.0979687744    0.0017365211     79.8522574       0.0017365211     79.8522574       0.999695509      -0.0979687744    
