! Coilcraft 1812CS-562 Chip Inductor				
! 31 July 2002			
# MHZ S MA R 50
!Freq             MagS11           AngS11           MagS21           AngS21           MagS12           AngS12           MagS22           AngS22
1                0.322759237      59.458248        0.880989736      -18.3928558      0.880989736      -18.3928558      0.322759237      59.458248        
1.47             0.442956601      55.2532714       0.831435178      -25.9609928      0.831435178      -25.9609928      0.442956601      55.2532714       
1.94             0.543343142      50.3882738       0.776125321      -32.6375608      0.776125321      -32.6375608      0.543343142      50.3882738       
2.41             0.624736388      45.7397177       0.719906083      -38.4257572      0.719906083      -38.4257572      0.624736388      45.7397177       
2.88             0.689738764      41.554235        0.665911164      -43.3981375      0.665911164      -43.3981375      0.689738764      41.554235        
3.35             0.741378146      37.8737174       0.615795802      -47.6568146      0.615795802      -47.6568146      0.741378146      37.8737174       
3.82             0.782449922      34.6664328       0.570204436      -51.3081788      0.570204436      -51.3081788      0.782449922      34.6664328       
4.29             0.815284807      31.8770702       0.529185369      -54.4501905      0.529185369      -54.4501905      0.815284807      31.8770702       
4.76             0.841729207      29.4470322       0.492478131      -57.1676232      0.492478131      -57.1676232      0.841729207      29.4470322       
5.23             0.863208947      27.3223006       0.459688267      -59.5314754      0.459688267      -59.5314754      0.863208947      27.3223006       
5.7              0.880812749      25.4559165       0.430384485      -61.600216       0.430384485      -61.600216       0.880812749      25.4559165       
6.17             0.895369527      23.8081811       0.404148217      -63.4216308      0.404148217      -63.4216308      0.895369527      23.8081811       
6.64             0.907511693      22.3459737       0.380596062      -65.0346946      0.380596062      -65.0346946      0.907511693      22.3459737       
7.11             0.917724162      21.0418097       0.3593876        -66.4712371      0.3593876        -66.4712371      0.917724162      21.0418097       
7.58             0.92638125       19.8729031       0.340225784      -67.7573399      0.340225784      -67.7573399      0.92638125       19.8729031       
8.05             0.933774099      18.8203312       0.322853872      -68.9144724      0.322853872      -68.9144724      0.933774099      18.8203312       
8.52             0.940130984      17.868329        0.307051015      -69.9603996      0.307051015      -69.9603996      0.940130984      17.868329        
8.99             0.945632344      17.003708        0.292627584      -70.9099035      0.292627584      -70.9099035      0.945632344      17.003708        
9.46             0.950421957      16.2153841       0.279420734      -71.7753539      0.279420734      -71.7753539      0.950421957      16.2153841       
9.93             0.954615285      15.4939967       0.267290429      -72.567161       0.267290429      -72.567161       0.954615285      15.4939967       
10.4             0.958305758      14.8316015       0.256115991      -73.2941345      0.256115991      -73.2941345      0.958305758      14.8316015       
10.87            0.961569523      14.2214233       0.245793139      -73.9637699      0.245793139      -73.9637699      0.961569523      14.2214233       
11.34            0.96446907       13.6576562       0.236231495      -74.5824777      0.236231495      -74.5824777      0.96446907       13.6576562       
11.81            0.96705602       13.1353015       0.227352478      -75.1557678      0.227352478      -75.1557678      0.96705602       13.1353015       
12.28            0.969373285      12.6500362       0.219087542      -75.6883985      0.219087542      -75.6883985      0.969373285      12.6500362       
12.75            0.971456744      12.1981058       0.211376697      -76.1844981      0.211376697      -76.1844981      0.971456744      12.1981058       
13.22            0.973336566      11.7762353       0.20416727       -76.6476633      0.20416727       -76.6476633      0.973336566      11.7762353       
13.69            0.975038257      11.3815574       0.19741286       -77.0810406      0.19741286       -77.0810406      0.975038257      11.3815574       
14.16            0.976583485      11.0115515       0.191072468      -77.487394       0.191072468      -77.487394       0.976583485      11.0115515       
14.63            0.977990748      10.6639945       0.18510975       -77.8691599      0.18510975       -77.8691599      0.977990748      10.6639945       
15.1             0.979275911      10.3369183       0.1794924        -78.2284937      0.1794924        -78.2284937      0.979275911      10.3369183       
15.57            0.980452637      10.028575        0.174191611      -78.5673089      0.174191611      -78.5673089      0.980452637      10.028575        
16.04            0.981532742      9.73740767       0.169181632      -78.8873096      0.169181632      -78.8873096      0.981532742      9.73740767       
16.51            0.982526484      9.46202494       0.164439375      -79.1900176      0.164439375      -79.1900176      0.982526484      9.46202494       
16.98            0.983442804      9.20118001       0.159944093      -79.4767966      0.159944093      -79.4767966      0.983442804      9.20118001       
17.45            0.984289518      8.95375259       0.155677091      -79.7488714      0.155677091      -79.7488714      0.984289518      8.95375259       
17.92            0.985073486      8.71873338       0.151621485      -80.0073455      0.151621485      -80.0073455      0.985073486      8.71873338       
18.39            0.985800746      8.49521079       0.147761993      -80.2532151      0.147761993      -80.2532151      0.985800746      8.49521079       
18.86            0.986476628      8.2823596        0.14408475       -80.487382       0.14408475       -80.487382       0.986476628      8.2823596        
19.33            0.987105856      8.07943096       0.140577149      -80.7106645      0.140577149      -80.7106645      0.987105856      8.07943096       
19.8             0.98769262       7.8857439        0.137227707      -80.9238066      0.137227707      -80.9238066      0.98769262       7.8857439        
20.27            0.988240654      7.70067787       0.13402594       -81.1274862      0.13402594       -81.1274862      0.988240654      7.70067787       
20.74            0.988753291      7.5236662        0.130962263      -81.3223224      0.130962263      -81.3223224      0.988753291      7.5236662        
21.21            0.989233512      7.35419047       0.128027892      -81.5088813      0.128027892      -81.5088813      0.989233512      7.35419047       
21.68            0.989683994      7.1917755        0.125214765      -81.6876822      0.125214765      -81.6876822      0.989683994      7.1917755        
22.15            0.990107141      7.03598494       0.12251547       -81.8592016      0.12251547       -81.8592016      0.990107141      7.03598494       
22.62            0.99050512       6.88641746       0.119923181      -82.0238778      0.119923181      -82.0238778      0.99050512       6.88641746       
23.09            0.990879888      6.7427033        0.117431603      -82.1821147      0.117431603      -82.1821147      0.990879888      6.7427033        
23.56            0.991233216      6.60450122       0.115034922      -82.3342851      0.115034922      -82.3342851      0.991233216      6.60450122       
24.03            0.991566707      6.47149589       0.112727756      -82.4807333      0.112727756      -82.4807333      0.991566707      6.47149589       
24.5             0.99188182       6.34339541       0.110505122      -82.6217782      0.110505122      -82.6217782      0.99188182       6.34339541       
24.97            0.99217988       6.21992924       0.108362396      -82.7577152      0.108362396      -82.7577152      0.99217988       6.21992924       
25.44            0.992462095      6.10084627       0.106295284      -82.8888186      0.106295284      -82.8888186      0.992462095      6.10084627       
25.91            0.992729569      5.98591313       0.10429979       -83.0153433      0.10429979       -83.0153433      0.992729569      5.98591313       
26.38            0.992983311      5.87491263       0.102372196      -83.1375266      0.102372196      -83.1375266      0.992983311      5.87491263       
26.85            0.993224244      5.76764242       0.100509031      -83.2555894      0.100509031      -83.2555894      0.993224244      5.76764242       
27.32            0.993453216      5.66391374       0.0987070589     -83.3697379      0.0987070589     -83.3697379      0.993453216      5.66391374       
27.79            0.993671005      5.56355027       0.0969632535     -83.4801646      0.0969632535     -83.4801646      0.993671005      5.56355027       
28.26            0.993878326      5.46638719       0.0952747841     -83.5870497      0.0952747841     -83.5870497      0.993878326      5.46638719       
28.73            0.99407584       5.37227021       0.0936389999     -83.6905615      0.0936389999     -83.6905615      0.99407584       5.37227021       
29.2             0.994264154      5.28105476       0.0920534155     -83.7908579      0.0920534155     -83.7908579      0.994264154      5.28105476       
29.67            0.994443831      5.19260525       0.0905156987     -83.8880871      0.0905156987     -83.8880871      0.994443831      5.19260525       
30.14            0.994615388      5.10679436       0.089023659      -83.9823881      0.089023659      -83.9823881      0.994615388      5.10679436       
30.61            0.994779308      5.02350247       0.0875752366     -84.0738914      0.0875752366     -84.0738914      0.994779308      5.02350247       
31.08            0.994936036      4.94261704       0.0861684933     -84.16272        0.0861684933     -84.16272        0.994936036      4.94261704       
31.55            0.995085986      4.86403209       0.0848016034     -84.2489895      0.0848016034     -84.2489895      0.995085986      4.86403209       
32.02            0.995229541      4.78764779       0.0834728459     -84.3328089      0.0834728459     -84.3328089      0.995229541      4.78764779       
32.49            0.995367058      4.71336998       0.0821805969     -84.414281       0.0821805969     -84.414281       0.995367058      4.71336998       
32.96            0.995498871      4.64110975       0.0809233231     -84.4935029      0.0809233231     -84.4935029      0.995498871      4.64110975       
33.43            0.995625289      4.57078314       0.0796995757     -84.5705661      0.0796995757     -84.5705661      0.995625289      4.57078314       
33.9             0.995746601      4.50231076       0.0785079842     -84.6455573      0.0785079842     -84.6455573      0.995746601      4.50231076       
34.37            0.995863077      4.43561749       0.0773472516     -84.7185584      0.0773472516     -84.7185584      0.995863077      4.43561749       
34.84            0.995974969      4.37063222       0.0762161496     -84.7896469      0.0762161496     -84.7896469      0.995974969      4.37063222       
35.31            0.996082513      4.30728756       0.0751135138     -84.8588964      0.0751135138     -84.8588964      0.996082513      4.30728756       
35.78            0.996185929      4.24551959       0.07403824       -84.9263765      0.07403824       -84.9263765      0.996185929      4.24551959       
36.25            0.996285426      4.18526769       0.0729892799     -84.9921533      0.0729892799     -84.9921533      0.996285426      4.18526769       
36.72            0.996381196      4.12647429       0.0719656381     -85.0562895      0.0719656381     -85.0562895      0.996381196      4.12647429       
37.19            0.996473422      4.06908468       0.0709663686     -85.1188447      0.0709663686     -85.1188447      0.996473422      4.06908468       
37.66            0.996562274      4.01304687       0.0699905717     -85.1798755      0.0699905717     -85.1798755      0.996562274      4.01304687       
38.13            0.996647914      3.95831137       0.0690373914     -85.2394358      0.0690373914     -85.2394358      0.996647914      3.95831137       
38.6             0.996730494      3.9048311        0.0681060126     -85.2975767      0.0681060126     -85.2975767      0.996730494      3.9048311        
39.07            0.996810154      3.8525612        0.0671956588     -85.3543471      0.0671956588     -85.3543471      0.996810154      3.8525612        
39.54            0.99688703       3.80145892       0.06630559       -85.4097935      0.06630559       -85.4097935      0.99688703       3.80145892       
40.01            0.996961249      3.7514835        0.0654351002     -85.4639601      0.0654351002     -85.4639601      0.996961249      3.7514835        
40.48            0.997032928      3.70259605       0.0645835158     -85.5168891      0.0645835158     -85.5168891      0.997032928      3.70259605       
40.95            0.997102182      3.65475945       0.0637501936     -85.5686209      0.0637501936     -85.5686209      0.997102182      3.65475945       
41.42            0.997169116      3.60793823       0.0629345193     -85.6191939      0.0629345193     -85.6191939      0.997169116      3.60793823       
41.89            0.997233831      3.56209851       0.0621359056     -85.6686448      0.0621359056     -85.6686448      0.997233831      3.56209851       
42.36            0.997296422      3.51720791       0.0613537911     -85.7170087      0.0613537911     -85.7170087      0.997296422      3.51720791       
42.83            0.99735698       3.47323542       0.0605876385     -85.7643192      0.0605876385     -85.7643192      0.99735698       3.47323542       
43.3             0.99741559       3.4301514        0.0598369337     -85.8106083      0.0598369337     -85.8106083      0.99741559       3.4301514        
43.77            0.997472332      3.38792745       0.0591011843     -85.8559067      0.0591011843     -85.8559067      0.997472332      3.38792745       
44.24            0.997527283      3.34653637       0.0583799186     -85.9002438      0.0583799186     -85.9002438      0.997527283      3.34653637       
44.71            0.997580516      3.3059521        0.0576726843     -85.9436477      0.0576726843     -85.9436477      0.997580516      3.3059521        
45.18            0.997632101      3.26614964       0.056979048      -85.9861453      0.056979048      -85.9861453      0.997632101      3.26614964       
45.65            0.997682101      3.22710502       0.0562985938     -86.0277624      0.0562985938     -86.0277624      0.997682101      3.22710502       
46.12            0.997730581      3.18879525       0.0556309225     -86.0685237      0.0556309225     -86.0685237      0.997730581      3.18879525       
46.59            0.997777599      3.15119823       0.0549756508     -86.108453       0.0549756508     -86.108453       0.997777599      3.15119823       
47.06            0.997823211      3.11429276       0.0543324107     -86.147573       0.0543324107     -86.147573       0.997823211      3.11429276       
47.53            0.997867471      3.07805846       0.0537008483     -86.1859055      0.0537008483     -86.1859055      0.997867471      3.07805846       
48               0.99791043       3.04247576       0.0530806239     -86.2234714      0.0530806239     -86.2234714      0.99791043       3.04247576       
48.47            0.997952137      3.00752581       0.0524714103     -86.260291       0.0524714103     -86.260291       0.997952137      3.00752581       
48.94            0.997992639      2.97319051       0.0518728931     -86.2963834      0.0518728931     -86.2963834      0.997992639      2.97319051       
49.41            0.998031978      2.93945242       0.0512847695     -86.3317672      0.0512847695     -86.3317672      0.998031978      2.93945242       
49.88            0.998070199      2.90629478       0.0507067482     -86.3664603      0.0507067482     -86.3664603      0.998070199      2.90629478       
50.35            0.998107339      2.87370141       0.0501385486     -86.4004798      0.0501385486     -86.4004798      0.998107339      2.87370141       
50.82            0.99814344       2.84165677       0.0495799004     -86.4338422      0.0495799004     -86.4338422      0.99814344       2.84165677       
51.29            0.998178536      2.81014585       0.0490305429     -86.4665632      0.0490305429     -86.4665632      0.998178536      2.81014585       
51.76            0.998212663      2.77915421       0.0484902251     -86.4986582      0.0484902251     -86.4986582      0.998212663      2.77915421       
52.23            0.998245854      2.74866789       0.0479587048     -86.5301417      0.0479587048     -86.5301417      0.998245854      2.74866789       
52.7             0.998278143      2.71867347       0.0474357483     -86.5610279      0.0474357483     -86.5610279      0.998278143      2.71867347       
53.17            0.998309558      2.68915795       0.0469211302     -86.5913304      0.0469211302     -86.5913304      0.998309558      2.68915795       
53.64            0.99834013       2.66010884       0.0464146329     -86.6210622      0.0464146329     -86.6210622      0.99834013       2.66010884       
54.11            0.998369887      2.63151403       0.0459160463     -86.6502358      0.0459160463     -86.6502358      0.998369887      2.63151403       
54.58            0.998398856      2.60336185       0.0454251674     -86.6788634      0.0454251674     -86.6788634      0.998398856      2.60336185       
55.05            0.998427062      2.57564102       0.0449418001     -86.7069567      0.0449418001     -86.7069567      0.998427062      2.57564102       
55.52            0.998454531      2.54834065       0.0444657551     -86.7345268      0.0444657551     -86.7345268      0.998454531      2.54834065       
55.99            0.998481286      2.5214502        0.0439968491     -86.7615847      0.0439968491     -86.7615847      0.998481286      2.5214502        
56.46            0.998507349      2.49495948       0.043534905      -86.7881406      0.043534905      -86.7881406      0.998507349      2.49495948       
56.93            0.998532743      2.46885864       0.0430797515     -86.8142046      0.0430797515     -86.8142046      0.998532743      2.46885864       
57.4             0.998557489      2.44313815       0.0426312228     -86.8397865      0.0426312228     -86.8397865      0.998557489      2.44313815       
57.87            0.998581606      2.41778879       0.0421891586     -86.8648954      0.0421891586     -86.8648954      0.998581606      2.41778879       
58.34            0.998605115      2.39280162       0.0417534035     -86.8895405      0.0417534035     -86.8895405      0.998605115      2.39280162       
58.81            0.998628033      2.36816802       0.0413238073     -86.9137302      0.0413238073     -86.9137302      0.998628033      2.36816802       
59.28            0.998650379      2.34387959       0.0409002242     -86.9374731      0.0409002242     -86.9374731      0.998650379      2.34387959       
59.75            0.99867217       2.31992824       0.0404825134     -86.960777       0.0404825134     -86.960777       0.99867217       2.31992824       
60.22            0.998693422      2.29630611       0.040070538      -86.9836498      0.040070538      -86.9836498      0.998693422      2.29630611       
60.69            0.998714151      2.27300558       0.0396641656     -87.0060988      0.0396641656     -87.0060988      0.998714151      2.27300558       
61.16            0.998734372      2.25001926       0.0392632677     -87.0281313      0.0392632677     -87.0281313      0.998734372      2.25001926       
61.63            0.998754101      2.22734001       0.0388677199     -87.0497541      0.0388677199     -87.0497541      0.998754101      2.22734001       
62.1             0.998773351      2.20496088       0.0384774013     -87.0709739      0.0384774013     -87.0709739      0.998773351      2.20496088       
62.57            0.998792136      2.18287513       0.0380921946     -87.0917972      0.0380921946     -87.0917972      0.998792136      2.18287513       
63.04            0.998810469      2.16107623       0.0377119863     -87.1122301      0.0377119863     -87.1122301      0.998810469      2.16107623       
63.51            0.998828363      2.13955784       0.0373366659     -87.1322785      0.0373366659     -87.1322785      0.998828363      2.13955784       
63.98            0.99884583       2.11831379       0.0369661263     -87.1519482      0.0369661263     -87.1519482      0.99884583       2.11831379       
64.45            0.998862882      2.09733811       0.0366002634     -87.1712446      0.0366002634     -87.1712446      0.998862882      2.09733811       
64.92            0.99887953       2.076625         0.0362389762     -87.1901731      0.0362389762     -87.1901731      0.99887953       2.076625         
65.39            0.998895786      2.05616881       0.0358821665     -87.2087386      0.0358821665     -87.2087386      0.998895786      2.05616881       
65.86            0.998911659      2.03596407       0.0355297389     -87.2269462      0.0355297389     -87.2269462      0.998911659      2.03596407       
66.33            0.998927161      2.01600545       0.0351816008     -87.2448005      0.0351816008     -87.2448005      0.998927161      2.01600545       
66.8             0.9989423        1.99628777       0.0348376621     -87.262306       0.0348376621     -87.262306       0.9989423        1.99628777       
67.27            0.998957087      1.976806         0.0344978351     -87.279467       0.0344978351     -87.279467       0.998957087      1.976806         
67.74            0.99897153       1.95755525       0.0341620347     -87.2962877      0.0341620347     -87.2962877      0.99897153       1.95755525       
68.21            0.998985639      1.93853077       0.0338301782     -87.312772       0.0338301782     -87.312772       0.998985639      1.93853077       
68.68            0.998999422      1.91972792       0.0335021848     -87.3289238      0.0335021848     -87.3289238      0.998999422      1.91972792       
69.15            0.999012888      1.90114219       0.0331779762     -87.3447466      0.0331779762     -87.3447466      0.999012888      1.90114219       
69.62            0.999026044      1.88276922       0.0328574761     -87.3602441      0.0328574761     -87.3602441      0.999026044      1.88276922       
70.09            0.999038899      1.86460473       0.0325406102     -87.3754194      0.0325406102     -87.3754194      0.999038899      1.86460473       
70.56            0.999051459      1.84664457       0.0322273063     -87.3902758      0.0322273063     -87.3902758      0.999051459      1.84664457       
71.03            0.999063732      1.82888469       0.0319174939     -87.4048163      0.0319174939     -87.4048163      0.999063732      1.82888469       
71.5             0.999075726      1.81132117       0.0316111046     -87.4190438      0.0316111046     -87.4190438      0.999075726      1.81132117       
71.97            0.999087446      1.79395017       0.0313080715     -87.432961       0.0313080715     -87.432961       0.999087446      1.79395017       
72.44            0.9990989        1.77676795       0.0310083296     -87.4465705      0.0310083296     -87.4465705      0.9990989        1.77676795       
72.91            0.999110094      1.75977087       0.0307118156     -87.4598747      0.0307118156     -87.4598747      0.999110094      1.75977087       
73.38            0.999121034      1.7429554        0.0304184677     -87.4728761      0.0304184677     -87.4728761      0.999121034      1.7429554        
73.85            0.999131726      1.72631806       0.0301282257     -87.4855767      0.0301282257     -87.4855767      0.999131726      1.72631806       
74.32            0.999142176      1.7098555        0.0298410309     -87.4979786      0.0298410309     -87.4979786      0.999142176      1.7098555        
74.79            0.99915239       1.69356443       0.0295568262     -87.5100838      0.0295568262     -87.5100838      0.99915239       1.69356443       
75.26            0.999162373      1.67744164       0.0292755558     -87.5218941      0.0292755558     -87.5218941      0.999162373      1.67744164       
75.73            0.99917213       1.66148401       0.0289971652     -87.5334111      0.0289971652     -87.5334111      0.99917213       1.66148401       
76.2             0.999181666      1.6456885        0.0287216014     -87.5446365      0.0287216014     -87.5446365      0.999181666      1.6456885        
76.67            0.999190987      1.63005214       0.0284488127     -87.5555716      0.0284488127     -87.5555716      0.999190987      1.63005214       
77.14            0.999200098      1.61457201       0.0281787485     -87.5662178      0.0281787485     -87.5662178      0.999200098      1.61457201       
77.61            0.999209002      1.5992453        0.0279113595     -87.5765762      0.0279113595     -87.5765762      0.999209002      1.5992453        
78.08            0.999217705      1.58406924       0.0276465977     -87.586648       0.0276465977     -87.586648       0.999217705      1.58406924       
78.55            0.999226211      1.56904114       0.027384416      -87.5964342      0.027384416      -87.5964342      0.999226211      1.56904114       
79.02            0.999234524      1.55415836       0.0271247686     -87.6059355      0.0271247686     -87.6059355      0.999234524      1.55415836       
79.49            0.999242648      1.53941833       0.0268676108     -87.6151528      0.0268676108     -87.6151528      0.999242648      1.53941833       
79.96            0.999250588      1.52481855       0.0266128988     -87.6240866      0.0266128988     -87.6240866      0.999250588      1.52481855       
80.43            0.999258347      1.51035655       0.0263605899     -87.6327375      0.0263605899     -87.6327375      0.999258347      1.51035655       
80.9             0.99926593       1.49602995       0.0261106425     -87.6411058      0.0261106425     -87.6411058      0.99926593       1.49602995       
81.37            0.999273339      1.48183641       0.0258630157     -87.6491919      0.0258630157     -87.6491919      0.999273339      1.48183641       
81.84            0.999280579      1.46777364       0.0256176698     -87.656996       0.0256176698     -87.656996       0.999280579      1.46777364       
82.31            0.999287653      1.45383941       0.0253745657     -87.664518       0.0253745657     -87.664518       0.999287653      1.45383941       
82.78            0.999294564      1.44003154       0.0251336656     -87.671758       0.0251336656     -87.671758       0.999294564      1.44003154       
83.25            0.999301316      1.42634788       0.0248949323     -87.6787158      0.0248949323     -87.6787158      0.999301316      1.42634788       
83.72            0.999307912      1.41278636       0.0246583293     -87.6853912      0.0246583293     -87.6853912      0.999307912      1.41278636       
84.19            0.999314355      1.39934493       0.0244238212     -87.6917837      0.0244238212     -87.6917837      0.999314355      1.39934493       
84.66            0.999320648      1.3860216        0.0241913732     -87.6978928      0.0241913732     -87.6978928      0.999320648      1.3860216        
85.13            0.999326795      1.37281442       0.0239609513     -87.7037181      0.0239609513     -87.7037181      0.999326795      1.37281442       
85.6             0.999332797      1.35972148       0.0237325223     -87.7092587      0.0237325223     -87.7092587      0.999332797      1.35972148       
86.07            0.999338658      1.34674091       0.0235060537     -87.7145138      0.0235060537     -87.7145138      0.999338658      1.34674091       
86.54            0.999344381      1.3338709        0.0232815137     -87.7194825      0.0232815137     -87.7194825      0.999344381      1.3338709        
87.01            0.999349968      1.32110964       0.0230588712     -87.7241637      0.0230588712     -87.7241637      0.999349968      1.32110964       
87.48            0.999355421      1.3084554        0.0228380956     -87.7285562      0.0228380956     -87.7285562      0.999355421      1.3084554        
87.95            0.999360744      1.29590647       0.0226191573     -87.7326588      0.0226191573     -87.7326588      0.999360744      1.29590647       
88.42            0.999365939      1.28346116       0.022402027      -87.7364701      0.022402027      -87.7364701      0.999365939      1.28346116       
88.89            0.999371008      1.27111784       0.0221866761     -87.7399884      0.0221866761     -87.7399884      0.999371008      1.27111784       
89.36            0.999375953      1.2588749        0.0219730768     -87.7432122      0.0219730768     -87.7432122      0.999375953      1.2588749        
89.83            0.999380777      1.24673078       0.0217612017     -87.7461397      0.0217612017     -87.7461397      0.999380777      1.24673078       
90.3             0.999385483      1.23468393       0.0215510238     -87.7487689      0.0215510238     -87.7487689      0.999385483      1.23468393       
90.77            0.999390071      1.22273284       0.0213425171     -87.7510979      0.0213425171     -87.7510979      0.999390071      1.22273284       
91.24            0.999394544      1.21087605       0.0211356558     -87.7531244      0.0211356558     -87.7531244      0.999394544      1.21087605       
91.71            0.999398905      1.1991121        0.0209304147     -87.7548462      0.0209304147     -87.7548462      0.999398905      1.1991121        
92.18            0.999403155      1.18743958       0.0207267691     -87.7562609      0.0207267691     -87.7562609      0.999403155      1.18743958       
92.65            0.999407297      1.1758571        0.0205246949     -87.7573659      0.0205246949     -87.7573659      0.999407297      1.1758571        
93.12            0.999411331      1.16436331       0.0203241683     -87.7581584      0.0203241683     -87.7581584      0.999411331      1.16436331       
93.59            0.999415261      1.15295685       0.0201251663     -87.7586358      0.0201251663     -87.7586358      0.999415261      1.15295685       
94.06            0.999419087      1.14163645       0.019927666      -87.7587948      0.019927666      -87.7587948      0.999419087      1.14163645       
94.53            0.999422812      1.1304008        0.0197316451     -87.7586326      0.0197316451     -87.7586326      0.999422812      1.1304008        
95               0.999426437      1.11924866       0.0195370819     -87.7581456      0.0195370819     -87.7581456      0.999426437      1.11924866       
95.47            0.999429965      1.1081788        0.0193439548     -87.7573306      0.0193439548     -87.7573306      0.999429965      1.1081788        
95.94            0.999433396      1.09719001       0.019152243      -87.7561839      0.019152243      -87.7561839      0.999433396      1.09719001       
96.41            0.999436732      1.08628111       0.0189619257     -87.7547017      0.0189619257     -87.7547017      0.999436732      1.08628111       
96.88            0.999439975      1.07545094       0.0187729829     -87.7528801      0.0187729829     -87.7528801      0.999439975      1.07545094       
97.35            0.999443126      1.06469836       0.0185853946     -87.750715       0.0185853946     -87.750715       0.999443126      1.06469836       
97.82            0.999446187      1.05402226       0.0183991416     -87.7482021      0.0183991416     -87.7482021      0.999446187      1.05402226       
98.29            0.999449159      1.04342154       0.0182142047     -87.7453371      0.0182142047     -87.7453371      0.999449159      1.04342154       
98.76            0.999452044      1.03289513       0.0180305653     -87.7421151      0.0180305653     -87.7421151      0.999452044      1.03289513       
99.23            0.999454844      1.02244198       0.017848205      -87.7385315      0.017848205      -87.7385315      0.999454844      1.02244198       
99.7             0.999457558      1.01206105       0.0176671059     -87.7345812      0.0176671059     -87.7345812      0.999457558      1.01206105       
100.17           0.99946019       1.00175132       0.0174872502     -87.7302589      0.0174872502     -87.7302589      0.99946019       1.00175132       
100.64           0.999462739      0.991511813      0.0173086208     -87.7255592      0.0173086208     -87.7255592      0.999462739      0.991511813      
101.11           0.999465208      0.98134154       0.0171312006     -87.7204764      0.0171312006     -87.7204764      0.999465208      0.98134154       
101.58           0.999467597      0.971239546      0.016954973      -87.7150048      0.016954973      -87.7150048      0.999467597      0.971239546      
102.05           0.999469908      0.961204891      0.0167799215     -87.7091381      0.0167799215     -87.7091381      0.999469908      0.961204891      
102.52           0.999472142      0.951236649      0.0166060301     -87.7028701      0.0166060301     -87.7028701      0.999472142      0.951236649      
102.99           0.9994743        0.941333915      0.0164332831     -87.6961941      0.0164332831     -87.6961941      0.9994743        0.941333915      
103.46           0.999476384      0.931495798      0.0162616649     -87.6891033      0.0162616649     -87.6891033      0.999476384      0.931495798      
103.93           0.999478394      0.921721423      0.0160911604     -87.6815906      0.0160911604     -87.6815906      0.999478394      0.921721423      
104.4            0.999480331      0.912009933      0.0159217547     -87.6736487      0.0159217547     -87.6736487      0.999480331      0.912009933      
104.87           0.999482197      0.902360484      0.015753433      -87.6652699      0.015753433      -87.6652699      0.999482197      0.902360484      
105.34           0.999483992      0.892772248      0.0155861809     -87.6564463      0.0155861809     -87.6564463      0.999483992      0.892772248      
105.81           0.999485718      0.883244411      0.0154199845     -87.6471696      0.0154199845     -87.6471696      0.999485718      0.883244411      
106.28           0.999487375      0.873776174      0.0152548297     -87.6374313      0.0152548297     -87.6374313      0.999487375      0.873776174      
106.75           0.999488965      0.864366753      0.0150907029     -87.6272225      0.0150907029     -87.6272225      0.999488965      0.864366753      
107.22           0.999490488      0.855015376      0.0149275908     -87.616534       0.0149275908     -87.616534       0.999490488      0.855015376      
107.69           0.999491946      0.845721285      0.0147654802     -87.6053563      0.0147654802     -87.6053563      0.999491946      0.845721285      
108.16           0.999493339      0.836483735      0.0146043581     -87.5936794      0.0146043581     -87.5936794      0.999493339      0.836483735      
108.63           0.999494668      0.827301995      0.0144442118     -87.581493       0.0144442118     -87.581493       0.999494668      0.827301995      
109.1            0.999495934      0.818175345      0.014285029      -87.5687864      0.014285029      -87.5687864      0.999495934      0.818175345      
109.57           0.999497138      0.809103078      0.0141267972     -87.5555486      0.0141267972     -87.5555486      0.999497138      0.809103078      
110.04           0.999498281      0.800084501      0.0139695046     -87.5417681      0.0139695046     -87.5417681      0.999498281      0.800084501      
110.51           0.999499363      0.791118928      0.0138131391     -87.5274328      0.0138131391     -87.5274328      0.999499363      0.791118928      
110.98           0.999500385      0.78220569       0.0136576892     -87.5125304      0.0136576892     -87.5125304      0.999500385      0.78220569       
111.45           0.999501349      0.773344126      0.0135031435     -87.497048       0.0135031435     -87.497048       0.999501349      0.773344126      
111.92           0.999502255      0.764533586      0.0133494907     -87.4809721      0.0133494907     -87.4809721      0.999502255      0.764533586      
112.39           0.999503103      0.755773433      0.0131967197     -87.4642889      0.0131967197     -87.4642889      0.999503103      0.755773433      
112.86           0.999503895      0.747063039      0.0130448198     -87.4469838      0.0130448198     -87.4469838      0.999503895      0.747063039      
113.33           0.999504631      0.738401786      0.0128937801     -87.4290419      0.0128937801     -87.4290419      0.999504631      0.738401786      
113.8            0.999505311      0.729789068      0.0127435903     -87.4104474      0.0127435903     -87.4104474      0.999505311      0.729789068      
114.27           0.999505937      0.721224287      0.01259424       -87.3911842      0.01259424       -87.3911842      0.999505937      0.721224287      
114.74           0.999506509      0.712706857      0.0124457191     -87.3712354      0.0124457191     -87.3712354      0.999506509      0.712706857      
115.21           0.999507029      0.704236199      0.0122980175     -87.3505833      0.0122980175     -87.3505833      0.999507029      0.704236199      
115.68           0.999507495      0.695811745      0.0121511255     -87.3292097      0.0121511255     -87.3292097      0.999507495      0.695811745      
116.15           0.99950791       0.687432936      0.0120050335     -87.3070955      0.0120050335     -87.3070955      0.99950791       0.687432936      
116.62           0.999508273      0.679099222      0.0118597319     -87.2842208      0.0118597319     -87.2842208      0.999508273      0.679099222      
117.09           0.999508586      0.670810062      0.0117152114     -87.2605651      0.0117152114     -87.2605651      0.999508586      0.670810062      
117.56           0.999508849      0.662564922      0.011571463      -87.2361068      0.011571463      -87.2361068      0.999508849      0.662564922      
118.03           0.999509062      0.654363278      0.0114284774     -87.2108235      0.0114284774     -87.2108235      0.999509062      0.654363278      
118.5            0.999509227      0.646204616      0.011286246      -87.1846918      0.011286246      -87.1846918      0.999509227      0.646204616      
118.97           0.999509343      0.638088426      0.0111447599     -87.1576874      0.0111447599     -87.1576874      0.999509343      0.638088426      
119.44           0.999509412      0.630014209      0.0110040107     -87.1297848      0.0110040107     -87.1297848      0.999509412      0.630014209      
119.91           0.999509433      0.621981473      0.0108639898     -87.1009576      0.0108639898     -87.1009576      0.999509433      0.621981473      
120.38           0.999509408      0.613989734      0.010724689      -87.0711779      0.010724689      -87.0711779      0.999509408      0.613989734      
120.85           0.999509336      0.606038516      0.0105861001     -87.040417       0.0105861001     -87.040417       0.999509336      0.606038516      
121.32           0.999509219      0.598127348      0.0104482152     -87.0086446      0.0104482152     -87.0086446      0.999509219      0.598127348      
121.79           0.999509057      0.590255769      0.0103110263     -86.9758292      0.0103110263     -86.9758292      0.999509057      0.590255769      
122.26           0.99950885       0.582423324      0.0101745257     -86.9419377      0.0101745257     -86.9419377      0.99950885       0.582423324      
122.73           0.999508599      0.574629564      0.0100387058     -86.9069356      0.0100387058     -86.9069356      0.999508599      0.574629564      
123.2            0.999508305      0.566874048      0.00990355903    -86.8707869      0.00990355903    -86.8707869      0.999508305      0.566874048      
123.67           0.999507967      0.559156342      0.00976907812    -86.8334537      0.00976907812    -86.8334537      0.999507967      0.559156342      
124.14           0.999507586      0.551476019      0.0096352558     -86.7948964      0.0096352558     -86.7948964      0.999507586      0.551476019      
124.61           0.999507164      0.543832655      0.00950208494    -86.7550734      0.00950208494    -86.7550734      0.999507164      0.543832655      
125.08           0.999506699      0.536225837      0.00936955856    -86.7139414      0.00936955856    -86.7139414      0.999506699      0.536225837      
125.55           0.999506193      0.528655155      0.00923766979    -86.6714546      0.00923766979    -86.6714546      0.999506193      0.528655155      
126.02           0.999505646      0.521120207      0.00910641187    -86.6275652      0.00910641187    -86.6275652      0.999505646      0.521120207      
126.49           0.999505059      0.513620595      0.00897577815    -86.5822228      0.00897577815    -86.5822228      0.999505059      0.513620595      
126.96           0.999504431      0.506155928      0.00884576213    -86.5353746      0.00884576213    -86.5353746      0.999504431      0.506155928      
127.43           0.999503764      0.498725822      0.00871635741    -86.4869651      0.00871635741    -86.4869651      0.999503764      0.498725822      
127.9            0.999503058      0.491329897      0.00858755768    -86.4369358      0.00858755768    -86.4369358      0.999503058      0.491329897      
128.37           0.999502312      0.483967778      0.00845935678    -86.3852253      0.00845935678    -86.3852253      0.999502312      0.483967778      
128.84           0.999501528      0.476639098      0.00833174865    -86.3317688      0.00833174865    -86.3317688      0.999501528      0.476639098      
129.31           0.999500706      0.469343492      0.00820472733    -86.2764979      0.00820472733    -86.2764979      0.999500706      0.469343492      
129.78           0.999499846      0.462080603      0.00807828701    -86.2193409      0.00807828701    -86.2193409      0.999499846      0.462080603      
130.25           0.999498948      0.454850079      0.00795242194    -86.1602217      0.00795242194    -86.1602217      0.999498948      0.454850079      
130.72           0.999498014      0.447651571      0.00782712653    -86.0990602      0.00782712653    -86.0990602      0.999498014      0.447651571      
131.19           0.999497042      0.440484737      0.00770239528    -86.0357716      0.00770239528    -86.0357716      0.999497042      0.440484737      
131.66           0.999496035      0.433349239      0.0075782228     -85.9702663      0.0075782228     -85.9702663      0.999496035      0.433349239      
132.13           0.999494991      0.426244744      0.00745460382    -85.9024496      0.00745460382    -85.9024496      0.999494991      0.426244744      
132.6            0.999493911      0.419170923      0.0073315332     -85.832221       0.0073315332     -85.832221       0.999493911      0.419170923      
133.07           0.999492796      0.412127453      0.00720900588    -85.7594741      0.00720900588    -85.7594741      0.999492796      0.412127453      
133.54           0.999491647      0.405114015      0.00708701694    -85.684096       0.00708701694    -85.684096       0.999491647      0.405114015      
134.01           0.999490462      0.398130293      0.00696556158    -85.6059669      0.00696556158    -85.6059669      0.999490462      0.398130293      
134.48           0.999489243      0.391175979      0.00684463511    -85.5249594      0.00684463511    -85.5249594      0.999489243      0.391175979      
134.95           0.999487989      0.384250766      0.00672423297    -85.4409381      0.00672423297    -85.4409381      0.999487989      0.384250766      
135.42           0.999486702      0.377354352      0.00660435071    -85.3537587      0.00660435071    -85.3537587      0.999486702      0.377354352      
135.89           0.999485382      0.370486439      0.00648498401    -85.2632676      0.00648498401    -85.2632676      0.999485382      0.370486439      
136.36           0.999484028      0.363646735      0.0063661287     -85.169301       0.0063661287     -85.169301       0.999484028      0.363646735      
136.83           0.999482641      0.356834949      0.00624778072    -85.0716838      0.00624778072    -85.0716838      0.999482641      0.356834949      
137.3            0.999481221      0.350050798      0.00612993616    -84.9702291      0.00612993616    -84.9702291      0.999481221      0.350050798      
137.77           0.999479769      0.343293998      0.00601259126    -84.8647366      0.00601259126    -84.8647366      0.999479769      0.343293998      
138.24           0.999478285      0.336564272      0.00589574238    -84.7549921      0.00589574238    -84.7549921      0.999478285      0.336564272      
138.71           0.999476769      0.329861346      0.00577938606    -84.6407657      0.00577938606    -84.6407657      0.999476769      0.329861346      
139.18           0.999475222      0.323184951      0.005663519      -84.5218105      0.005663519      -84.5218105      0.999475222      0.323184951      
139.65           0.999473643      0.316534819      0.00554813806    -84.3978611      0.00554813806    -84.3978611      0.999473643      0.316534819      
140.12           0.999472033      0.309910688      0.00543324029    -84.2686319      0.00543324029    -84.2686319      0.999472033      0.309910688      
140.59           0.999470392      0.303312297      0.00531882292    -84.133815       0.00531882292    -84.133815       0.999470392      0.303312297      
141.06           0.99946872       0.296739392      0.00520488339    -83.9930779      0.00520488339    -83.9930779      0.99946872       0.296739392      
141.53           0.999467019      0.290191718      0.00509141933    -83.8460615      0.00509141933    -83.8460615      0.999467019      0.290191718      
142              0.999465287      0.283669028      0.00497842864    -83.6923769      0.00497842864    -83.6923769      0.999465287      0.283669028      
142.47           0.999463525      0.277171074      0.00486590943    -83.5316023      0.00486590943    -83.5316023      0.999463525      0.277171074      
142.94           0.999461733      0.270697615      0.0047538601     -83.3632799      0.0047538601     -83.3632799      0.999461733      0.270697615      
143.41           0.999459912      0.26424841       0.00464227932    -83.1869116      0.00464227932    -83.1869116      0.999459912      0.26424841       
143.88           0.999458062      0.257823223      0.00453116609    -83.0019546      0.00453116609    -83.0019546      0.999458062      0.257823223      
144.35           0.999456183      0.251421821      0.00442051974    -82.8078164      0.00442051974    -82.8078164      0.999456183      0.251421821      
144.82           0.999454275      0.245043973      0.00431033997    -82.6038491      0.00431033997    -82.6038491      0.999454275      0.245043973      
145.29           0.999452338      0.238689452      0.00420062692    -82.3893427      0.00420062692    -82.3893427      0.999452338      0.238689452      
145.76           0.999450374      0.232358034      0.00409138115    -82.1635174      0.00409138115    -82.1635174      0.999450374      0.232358034      
146.23           0.999448381      0.226049496      0.00398260376    -81.9255154      0.00398260376    -81.9255154      0.999448381      0.226049496      
146.7            0.99944636       0.219763621      0.00387429638    -81.6743905      0.00387429638    -81.6743905      0.99944636       0.219763621      
147.17           0.999444311      0.213500192      0.00376646132    -81.4090968      0.00376646132    -81.4090968      0.999444311      0.213500192      
147.64           0.999442235      0.207258997      0.00365910155    -81.1284755      0.00365910155    -81.1284755      0.999442235      0.207258997      
148.11           0.999440131      0.201039824      0.00355222088    -80.8312391      0.00355222088    -80.8312391      0.999440131      0.201039824      
148.58           0.999438         0.194842466      0.00344582401    -80.5159539      0.00344582401    -80.5159539      0.999438         0.194842466      
149.05           0.999435843      0.188666717      0.00333991669    -80.1810181      0.00333991669    -80.1810181      0.999435843      0.188666717      
149.52           0.999433658      0.182512376      0.00323450584    -79.8246379      0.00323450584    -79.8246379      0.999433658      0.182512376      
149.99           0.999431447      0.176379242      0.00312959977    -79.4447973      0.00312959977    -79.4447973      0.999431447      0.176379242      
150.46           0.999429209      0.170267117      0.00302520832    -79.0392243      0.00302520832    -79.0392243      0.999429209      0.170267117      
150.93           0.999426945      0.164175807      0.00292134321    -78.6053489      0.00292134321    -78.6053489      0.999426945      0.164175807      
151.4            0.999424655      0.158105118      0.00281801824    -78.1402545      0.00281801824    -78.1402545      0.999424655      0.158105118      
151.87           0.99942234       0.152054861      0.00271524974    -77.6406185      0.00271524974    -77.6406185      0.99942234       0.152054861      
152.34           0.999419998      0.146024848      0.00261305698    -77.1026409      0.00261305698    -77.1026409      0.999419998      0.146024848      
152.81           0.999417631      0.140014892      0.00251146269    -76.5219586      0.00251146269    -76.5219586      0.999417631      0.140014892      
153.28           0.999415238      0.134024811      0.00241049378    -75.8935399      0.00241049378    -75.8935399      0.999415238      0.134024811      
153.75           0.99941282       0.128054423      0.00231018215    -75.2115564      0.00231018215    -75.2115564      0.99941282       0.128054423      
154.22           0.999410377      0.12210355       0.00221056569    -74.4692255      0.00221056569    -74.4692255      0.999410377      0.12210355       
154.69           0.99940791       0.116172015      0.00211168962    -73.6586154      0.00211168962    -73.6586154      0.99940791       0.116172015      
155.16           0.999405417      0.110259642      0.00201360808    -72.7704038      0.00201360808    -72.7704038      0.999405417      0.110259642      
155.63           0.9994029        0.104366261      0.00191638622    -71.7935773      0.00191638622    -71.7935773      0.9994029        0.104366261      
156.1            0.999400358      0.0984917002     0.00182010285    -70.7150556      0.00182010285    -70.7150556      0.999400358      0.0984917002     
156.57           0.999397792      0.0926357913     0.00172485387    -69.5192214      0.00172485387    -69.5192214      0.999397792      0.0926357913     
157.04           0.999395201      0.0867983681     0.00163075668    -68.1873302      0.00163075668    -68.1873302      0.999395201      0.0867983681     
157.51           0.999392587      0.0809792663     0.001537956      -66.6967736      0.001537956      -66.6967736      0.999392587      0.0809792663     
157.98           0.999389949      0.0751783235     0.00144663149    -65.0201619      0.00144663149    -65.0201619      0.999389949      0.0751783235     
158.45           0.999387287      0.0693953792     0.00135700784    -63.1242003      0.00135700784    -63.1242003      0.999387287      0.0693953792     
158.92           0.999384601      0.063630275      0.00126936807    -60.9683433      0.00126936807    -60.9683433      0.999384601      0.063630275      
159.39           0.999381892      0.0578828541     0.00118407109    -58.5032598      0.00118407109    -58.5032598      0.999381892      0.0578828541     
159.86           0.999379159      0.0521529616     0.00110157479    -55.66924        0.00110157479    -55.66924        0.999379159      0.0521529616     
160.33           0.999376404      0.0464404446     0.00102246541    -52.394891       0.00102246541    -52.394891       0.999376404      0.0464404446     
160.8            0.999373625      0.0407451518     0.000947494017   -48.5968732      0.000947494017   -48.5968732      0.999373625      0.0407451518     
161.27           0.999370823      0.0350669338     0.000877617729   -44.1821433      0.000877617729   -44.1821433      0.999370823      0.0350669338     
161.74           0.999367998      0.0294056428     0.000814039157   -39.0552193      0.000814039157   -39.0552193      0.999367998      0.0294056428     
162.21           0.999365151      0.0237611328     0.000758227175   -33.1340463      0.000758227175   -33.1340463      0.999365151      0.0237611328     
162.68           0.999362281      0.0181332595     0.000711887943   -26.3777923      0.000711887943   -26.3777923      0.999362281      0.0181332595     
163.15           0.999359389      0.0125218803     0.000676842447   -18.8254811      0.000676842447   -18.8254811      0.999359389      0.0125218803     
163.62           0.999356474      0.00692685401    0.000654776785   -10.6330771      0.000654776785   -10.6330771      0.999356474      0.00692685401    
164.09           0.999353537      0.00134804138    0.000646891108   -2.08298847      0.000646891108   -2.08298847      0.999353537      0.00134804138    
164.56           0.999350577      -0.00421469545   0.000653572732   6.45818007       0.000653572732   6.45818007       0.999350577      -0.00421469545   
165.03           0.999347596      -0.00976149271   0.000674268356   14.62605         0.000674268356   14.62605         0.999347596      -0.00976149271   
165.5            0.999344593      -0.0152924851    0.000707636523   22.1436356       0.000707636523   22.1436356       0.999344593      -0.0152924851    
165.97           0.999341568      -0.0208078057    0.000751887168   28.8609923       0.000751887168   28.8609923       0.999341568      -0.0208078057    
166.44           0.999338522      -0.0263075863    0.000805131496   34.7437571       0.000805131496   34.7437571       0.999338522      -0.0263075863    
166.91           0.999335453      -0.031791957     0.000865623001   39.8354939       0.000865623001   39.8354939       0.999335453      -0.031791957     
167.38           0.999332364      -0.0372610465    0.000931870331   44.2194064       0.000931870331   44.2194064       0.999332364      -0.0372610465    
167.85           0.999329253      -0.0427149821    0.0010026589     47.9911346       0.0010026589     47.9911346       0.999329253      -0.0427149821    
168.32           0.99932612       -0.0481538896    0.00107702538    51.243378        0.00107702538    51.243378        0.99932612       -0.0481538896    
168.79           0.999322967      -0.0535778934    0.00115421557    54.0589396       0.00115421557    54.0589396       0.999322967      -0.0535778934    
169.26           0.999319792      -0.0589871167    0.00123364153    56.5086473       0.00123364153    56.5086473       0.999319792      -0.0589871167    
169.73           0.999316597      -0.064381681     0.0013148445     58.6516913       0.0013148445     58.6516913       0.999316597      -0.064381681     
170.2            0.999313381      -0.0697617068    0.00139746494    60.5369556       0.00139746494    60.5369556       0.999313381      -0.0697617068    
170.67           0.999310144      -0.0751273129    0.00148121931    62.2046131       0.00148121931    62.2046131       0.999310144      -0.0751273129    
171.14           0.999306886      -0.0804786173    0.00156588244    63.6876537       0.00156588244    63.6876537       0.999306886      -0.0804786173    
171.61           0.999303608      -0.0858157362    0.0016512741     65.0132199       0.0016512741     65.0132199       0.999303608      -0.0858157362    
172.08           0.999300309      -0.0911387848    0.00173724893    66.2037205       0.00173724893    66.2037205       0.999300309      -0.0911387848    
172.55           0.99929699       -0.096447877     0.00182368881    67.2777382       0.00182368881    67.2777382       0.99929699       -0.096447877     
173.02           0.99929365       -0.101743125     0.00191049705    68.2507595       0.00191049705    68.2507595       0.99929365       -0.101743125     
173.49           0.99929029       -0.107024641     0.00199759396    69.1357583       0.00199759396    69.1357583       0.99929029       -0.107024641     
173.96           0.999286911      -0.112292535     0.00208491343    69.9436612       0.00208491343    69.9436612       0.999286911      -0.112292535     
174.43           0.999283511      -0.117546916     0.00217240028    70.6837191       0.00217240028    70.6837191       0.999283511      -0.117546916     
174.9            0.999280091      -0.122787892     0.00226000817    71.3638053       0.00226000817    71.3638053       0.999280091      -0.122787892     
175.37           0.999276651      -0.128015569     0.00234769803    71.9906537       0.00234769803    71.9906537       0.999276651      -0.128015569     
175.84           0.999273192      -0.133230053     0.00243543671    72.5700522       0.00243543671    72.5700522       0.999273192      -0.133230053     
176.31           0.999269713      -0.138431448     0.00252319599    73.1069985       0.00252319599    73.1069985       0.999269713      -0.138431448     
176.78           0.999266214      -0.143619858     0.00261095172    73.6058275       0.00261095172    73.6058275       0.999266214      -0.143619858     
177.25           0.999262696      -0.148795385     0.0026986832     74.0703149       0.0026986832     74.0703149       0.999262696      -0.148795385     
177.72           0.999259158      -0.153958131     0.00278637257    74.503763        0.00278637257    74.503763        0.999259158      -0.153958131     
178.19           0.999255601      -0.159108194     0.00287400443    74.9090711       0.00287400443    74.9090711       0.999255601      -0.159108194     
178.66           0.999252025      -0.164245674     0.00296156544    75.2887942       0.00296156544    75.2887942       0.999252025      -0.164245674     
179.13           0.999248429      -0.16937067      0.00304904401    75.6451917       0.00304904401    75.6451917       0.999248429      -0.16937067      
179.6            0.999244814      -0.174483277     0.00313643007    75.9802684       0.00313643007    75.9802684       0.999244814      -0.174483277     
180.07           0.999241181      -0.179583593     0.00322371485    76.2958088       0.00322371485    76.2958088       0.999241181      -0.179583593     
180.54           0.999237528      -0.184671711     0.00331089069    76.5934063       0.00331089069    76.5934063       0.999237528      -0.184671711     
181.01           0.999233856      -0.189747727     0.00339795092    76.8744875       0.00339795092    76.8744875       0.999233856      -0.189747727     
181.48           0.999230165      -0.194811732     0.00348488969    77.1403335       0.00348488969    77.1403335       0.999230165      -0.194811732     
181.95           0.999226456      -0.199863819     0.00357170192    77.3920978       0.00357170192    77.3920978       0.999226456      -0.199863819     
182.42           0.999222728      -0.204904078     0.00365838315    77.6308215       0.00365838315    77.6308215       0.999222728      -0.204904078     
182.89           0.999218981      -0.209932601     0.00374492948    77.8574463       0.00374492948    77.8574463       0.999218981      -0.209932601     
183.36           0.999215216      -0.214949476     0.00383133755    78.0728265       0.00383133755    78.0728265       0.999215216      -0.214949476     
183.83           0.999211432      -0.219954791     0.00391760439    78.2777385       0.00391760439    78.2777385       0.999211432      -0.219954791     
184.3            0.99920763       -0.224948634     0.00400372745    78.4728894       0.00400372745    78.4728894       0.99920763       -0.224948634     
184.77           0.999203809      -0.229931091     0.00408970452    78.6589247       0.00408970452    78.6589247       0.999203809      -0.229931091     
185.24           0.99919997       -0.234902248     0.00417553368    78.8364344       0.00417553368    78.8364344       0.99919997       -0.234902248     
185.71           0.999196113      -0.23986219      0.00426121331    79.0059593       0.00426121331    79.0059593       0.999196113      -0.23986219      
186.18           0.999192238      -0.244811        0.00434674201    79.1679957       0.00434674201    79.1679957       0.999192238      -0.244811        
186.65           0.999188344      -0.249748761     0.00443211861    79.3229999       0.00443211861    79.3229999       0.999188344      -0.249748761     
187.12           0.999184433      -0.254675557     0.00451734213    79.4713921       0.00451734213    79.4713921       0.999184433      -0.254675557     
187.59           0.999180503      -0.259591467     0.00460241176    79.61356         0.00460241176    79.61356         0.999180503      -0.259591467     
188.06           0.999176556      -0.264496573     0.00468732686    79.7498617       0.00468732686    79.7498617       0.999176556      -0.264496573     
188.53           0.99917259       -0.269390954     0.00477208691    79.8806286       0.00477208691    79.8806286       0.99917259       -0.269390954     
189              0.999168607      -0.274274689     0.00485669155    80.0061676       0.00485669155    80.0061676       0.999168607      -0.274274689     
189.47           0.999164606      -0.279147857     0.00494114049    80.1267636       0.00494114049    80.1267636       0.999164606      -0.279147857     
189.94           0.999160588      -0.284010535     0.00502543358    80.2426814       0.00502543358    80.2426814       0.999160588      -0.284010535     
190              0.999160074      -0.284630551     0.00503618318    80.2571555       0.00503618318    80.2571555       0.999160074      -0.284630551     
