! Coilcraft 1812CS-103 Chip Inductor				
! 31 July 2002			
# MHZ S MA R 50
!Freq             MagS11           AngS11           MagS21           AngS21           MagS12           AngS12           MagS22           AngS22
1                0.496861996      49.4442178       0.775089911      -29.1464424      0.775089911      -29.1464424      0.496861996      49.4442178       
1.32             0.597991561      44.628715        0.711648611      -36.1791741      0.711648611      -36.1791741      0.597991561      44.628715        
1.64             0.676609087      40.1242022       0.650432621      -42.0965735      0.650432621      -42.0965735      0.676609087      40.1242022       
1.96             0.737121257      36.1562556       0.594161705      -47.0497039      0.594161705      -47.0497039      0.737121257      36.1562556       
2.28             0.783736202      32.7345026       0.543790108      -51.2011262      0.543790108      -51.2011262      0.783736202      32.7345026       
2.6              0.819895689      29.8015664       0.499296416      -54.6983487      0.499296416      -54.6983487      0.819895689      29.8015664       
2.92             0.848229446      27.2854308       0.460209501      -57.6652669      0.460209501      -57.6652669      0.848229446      27.2854308       
3.24             0.870687023      25.1178677       0.425901779      -60.2021513      0.425901779      -60.2021513      0.870687023      25.1178677       
3.56             0.888698117      23.2399723       0.395734175      -62.3888045      0.395734175      -62.3888045      0.888698117      23.2399723       
3.88             0.903310759      21.602823        0.369119075      -64.2883815      0.369119075      -64.2883815      0.903310759      21.602823        
4.2              0.915297278      20.1664536       0.345541736      -65.9508919      0.345541736      -65.9508919      0.915297278      20.1664536       
4.52             0.925231612      18.8983996       0.324562215      -67.4160982      0.324562215      -67.4160982      0.925231612      18.8983996       
4.84             0.933544512      17.7722918       0.305809101      -68.7158065      0.305809101      -68.7158065      0.933544512      17.7722918       
5.16             0.940562684      16.7666466       0.288970535      -69.8756377      0.288970535      -69.8756377      0.940562684      16.7666466       
5.48             0.946536576      15.863878        0.273785014      -70.9163842      0.273785014      -70.9163842      0.946536576      15.863878        
5.8              0.951660194      15.0495105       0.260033021      -71.8550475      0.260033021      -71.8550475      0.951660194      15.0495105       
6.12             0.956085344      14.3115564       0.247529811      -72.7056331      0.247529811      -72.7056331      0.956085344      14.3115564       
6.44             0.959931965      13.6400279       0.236119358      -73.4797613      0.236119358      -73.4797613      0.959931965      13.6400279       
6.76             0.963295683      13.0265524       0.22566937       -74.1871406      0.22566937       -74.1871406      0.963295683      13.0265524       
7.08             0.966253405      12.4640696       0.216067194      -74.8359352      0.216067194      -74.8359352      0.966253405      12.4640696       
7.4              0.968867485      11.9465917       0.207216486      -75.4330541      0.207216486      -75.4330541      0.968867485      11.9465917       
7.72             0.97118887       11.4690121       0.199034486      -75.9843784      0.199034486      -75.9843784      0.97118887       11.4690121       
8.04             0.973259484      11.0269532       0.191449795      -76.4949421      0.191449795      -76.4949421      0.973259484      11.0269532       
8.36             0.975114063      10.6166436       0.184400552      -76.9690772      0.184400552      -76.9690772      0.975114063      10.6166436       
8.68             0.976781571      10.2348182       0.177832947      -77.4105299      0.177832947      -77.4105299      0.976781571      10.2348182       
9                0.978286304      9.87863788       0.17169998       -77.8225552      0.17169998       -77.8225552      0.978286304      9.87863788       
9.32             0.979648758      9.54562321       0.165960447      -78.2079938      0.165960447      -78.2079938      0.979648758      9.54562321       
9.64             0.980886315      9.23360006       0.160578092      -78.5693352      0.160578092      -78.5693352      0.980886315      9.23360006       
9.96             0.982013793      8.94065471       0.155520902      -78.9087698      0.155520902      -78.9087698      0.982013793      8.94065471       
10.28            0.983043882      8.66509642       0.150760515      -79.2282323      0.150760515      -79.2282323      0.983043882      8.66509642       
10.6             0.9839875        8.40542632       0.146271722      -79.5294372      0.146271722      -79.5294372      0.9839875        8.40542632       
10.92            0.98485408       8.1603112        0.142032048      -79.8139094      0.142032048      -79.8139094      0.98485408       8.1603112        
11.24            0.985651804      7.92856151       0.138021399      -80.0830093      0.138021399      -80.0830093      0.985651804      7.92856151       
11.56            0.986387799      7.70911266       0.134221757      -80.337954       0.134221757      -80.337954       0.986387799      7.70911266       
11.88            0.987068293      7.50100926       0.130616923      -80.5798363      0.130616923      -80.5798363      0.987068293      7.50100926       
12.2             0.987698748      7.30339149       0.127192294      -80.8096391      0.127192294      -80.8096391      0.987698748      7.30339149       
12.52            0.988283971      7.11548363       0.123934677      -81.0282497      0.123934677      -81.0282497      0.988283971      7.11548363       
12.84            0.988828205      6.93658404       0.120832123      -81.2364704      0.120832123      -81.2364704      0.988828205      6.93658404       
13.16            0.989335206      6.76605662       0.117873785      -81.4350287      0.117873785      -81.4350287      0.989335206      6.76605662       
13.48            0.98980831       6.60332338       0.115049793      -81.6245859      0.115049793      -81.6245859      0.98980831       6.60332338       
13.8             0.990250487      6.44785799       0.112351153      -81.805744       0.112351153      -81.805744       0.990250487      6.44785799       
14.12            0.990664388      6.29918018       0.109769648      -81.9790526      0.109769648      -81.9790526      0.990664388      6.29918018       
14.44            0.991052385      6.15685082       0.107297757      -82.1450142      0.107297757      -82.1450142      0.991052385      6.15685082       
14.76            0.991416607      6.02046767       0.104928587      -82.3040892      0.104928587      -82.3040892      0.991416607      6.02046767       
15.08            0.991758967      5.88966156       0.102655803      -82.4567002      0.102655803      -82.4567002      0.991758967      5.88966156       
15.4             0.992081189      5.76409313       0.100473582      -82.6032359      0.100473582      -82.6032359      0.992081189      5.76409313       
15.72            0.992384831      5.64344984       0.098376552      -82.7440541      0.098376552      -82.7440541      0.992384831      5.64344984       
16.04            0.992671302      5.52744343       0.0963597591     -82.8794851      0.0963597591     -82.8794851      0.992671302      5.52744343       
16.36            0.992941879      5.4158076        0.0944186219     -83.0098339      0.0944186219     -83.0098339      0.992941879      5.4158076        
16.68            0.993197723      5.30829596       0.0925488996     -83.1353828      0.0925488996     -83.1353828      0.993197723      5.30829596       
17               0.993439891      5.20468024       0.0907466607     -83.2563936      0.0907466607     -83.2563936      0.993439891      5.20468024       
17.32            0.993669344      5.10474862       0.0890082554     -83.373109       0.0890082554     -83.373109       0.993669344      5.10474862       
17.64            0.993886963      5.0083043        0.0873302912     -83.4857547      0.0873302912     -83.4857547      0.993886963      5.0083043        
17.96            0.994093551      4.91516423       0.0857096103     -83.5945405      0.0857096103     -83.5945405      0.994093551      4.91516423       
18.28            0.994289845      4.82515786       0.0841432704     -83.6996621      0.0841432704     -83.6996621      0.994289845      4.82515786       
18.6             0.994476521      4.73812618       0.0826285261     -83.8013019      0.0826285261     -83.8013019      0.994476521      4.73812618       
18.92            0.994654201      4.65392068       0.0811628129     -83.8996303      0.0811628129     -83.8996303      0.994654201      4.65392068       
19.24            0.994823455      4.57240258       0.0797437331     -83.9948066      0.0797437331     -83.9948066      0.994823455      4.57240258       
19.56            0.99498481       4.49344198       0.0783690418     -84.0869798      0.0783690418     -84.0869798      0.99498481       4.49344198       
19.88            0.995138753      4.41691721       0.0770366354     -84.1762895      0.0770366354     -84.1762895      0.995138753      4.41691721       
20.2             0.995285731      4.34271417       0.0757445409     -84.2628668      0.0757445409     -84.2628668      0.995285731      4.34271417       
20.52            0.995426161      4.27072575       0.0744909052     -84.3468346      0.0744909052     -84.3468346      0.995426161      4.27072575       
20.84            0.995560426      4.20085132       0.073273987      -84.4283084      0.073273987      -84.4283084      0.995560426      4.20085132       
21.16            0.995688884      4.13299624       0.072092148      -84.5073969      0.072092148      -84.5073969      0.995688884      4.13299624       
21.48            0.995811865      4.06707141       0.0709438457     -84.5842025      0.0709438457     -84.5842025      0.995811865      4.06707141       
21.8             0.995929677      4.00299288       0.0698276263     -84.6588214      0.0698276263     -84.6588214      0.995929677      4.00299288       
22.12            0.996042606      3.9406815        0.0687421186     -84.7313447      0.0687421186     -84.7313447      0.996042606      3.9406815        
22.44            0.996150918      3.88006257       0.0676860283     -84.801858       0.0676860283     -84.801858       0.996150918      3.88006257       
22.76            0.996254862      3.82106552       0.0666581323     -84.8704424      0.0666581323     -84.8704424      0.996254862      3.82106552       
23.08            0.99635467       3.76362364       0.0656572745     -84.9371745      0.0656572745     -84.9371745      0.99635467       3.76362364       
23.4             0.996450557      3.70767383       0.0646823607     -85.0021267      0.0646823607     -85.0021267      0.996450557      3.70767383       
23.72            0.996542727      3.65315635       0.0637323549     -85.0653676      0.0637323549     -85.0653676      0.996542727      3.65315635       
24.04            0.996631369      3.60001459       0.0628062754     -85.1269621      0.0628062754     -85.1269621      0.996631369      3.60001459       
24.36            0.996716661      3.54819488       0.0619031913     -85.1869719      0.0619031913     -85.1869719      0.996716661      3.54819488       
24.68            0.996798767      3.49764633       0.0610222191     -85.2454553      0.0610222191     -85.2454553      0.996798767      3.49764633       
25               0.996877846      3.44832057       0.06016252       -85.3024678      0.06016252       -85.3024678      0.996877846      3.44832057       
25.32            0.996954042      3.4001717        0.0593232969     -85.358062       0.0593232969     -85.358062       0.996954042      3.4001717        
25.64            0.997027495      3.35315604       0.0585037921     -85.412288       0.0585037921     -85.412288       0.997027495      3.35315604       
25.96            0.997098332      3.30723209       0.0577032844     -85.4651934      0.0577032844     -85.4651934      0.997098332      3.30723209       
26.28            0.997166676      3.2623603        0.0569210877     -85.5168234      0.0569210877     -85.5168234      0.997166676      3.2623603        
26.6             0.997232642      3.21850303       0.0561565481     -85.5672211      0.0561565481     -85.5672211      0.997232642      3.21850303       
26.92            0.997296338      3.17562441       0.0554090427     -85.6164277      0.0554090427     -85.6164277      0.997296338      3.17562441       
27.24            0.997357866      3.13369024       0.0546779771     -85.6644821      0.0546779771     -85.6644821      0.997357866      3.13369024       
27.56            0.997417322      3.09266788       0.0539627846     -85.7114217      0.0539627846     -85.7114217      0.997417322      3.09266788       
27.88            0.997474797      3.05252619       0.053262924      -85.757282       0.053262924      -85.757282       0.997474797      3.05252619       
28.2             0.997530377      3.01323542       0.0525778783     -85.8020971      0.0525778783     -85.8020971      0.997530377      3.01323542       
28.52            0.997584144      2.97476714       0.0519071536     -85.8458993      0.0519071536     -85.8458993      0.997584144      2.97476714       
28.84            0.997636174      2.93709418       0.0512502776     -85.8887196      0.0512502776     -85.8887196      0.997636174      2.93709418       
29.16            0.997686539      2.90019055       0.0506067984     -85.9305877      0.0506067984     -85.9305877      0.997686539      2.90019055       
29.48            0.99773531       2.86403138       0.0499762838     -85.9715317      0.0499762838     -85.9715317      0.99773531       2.86403138       
29.8             0.997782551      2.82859284       0.0493583196     -86.0115787      0.0493583196     -86.0115787      0.997782551      2.82859284       
30.12            0.997828325      2.79385214       0.0487525093     -86.0507547      0.0487525093     -86.0507547      0.997828325      2.79385214       
30.44            0.99787269       2.75978741       0.0481584728     -86.0890844      0.0481584728     -86.0890844      0.99787269       2.75978741       
30.76            0.997915703      2.72637769       0.0475758456     -86.1265916      0.0475758456     -86.1265916      0.997915703      2.72637769       
31.08            0.997957416      2.6936029        0.0470042782     -86.1632989      0.0470042782     -86.1632989      0.997957416      2.6936029        
31.4             0.99799788       2.66144372       0.0464434351     -86.1992282      0.0464434351     -86.1992282      0.99799788       2.66144372       
31.72            0.998037143      2.62988167       0.0458929942     -86.2344002      0.0458929942     -86.2344002      0.998037143      2.62988167       
32.04            0.998075251      2.59889894       0.0453526463     -86.2688351      0.0453526463     -86.2688351      0.998075251      2.59889894       
32.36            0.998112247      2.56847847       0.0448220941     -86.3025521      0.0448220941     -86.3025521      0.998112247      2.56847847       
32.68            0.998148173      2.53860383       0.044301052      -86.3355694      0.044301052      -86.3355694      0.998148173      2.53860383       
33               0.998183069      2.50925923       0.0437892454     -86.3679049      0.0437892454     -86.3679049      0.998183069      2.50925923       
33.32            0.998216971      2.4804295        0.0432864101     -86.3995754      0.0432864101     -86.3995754      0.998216971      2.4804295        
33.64            0.998249916      2.45210002       0.0427922918     -86.4305972      0.0427922918     -86.4305972      0.998249916      2.45210002       
33.96            0.998281938      2.42425674       0.0423066457     -86.460986       0.0423066457     -86.460986       0.998281938      2.42425674       
34.28            0.99831307       2.3968861        0.0418292363     -86.4907568      0.0418292363     -86.4907568      0.99831307       2.3968861        
34.6             0.998343344      2.36997507       0.0413598365     -86.519924       0.0413598365     -86.519924       0.998343344      2.36997507       
34.92            0.998372789      2.34351108       0.0408982276     -86.5485014      0.0408982276     -86.5485014      0.998372789      2.34351108       
35.24            0.998401433      2.31748201       0.0404441986     -86.5765024      0.0404441986     -86.5765024      0.998401433      2.31748201       
35.56            0.998429304      2.29187619       0.0399975463     -86.6039398      0.0399975463     -86.6039398      0.998429304      2.29187619       
35.88            0.998456429      2.26668234       0.0395580745     -86.6308258      0.0395580745     -86.6308258      0.998456429      2.26668234       
36.2             0.998482832      2.2418896        0.0391255939     -86.6571724      0.0391255939     -86.6571724      0.998482832      2.2418896        
36.52            0.998508537      2.21748747       0.0386999219     -86.6829909      0.0386999219     -86.6829909      0.998508537      2.21748747       
36.84            0.998533567      2.19346582       0.0382808821     -86.7082922      0.0382808821     -86.7082922      0.998533567      2.19346582       
37.16            0.998557944      2.16981487       0.0378683042     -86.7330868      0.0378683042     -86.7330868      0.998557944      2.16981487       
37.48            0.99858169       2.14652518       0.0374620235     -86.7573849      0.0374620235     -86.7573849      0.99858169       2.14652518       
37.8             0.998604824      2.1235876        0.0370618812     -86.7811962      0.0370618812     -86.7811962      0.998604824      2.1235876        
38.12            0.998627366      2.10099332       0.0366677234     -86.8045301      0.0366677234     -86.8045301      0.998627366      2.10099332       
38.44            0.998649334      2.07873379       0.0362794016     -86.8273956      0.0362794016     -86.8273956      0.998649334      2.07873379       
38.76            0.998670747      2.05680076       0.0358967719     -86.8498012      0.0358967719     -86.8498012      0.998670747      2.05680076       
39.08            0.998691622      2.03518625       0.0355196954     -86.8717554      0.0355196954     -86.8717554      0.998691622      2.03518625       
39.4             0.998711974      2.01388253       0.0351480374     -86.8932662      0.0351480374     -86.8932662      0.998711974      2.01388253       
39.72            0.99873182       1.99288212       0.0347816676     -86.9143412      0.0347816676     -86.9143412      0.99873182       1.99288212       
40.04            0.998751175      1.97217778       0.0344204599     -86.9349879      0.0344204599     -86.9349879      0.998751175      1.97217778       
40.36            0.998770054      1.95176249       0.0340642922     -86.9552133      0.0340642922     -86.9552133      0.998770054      1.95176249       
40.68            0.998788471      1.93162947       0.0337130461     -86.9750244      0.0337130461     -86.9750244      0.998788471      1.93162947       
41               0.998806439      1.91177212       0.033366607      -86.9944277      0.033366607      -86.9944277      0.998806439      1.91177212       
41.32            0.998823972      1.89218408       0.0330248637     -87.0134295      0.0330248637     -87.0134295      0.998823972      1.89218408       
41.64            0.998841081      1.87285915       0.0326877084     -87.0320358      0.0326877084     -87.0320358      0.998841081      1.87285915       
41.96            0.99885778       1.85379135       0.0323550368     -87.0502526      0.0323550368     -87.0502526      0.99885778       1.85379135       
42.28            0.998874079      1.83497484       0.0320267475     -87.0680853      0.0320267475     -87.0680853      0.998874079      1.83497484       
42.6             0.99888999       1.816404         0.0317027422     -87.0855394      0.0317027422     -87.0855394      0.99888999       1.816404         
42.92            0.998905524      1.79807335       0.0313829255     -87.10262        0.0313829255     -87.10262        0.998905524      1.79807335       
43.24            0.998920691      1.77997758       0.0310672049     -87.1193321      0.0310672049     -87.1193321      0.998920691      1.77997758       
43.56            0.998935501      1.76211152       0.0307554905     -87.1356803      0.0307554905     -87.1356803      0.998935501      1.76211152       
43.88            0.998949964      1.74447018       0.0304476951     -87.1516692      0.0304476951     -87.1516692      0.998949964      1.74447018       
44.2             0.99896409       1.72704868       0.0301437339     -87.1673031      0.0301437339     -87.1673031      0.99896409       1.72704868       
44.52            0.998977887      1.70984231       0.0298435245     -87.1825862      0.0298435245     -87.1825862      0.998977887      1.70984231       
44.84            0.998991364      1.69284648       0.0295469872     -87.1975224      0.0295469872     -87.1975224      0.998991364      1.69284648       
45.16            0.999004529      1.67605671       0.029254044      -87.2121154      0.029254044      -87.2121154      0.999004529      1.67605671       
45.48            0.999017391      1.65946869       0.0289646195     -87.226369       0.0289646195     -87.226369       0.999017391      1.65946869       
45.8             0.999029958      1.6430782        0.0286786403     -87.2402865      0.0286786403     -87.2402865      0.999029958      1.6430782        
46.12            0.999042236      1.62688114       0.0283960348     -87.2538712      0.0283960348     -87.2538712      0.999042236      1.62688114       
46.44            0.999054235      1.61087352       0.0281167338     -87.2671261      0.0281167338     -87.2671261      0.999054235      1.61087352       
46.76            0.999065959      1.59505146       0.0278406696     -87.2800543      0.0278406696     -87.2800543      0.999065959      1.59505146       
47.08            0.999077417      1.5794112        0.0275677764     -87.2926584      0.0275677764     -87.2926584      0.999077417      1.5794112        
47.4             0.999088615      1.56394907       0.0272979904     -87.3049412      0.0272979904     -87.3049412      0.999088615      1.56394907       
47.72            0.999099559      1.54866149       0.0270312493     -87.3169052      0.0270312493     -87.3169052      0.999099559      1.54866149       
48.04            0.999110256      1.53354499       0.0267674925     -87.3285525      0.0267674925     -87.3285525      0.999110256      1.53354499       
48.36            0.999120712      1.51859619       0.0265066609     -87.3398855      0.0265066609     -87.3398855      0.999120712      1.51859619       
48.68            0.999130933      1.50381177       0.0262486972     -87.3509062      0.0262486972     -87.3509062      0.999130933      1.50381177       
49               0.999140923      1.48918854       0.0259935453     -87.3616165      0.0259935453     -87.3616165      0.999140923      1.48918854       
49.32            0.999150689      1.47472337       0.0257411508     -87.3720182      0.0257411508     -87.3720182      0.999150689      1.47472337       
49.64            0.999160236      1.46041321       0.0254914605     -87.3821129      0.0254914605     -87.3821129      0.999160236      1.46041321       
49.96            0.999169569      1.44625509       0.0252444227     -87.3919021      0.0252444227     -87.3919021      0.999169569      1.44625509       
50.28            0.999178693      1.43224611       0.024999987      -87.4013872      0.024999987      -87.4013872      0.999178693      1.43224611       
50.6             0.999187613      1.41838346       0.0247581041     -87.4105694      0.0247581041     -87.4105694      0.999187613      1.41838346       
50.92            0.999196333      1.40466439       0.0245187261     -87.4194499      0.0245187261     -87.4194499      0.999196333      1.40466439       
51.24            0.999204858      1.3910862        0.0242818063     -87.4280296      0.0242818063     -87.4280296      0.999204858      1.3910862        
51.56            0.999213193      1.3776463        0.024047299      -87.4363095      0.024047299      -87.4363095      0.999213193      1.3776463        
51.88            0.999221342      1.36434211       0.0238151599     -87.4442902      0.0238151599     -87.4442902      0.999221342      1.36434211       
52.2             0.999229308      1.35117117       0.0235853455     -87.4519723      0.0235853455     -87.4519723      0.999229308      1.35117117       
52.52            0.999237096      1.33813104       0.0233578135     -87.4593564      0.0233578135     -87.4593564      0.999237096      1.33813104       
52.84            0.99924471       1.32521934       0.0231325227     -87.4664428      0.0231325227     -87.4664428      0.99924471       1.32521934       
53.16            0.999252153      1.31243377       0.0229094325     -87.4732318      0.0229094325     -87.4732318      0.999252153      1.31243377       
53.48            0.99925943       1.29977207       0.0226885039     -87.4797235      0.0226885039     -87.4797235      0.99925943       1.29977207       
53.8             0.999266543      1.28723203       0.0224696982     -87.485918       0.0224696982     -87.485918       0.999266543      1.28723203       
54.12            0.999273496      1.2748115        0.022252978      -87.491815       0.022252978      -87.491815       0.999273496      1.2748115        
54.44            0.999280293      1.26250839       0.0220383067     -87.4974144      0.0220383067     -87.4974144      0.999280293      1.26250839       
54.76            0.999286937      1.25032063       0.0218256485     -87.5027158      0.0218256485     -87.5027158      0.999286937      1.25032063       
55.08            0.999293431      1.23824623       0.0216149685     -87.5077187      0.0216149685     -87.5077187      0.999293431      1.23824623       
55.4             0.999299778      1.22628322       0.0214062324     -87.5124226      0.0214062324     -87.5124226      0.999299778      1.22628322       
55.72            0.999305981      1.21442969       0.021199407      -87.5168268      0.021199407      -87.5168268      0.999305981      1.21442969       
56.04            0.999312044      1.20268378       0.0209944596     -87.5209303      0.0209944596     -87.5209303      0.999312044      1.20268378       
56.36            0.999317968      1.19104364       0.0207913583     -87.5247322      0.0207913583     -87.5247322      0.999317968      1.19104364       
56.68            0.999323756      1.1795075        0.0205900722     -87.5282315      0.0205900722     -87.5282315      0.999323756      1.1795075        
57               0.999329412      1.16807361       0.0203905706     -87.5314269      0.0203905706     -87.5314269      0.999329412      1.16807361       
57.32            0.999334938      1.15674025       0.0201928238     -87.5343171      0.0201928238     -87.5343171      0.999334938      1.15674025       
57.64            0.999340337      1.14550577       0.0199968027     -87.5369007      0.0199968027     -87.5369007      0.999340337      1.14550577       
57.96            0.99934561       1.13436853       0.0198024789     -87.539176       0.0198024789     -87.539176       0.99934561       1.13436853       
58.28            0.999350761      1.12332693       0.0196098245     -87.5411413      0.0196098245     -87.5411413      0.999350761      1.12332693       
58.6             0.999355791      1.1123794        0.0194188122     -87.5427948      0.0194188122     -87.5427948      0.999355791      1.1123794        
58.92            0.999360704      1.10152442       0.0192294155     -87.5441346      0.0192294155     -87.5441346      0.999360704      1.10152442       
59.24            0.999365501      1.0907605        0.0190416083     -87.5451583      0.0190416083     -87.5451583      0.999365501      1.0907605        
59.56            0.999370184      1.08008616       0.018855365      -87.545864       0.018855365      -87.545864       0.999370184      1.08008616       
59.88            0.999374755      1.06949998       0.0186706607     -87.546249       0.0186706607     -87.546249       0.999374755      1.06949998       
60.2             0.999379218      1.05900056       0.018487471      -87.546311       0.018487471      -87.546311       0.999379218      1.05900056       
60.52            0.999383572      1.04858651       0.018305772      -87.5460472      0.018305772      -87.5460472      0.999383572      1.04858651       
60.84            0.999387821      1.03825651       0.0181255401     -87.5454548      0.0181255401     -87.5454548      0.999387821      1.03825651       
61.16            0.999391967      1.02800923       0.0179467526     -87.5445308      0.0179467526     -87.5445308      0.999391967      1.02800923       
61.48            0.999396011      1.01784338       0.0177693869     -87.5432722      0.0177693869     -87.5432722      0.999396011      1.01784338       
61.8             0.999399955      1.0077577        0.0175934211     -87.5416756      0.0175934211     -87.5416756      0.999399955      1.0077577        
62.12            0.999403801      0.997750963      0.0174188337     -87.5397376      0.0174188337     -87.5397376      0.999403801      0.997750963      
62.44            0.99940755       0.987821951      0.0172456035     -87.5374546      0.0172456035     -87.5374546      0.99940755       0.987821951      
62.76            0.999411205      0.977969479      0.01707371       -87.5348228      0.01707371       -87.5348228      0.999411205      0.977969479      
63.08            0.999414766      0.968192386      0.0169031328     -87.5318383      0.0169031328     -87.5318383      0.999414766      0.968192386      
63.4             0.999418236      0.958489533      0.0167338521     -87.5284971      0.0167338521     -87.5284971      0.999418236      0.958489533      
63.72            0.999421616      0.948859805      0.0165658486     -87.5247948      0.0165658486     -87.5247948      0.999421616      0.948859805      
64.04            0.999424908      0.939302109      0.0163991032     -87.5207269      0.0163991032     -87.5207269      0.999424908      0.939302109      
64.36            0.999428113      0.929815372      0.0162335971     -87.5162889      0.0162335971     -87.5162889      0.999428113      0.929815372      
64.68            0.999431232      0.920398545      0.0160693122     -87.5114758      0.0160693122     -87.5114758      0.999431232      0.920398545      
65               0.999434267      0.911050598      0.0159062305     -87.5062826      0.0159062305     -87.5062826      0.999434267      0.911050598      
65.32            0.999437219      0.90177052       0.0157443344     -87.5007041      0.0157443344     -87.5007041      0.999437219      0.90177052       
65.64            0.99944009       0.892557323      0.0155836067     -87.4947348      0.0155836067     -87.4947348      0.99944009       0.892557323      
65.96            0.99944288       0.883410034      0.0154240304     -87.4883691      0.0154240304     -87.4883691      0.99944288       0.883410034      
66.28            0.999445592      0.874327703      0.0152655891     -87.481601       0.0152655891     -87.481601       0.999445592      0.874327703      
66.6             0.999448227      0.865309395      0.0151082664     -87.4744245      0.0151082664     -87.4744245      0.999448227      0.865309395      
66.92            0.999450785      0.856354194      0.0149520465     -87.4668332      0.0149520465     -87.4668332      0.999450785      0.856354194      
67.24            0.999453268      0.847461202      0.0147969136     -87.4588204      0.0147969136     -87.4588204      0.999453268      0.847461202      
67.56            0.999455677      0.838629536      0.0146428525     -87.4503794      0.0146428525     -87.4503794      0.999455677      0.838629536      
67.88            0.999458013      0.829858333      0.0144898481     -87.441503       0.0144898481     -87.441503       0.999458013      0.829858333      
68.2             0.999460278      0.821146743      0.0143378856     -87.4321838      0.0143378856     -87.4321838      0.999460278      0.821146743      
68.52            0.999462472      0.812493933      0.0141869506     -87.4224142      0.0141869506     -87.4224142      0.999462472      0.812493933      
68.84            0.999464597      0.803899086      0.0140370288     -87.4121863      0.0140370288     -87.4121863      0.999464597      0.803899086      
69.16            0.999466653      0.795361399      0.0138881063     -87.4014918      0.0138881063     -87.4014918      0.999466653      0.795361399      
69.48            0.999468641      0.786880086      0.0137401693     -87.3903222      0.0137401693     -87.3903222      0.999468641      0.786880086      
69.8             0.999470564      0.778454371      0.0135932046     -87.3786686      0.0135932046     -87.3786686      0.999470564      0.778454371      
70.12            0.99947242       0.770083497      0.0134471988     -87.3665217      0.0134471988     -87.3665217      0.99947242       0.770083497      
70.44            0.999474212      0.761766718      0.0133021391     -87.3538722      0.0133021391     -87.3538722      0.999474212      0.761766718      
70.76            0.999475941      0.753503302      0.0131580127     -87.34071        0.0131580127     -87.34071        0.999475941      0.753503302      
71.08            0.999477607      0.745292531      0.0130148071     -87.3270249      0.0130148071     -87.3270249      0.999477607      0.745292531      
71.4             0.999479211      0.737133698      0.0128725101     -87.3128063      0.0128725101     -87.3128063      0.999479211      0.737133698      
71.72            0.999480754      0.729026111      0.0127311096     -87.2980431      0.0127311096     -87.2980431      0.999480754      0.729026111      
72.04            0.999482237      0.720969088      0.0125905939     -87.2827239      0.0125905939     -87.2827239      0.999482237      0.720969088      
72.36            0.999483661      0.71296196       0.0124509513     -87.2668367      0.0124509513     -87.2668367      0.999483661      0.71296196       
72.68            0.999485027      0.70500407       0.0123121704     -87.2503693      0.0123121704     -87.2503693      0.999485027      0.70500407       
73               0.999486334      0.697094774      0.0121742401     -87.2333088      0.0121742401     -87.2333088      0.999486334      0.697094774      
73.32            0.999487586      0.689233435      0.0120371494     -87.215642       0.0120371494     -87.215642       0.999487586      0.689233435      
73.64            0.999488781      0.681419431      0.0119008874     -87.1973549      0.0119008874     -87.1973549      0.999488781      0.681419431      
73.96            0.99948992       0.673652149      0.0117654435     -87.1784334      0.0117654435     -87.1784334      0.99948992       0.673652149      
74.28            0.999491005      0.665930987      0.0116308074     -87.1588625      0.0116308074     -87.1588625      0.999491005      0.665930987      
74.6             0.999492037      0.658255354      0.0114969688     -87.1386269      0.0114969688     -87.1386269      0.999492037      0.658255354      
74.92            0.999493015      0.650624667      0.0113639176     -87.1177103      0.0113639176     -87.1177103      0.999493015      0.650624667      
75.24            0.999493941      0.643038355      0.0112316439     -87.0960962      0.0112316439     -87.0960962      0.999493941      0.643038355      
75.56            0.999494815      0.635495856      0.0111001381     -87.0737672      0.0111001381     -87.0737672      0.999494815      0.635495856      
75.88            0.999495638      0.627996617      0.0109693906     -87.0507053      0.0109693906     -87.0507053      0.999495638      0.627996617      
76.2             0.99949641       0.620540094      0.010839392      -87.0268917      0.010839392      -87.0268917      0.99949641       0.620540094      
76.52            0.999497133      0.613125754      0.0107101331     -87.002307       0.0107101331     -87.002307       0.999497133      0.613125754      
76.84            0.999497806      0.605753071      0.0105816049     -86.9769309      0.0105816049     -86.9769309      0.999497806      0.605753071      
77.16            0.999498431      0.598421529      0.0104537984     -86.9507423      0.0104537984     -86.9507423      0.999498431      0.598421529      
77.48            0.999499008      0.591130619      0.0103267049     -86.9237193      0.0103267049     -86.9237193      0.999499008      0.591130619      
77.8             0.999499537      0.583879841      0.0102003159     -86.8958389      0.0102003159     -86.8958389      0.999499537      0.583879841      
78.12            0.99950002       0.576668704      0.0100746228     -86.8670774      0.0100746228     -86.8670774      0.99950002       0.576668704      
78.44            0.999500456      0.569496724      0.00994961736    -86.83741        0.00994961736    -86.83741        0.999500456      0.569496724      
78.76            0.999500847      0.562363426      0.00982529145    -86.8068107      0.00982529145    -86.8068107      0.999500847      0.562363426      
79.08            0.999501193      0.555268341      0.00970163704    -86.7752527      0.00970163704    -86.7752527      0.999501193      0.555268341      
79.4             0.999501494      0.548211009      0.00957864624    -86.7427079      0.00957864624    -86.7427079      0.999501494      0.548211009      
79.72            0.999501751      0.541190977      0.00945631131    -86.7091468      0.00945631131    -86.7091468      0.999501751      0.541190977      
80.04            0.999501964      0.534207798      0.00933462464    -86.674539       0.00933462464    -86.674539       0.999501964      0.534207798      
80.36            0.999502134      0.527261034      0.00921357873    -86.6388525      0.00921357873    -86.6388525      0.999502134      0.527261034      
80.68            0.999502262      0.520350254      0.00909316625    -86.6020538      0.00909316625    -86.6020538      0.999502262      0.520350254      
81               0.999502347      0.513475032      0.00897337997    -86.5641081      0.00897337997    -86.5641081      0.999502347      0.513475032      
81.32            0.999502391      0.506634949      0.00885421279    -86.5249791      0.00885421279    -86.5249791      0.999502391      0.506634949      
81.64            0.999502394      0.499829595      0.00873565773    -86.4846284      0.00873565773    -86.4846284      0.999502394      0.499829595      
81.96            0.999502356      0.493058563      0.00861770794    -86.4430163      0.00861770794    -86.4430163      0.999502356      0.493058563      
82.28            0.999502277      0.486321455      0.00850035669    -86.400101       0.00850035669    -86.400101       0.999502277      0.486321455      
82.6             0.999502159      0.479617877      0.00838359735    -86.3558388      0.00838359735    -86.3558388      0.999502159      0.479617877      
82.92            0.999502002      0.472947444      0.00826742343    -86.310184       0.00826742343    -86.310184       0.999502002      0.472947444      
83.24            0.999501805      0.466309773      0.00815182855    -86.2630884      0.00815182855    -86.2630884      0.999501805      0.466309773      
83.56            0.99950157       0.45970449       0.00803680644    -86.2145017      0.00803680644    -86.2145017      0.99950157       0.45970449       
83.88            0.999501297      0.453131226      0.00792235094    -86.1643712      0.00792235094    -86.1643712      0.999501297      0.453131226      
84.2             0.999500986      0.446589617      0.00780845601    -86.1126413      0.00780845601    -86.1126413      0.999500986      0.446589617      
84.52            0.999500638      0.440079304      0.00769511572    -86.0592538      0.00769511572    -86.0592538      0.999500638      0.440079304      
84.84            0.999500252      0.433599935      0.00758232424    -86.0041474      0.00758232424    -86.0041474      0.999500252      0.433599935      
85.16            0.99949983       0.427151163      0.00747007587    -85.9472578      0.00747007587    -85.9472578      0.99949983       0.427151163      
85.48            0.999499372      0.420732645      0.00735836501    -85.8885172      0.00735836501    -85.8885172      0.999499372      0.420732645      
85.8             0.999498878      0.414344043      0.00724718615    -85.8278543      0.00724718615    -85.8278543      0.999498878      0.414344043      
86.12            0.999498349      0.407985026      0.00713653392    -85.7651938      0.00713653392    -85.7651938      0.999498349      0.407985026      
86.44            0.999497784      0.401655267      0.00702640303    -85.7004566      0.00702640303    -85.7004566      0.999497784      0.401655267      
86.76            0.999497185      0.395354442      0.00691678832    -85.6335589      0.00691678832    -85.6335589      0.999497185      0.395354442      
87.08            0.999496551      0.389082235      0.00680768473    -85.5644127      0.00680768473    -85.5644127      0.999496551      0.389082235      
87.4             0.999495883      0.382838332      0.0066990873     -85.4929246      0.0066990873     -85.4929246      0.999495883      0.382838332      
87.72            0.999495181      0.376622424      0.00659099119    -85.418996       0.00659099119    -85.418996       0.999495181      0.376622424      
88.04            0.999494446      0.370434208      0.00648339166    -85.3425226      0.00648339166    -85.3425226      0.999494446      0.370434208      
88.36            0.999493677      0.364273384      0.0063762841     -85.2633941      0.0063762841     -85.2633941      0.999493677      0.364273384      
88.68            0.999492876      0.358139656      0.00626966398    -85.1814934      0.00626966398    -85.1814934      0.999492876      0.358139656      
89               0.999492042      0.352032734      0.00616352692    -85.0966965      0.00616352692    -85.0966965      0.999492042      0.352032734      
89.32            0.999491176      0.345952331      0.00605786862    -85.0088715      0.00605786862    -85.0088715      0.999491176      0.345952331      
89.64            0.999490278      0.339898164      0.00595268492    -84.9178787      0.00595268492    -84.9178787      0.999490278      0.339898164      
89.96            0.999489348      0.333869954      0.00584797176    -84.8235692      0.00584797176    -84.8235692      0.999489348      0.333869954      
90.28            0.999488387      0.327867426      0.00574372522    -84.7257848      0.00574372522    -84.7257848      0.999488387      0.327867426      
90.6             0.999487395      0.32189031       0.0056399415     -84.6243567      0.0056399415     -84.6243567      0.999487395      0.32189031       
90.92            0.999486372      0.315938338      0.00553661692    -84.5191052      0.00553661692    -84.5191052      0.999486372      0.315938338      
91.24            0.999485318      0.310011248      0.00543374794    -84.4098382      0.00543374794    -84.4098382      0.999485318      0.310011248      
91.56            0.999484234      0.304108778      0.00533133115    -84.2963509      0.00533133115    -84.2963509      0.999484234      0.304108778      
91.88            0.99948312       0.298230674      0.00522936329    -84.1784237      0.00522936329    -84.1784237      0.99948312       0.298230674      
92.2             0.999481977      0.292376682      0.00512784124    -84.0558218      0.00512784124    -84.0558218      0.999481977      0.292376682      
92.52            0.999480803      0.286546554      0.00502676204    -83.9282934      0.00502676204    -83.9282934      0.999480803      0.286546554      
92.84            0.999479601      0.280740045      0.00492612289    -83.7955683      0.00492612289    -83.7955683      0.999479601      0.280740045      
93.16            0.99947837       0.274956911      0.00482592115    -83.6573561      0.00482592115    -83.6573561      0.99947837       0.274956911      
93.48            0.999477109      0.269196914      0.00472615439    -83.5133443      0.00472615439    -83.5133443      0.999477109      0.269196914      
93.8             0.999475821      0.263459818      0.00462682033    -83.3631964      0.00462682033    -83.3631964      0.999475821      0.263459818      
94.12            0.999474504      0.257745391      0.00452791694    -83.206549       0.00452791694    -83.206549       0.999474504      0.257745391      
94.44            0.999473158      0.252053404      0.00442944235    -83.04301        0.00442944235    -83.04301        0.999473158      0.252053404      
94.76            0.999471785      0.24638363       0.00433139498    -82.8721548      0.00433139498    -82.8721548      0.999471785      0.24638363       
95.08            0.999470385      0.240735846      0.00423377347    -82.6935235      0.00423377347    -82.6935235      0.999470385      0.240735846      
95.4             0.999468957      0.235109833      0.00413657673    -82.506617       0.00413657673    -82.506617       0.999468957      0.235109833      
95.72            0.999467501      0.229505372      0.00403980398    -82.3108927      0.00403980398    -82.3108927      0.999467501      0.229505372      
96.04            0.999466019      0.22392225       0.00394345474    -82.1057598      0.00394345474    -82.1057598      0.999466019      0.22392225       
96.36            0.99946451       0.218360256      0.00384752889    -81.8905739      0.00384752889    -81.8905739      0.99946451       0.218360256      
96.68            0.999462975      0.212819179      0.0037520267     -81.664631       0.0037520267     -81.664631       0.999462975      0.212819179      
97               0.999461413      0.207298815      0.00365694886    -81.4271601      0.00365694886    -81.4271601      0.999461413      0.207298815      
97.32            0.999459824      0.201798961      0.00356229653    -81.1773155      0.00356229653    -81.1773155      0.999459824      0.201798961      
97.64            0.99945821       0.196319415      0.00346807137    -80.9141676      0.00346807137    -80.9141676      0.99945821       0.196319415      
97.96            0.99945657       0.19085998       0.00337427565    -80.6366924      0.00337427565    -80.6366924      0.99945657       0.19085998       
98.28            0.999454905      0.185420461      0.00328091228    -80.3437594      0.00328091228    -80.3437594      0.999454905      0.185420461      
98.6             0.999453214      0.180000665      0.00318798488    -80.0341172      0.00318798488    -80.0341172      0.999453214      0.180000665      
98.92            0.999451498      0.174600401      0.00309549791    -79.706378       0.00309549791    -79.706378       0.999451498      0.174600401      
99.24            0.999449757      0.169219481      0.00300345677    -79.3589983      0.00300345677    -79.3589983      0.999449757      0.169219481      
99.56            0.99944799       0.163857721      0.00291186791    -78.9902567      0.00291186791    -78.9902567      0.99944799       0.163857721      
99.88            0.9994462        0.158514937      0.00282073898    -78.5982287      0.00282073898    -78.5982287      0.9994462        0.158514937      
100.2            0.999444384      0.153190948      0.00273007906    -78.180756       0.00273007906    -78.180756       0.999444384      0.153190948      
100.52           0.999442545      0.147885576      0.00263989879    -77.7354109      0.00263989879    -77.7354109      0.999442545      0.147885576      
100.84           0.999440681      0.142598645      0.00255021069    -77.2594543      0.00255021069    -77.2594543      0.999440681      0.142598645      
101.16           0.999438793      0.13732998       0.00246102944    -76.7497851      0.00246102944    -76.7497851      0.999438793      0.13732998       
101.48           0.999436881      0.132079411      0.00237237223    -76.2028807      0.00237237223    -76.2028807      0.999436881      0.132079411      
101.8            0.999434946      0.126846768      0.00228425924    -75.6147255      0.00228425924    -75.6147255      0.999434946      0.126846768      
102.12           0.999432987      0.121631882      0.00219671414    -74.9807242      0.00219671414    -74.9807242      0.999432987      0.121631882      
102.44           0.999431004      0.11643459       0.00210976477    -74.2955982      0.00210976477    -74.2955982      0.999431004      0.11643459       
102.76           0.999428999      0.111254727      0.00202344391    -73.5532595      0.00202344391    -73.5532595      0.999428999      0.111254727      
103.08           0.99942697       0.106092132      0.00193779034    -72.7466577      0.00193779034    -72.7466577      0.99942697       0.106092132      
103.4            0.999424918      0.100946646      0.00185285001    -71.8675932      0.00185285001    -71.8675932      0.999424918      0.100946646      
103.72           0.999422844      0.0958181116     0.00176867765    -70.9064883      0.00176867765    -70.9064883      0.999422844      0.0958181116     
104.04           0.999420747      0.0907063737     0.00168533867    -69.8521079      0.00168533867    -69.8521079      0.999420747      0.0907063737     
104.36           0.999418627      0.0856112787     0.00160291166    -68.6912156      0.00160291166    -68.6912156      0.999418627      0.0856112787     
104.68           0.999416485      0.0805326749     0.00152149151    -67.408154       0.00152149151    -67.408154       0.999416485      0.0805326749     
105              0.999414321      0.0754704128     0.00144119342    -65.9843315      0.00144119342    -65.9843315      0.999414321      0.0754704128     
105.32           0.999412134      0.0704243442     0.00136215805    -64.3976026      0.00136215805    -64.3976026      0.999412134      0.0704243442     
105.64           0.999409926      0.0653943233     0.00128455814    -62.6215293      0.00128455814    -62.6215293      0.999409926      0.0653943233     
105.96           0.999407696      0.0603802055     0.00120860703    -60.6245252      0.00120860703    -60.6245252      0.999407696      0.0603802055     
106.28           0.999405444      0.0553818484     0.00113456959    -58.3689103      0.00113456959    -58.3689103      0.999405444      0.0553818484     
106.6            0.999403171      0.0503991109     0.00106277611    -55.8099616      0.00106277611    -55.8099616      0.999403171      0.0503991109     
106.92           0.999400876      0.045431854      0.000993639616   -52.8951535      0.000993639616   -52.8951535      0.999400876      0.045431854      
107.24           0.99939856       0.04047994       0.000927676796   -49.563976       0.000927676796   -49.563976       0.99939856       0.04047994       
107.56           0.999396222      0.035543233      0.000865531655   -45.7490367      0.000865531655   -45.7490367      0.999396222      0.035543233      
107.88           0.999393864      0.0306215988     0.000807999092   -41.3796182      0.000807999092   -41.3796182      0.999393864      0.0306215988     
108.2            0.999391484      0.0257149047     0.000756041779   -36.3893765      0.000756041779   -36.3893765      0.999391484      0.0257149047     
108.52           0.999389084      0.0208230196     0.000710787912   -30.7300492      0.000710787912   -30.7300492      0.999389084      0.0208230196     
108.84           0.999386663      0.0159458138     0.000673490802   -24.3919869      0.000673490802   -24.3919869      0.999386663      0.0159458138     
109.16           0.999384221      0.0110831592     0.000645429163   -17.4287346      0.000645429163   -17.4287346      0.999384221      0.0110831592     
109.48           0.999381759      0.00623492938    0.000627739296   -9.97655102      0.000627739296   -9.97655102      0.999381759      0.00623492938    
109.8            0.999379276      0.00140099916    0.000621204904   -2.25447494      0.000621204904   -2.25447494      0.999379276      0.00140099916    
110.12           0.999376773      -0.00341875508   0.000626074748   5.46549992       0.000626074748   5.46549992       0.999376773      -0.00341875508   
110.44           0.99937425       -0.00822445554   0.000641992736   12.911816        0.000641992736   12.911816        0.99937425       -0.00822445554   
110.76           0.999371707      -0.013016223     0.00066807817    19.8665361       0.00066807817    19.8665361       0.999371707      -0.013016223     
111.08           0.999369144      -0.0177941769    0.000703114717   26.1947129       0.000703114717   26.1947129       0.999369144      -0.0177941769    
111.4            0.999366561      -0.0225584352    0.000745762295   31.8439255       0.000745762295   31.8439255       0.999366561      -0.0225584352    
111.72           0.999363958      -0.0273091146    0.000794722942   36.8245832       0.000794722942   36.8245832       0.999363958      -0.0273091146    
112.04           0.999361336      -0.0320463304    0.000848837004   41.1853563       0.000848837004   41.1853563       0.999361336      -0.0320463304    
112.36           0.999358694      -0.0367701967    0.000907119971   44.9927389       0.000907119971   44.9927389       0.999358694      -0.0367701967    
112.68           0.999356032      -0.0414808261    0.000968761806   48.3174427       0.000968761806   48.3174427       0.999356032      -0.0414808261    
113              0.999353352      -0.0461783302    0.00103310791    51.2267748       0.00103310791    51.2267748       0.999353352      -0.0461783302    
113.32           0.999350651      -0.050862819     0.00109963407    53.7811292       0.00109963407    53.7811292       0.999350651      -0.050862819     
113.64           0.999347932      -0.0555344016    0.00116792174    56.0329106       0.00116792174    56.0329106       0.999347932      -0.0555344016    
113.96           0.999345194      -0.0601931856    0.00123763654    58.0267296       0.00123763654    58.0267296       0.999345194      -0.0601931856    
114.28           0.999342436      -0.0648392776    0.00130851041    59.8001676       0.00130851041    59.8001676       0.999342436      -0.0648392776    
114.6            0.99933966       -0.0694727828    0.00138032745    61.3847268       0.00138032745    61.3847268       0.99933966       -0.0694727828    
114.92           0.999336865      -0.0740938055    0.0014529128     62.8067745       0.0014529128     62.8067745       0.999336865      -0.0740938055    
115.24           0.999334051      -0.0787024485    0.00152612396    64.0883978       0.00152612396    64.0883978       0.999334051      -0.0787024485    
115.56           0.999331219      -0.0832988138    0.0015998441     65.2481398       0.0015998441     65.2481398       0.999331219      -0.0832988138    
115.88           0.999328368      -0.087883002     0.00167397682    66.3016181       0.00167397682    66.3016181       0.999328368      -0.087883002     
116.2            0.999325498      -0.0924551128    0.00174844212    67.2620362       0.00174844212    67.2620362       0.999325498      -0.0924551128    
116.52           0.99932261       -0.0970152446    0.0018231732     68.1406019       0.0018231732     68.1406019       0.99932261       -0.0970152446    
116.84           0.999319704      -0.101563495     0.001898114      68.9468704       0.001898114      68.9468704       0.999319704      -0.101563495     
117.16           0.999316779      -0.10609996      0.00197321722    69.6890224       0.00197321722    69.6890224       0.999316779      -0.10609996      
117.48           0.999313837      -0.110624735     0.00204844274    70.3740928       0.00204844274    70.3740928       0.999313837      -0.110624735     
117.8            0.999310876      -0.115137915     0.0021237564     71.0081563       0.0021237564     71.0081563       0.999310876      -0.115137915     
118.12           0.999307897      -0.119639592     0.00219912899    71.5964805       0.00219912899    71.5964805       0.999307897      -0.119639592     
118.44           0.999304901      -0.124129859     0.0022745354     72.1436512       0.0022745354     72.1436512       0.999304901      -0.124129859     
118.76           0.999301886      -0.128608808     0.00234995401    72.6536764       0.00234995401    72.6536764       0.999301886      -0.128608808     
119.08           0.999298854      -0.133076528     0.00242536612    73.1300718       0.00242536612    73.1300718       0.999298854      -0.133076528     
119.4            0.999295804      -0.137533108     0.00250075551    73.5759326       0.00250075551    73.5759326       0.999295804      -0.137533108     
119.72           0.999292737      -0.141978637     0.00257610808    73.9939932       0.00257610808    73.9939932       0.999292737      -0.141978637     
120.04           0.999289652      -0.146413203     0.00265141153    74.3866769       0.00265141153    74.3866769       0.999289652      -0.146413203     
120.36           0.999286549      -0.150836892     0.00272665513    74.7561383       0.00272665513    74.7561383       0.999286549      -0.150836892     
120.68           0.999283429      -0.155249789     0.00280182948    75.1042991       0.00280182948    75.1042991       0.999283429      -0.155249789     
121              0.999280292      -0.159651979     0.00287692633    75.4328775       0.00287692633    75.4328775       0.999280292      -0.159651979     
121.32           0.999277138      -0.164043546     0.00295193845    75.7434149       0.00295193845    75.7434149       0.999277138      -0.164043546     
121.64           0.999273966      -0.168424573     0.00302685949    76.0372972       0.00302685949    76.0372972       0.999273966      -0.168424573     
121.96           0.999270777      -0.172795141     0.00310168386    76.3157736       0.00310168386    76.3157736       0.999270777      -0.172795141     
122.28           0.999267571      -0.177155332     0.00317640664    76.5799733       0.00317640664    76.5799733       0.999267571      -0.177155332     
122.6            0.999264348      -0.181505226     0.00325102351    76.8309188       0.00325102351    76.8309188       0.999264348      -0.181505226     
122.92           0.999261108      -0.185844902     0.00332553067    77.0695387       0.00332553067    77.0695387       0.999261108      -0.185844902     
123.24           0.999257851      -0.190174439     0.00339992477    77.2966774       0.00339992477    77.2966774       0.999257851      -0.190174439     
123.56           0.999254578      -0.194493916     0.00347420288    77.5131052       0.00347420288    77.5131052       0.999254578      -0.194493916     
123.88           0.999251288      -0.198803408     0.00354836243    77.7195252       0.00354836243    77.7195252       0.999251288      -0.198803408     
124.2            0.999247981      -0.203102992     0.00362240117    77.9165812       0.00362240117    77.9165812       0.999247981      -0.203102992     
124.52           0.999244657      -0.207392743     0.00369631714    78.1048633       0.00369631714    78.1048633       0.999244657      -0.207392743     
124.84           0.999241317      -0.211672737     0.00377010863    78.2849136       0.00377010863    78.2849136       0.999241317      -0.211672737     
125.16           0.99923796       -0.215943047     0.00384377416    78.4572309       0.00384377416    78.4572309       0.99923796       -0.215943047     
125.48           0.999234587      -0.220203745     0.00391731248    78.6222745       0.00391731248    78.6222745       0.999234587      -0.220203745     
125.8            0.999231198      -0.224454905     0.00399072249    78.7804688       0.00399072249    78.7804688       0.999231198      -0.224454905     
126.12           0.999227792      -0.228696598     0.00406400328    78.9322057       0.00406400328    78.9322057       0.999227792      -0.228696598     
126.44           0.99922437       -0.232928895     0.00413715408    79.0778482       0.00413715408    79.0778482       0.99922437       -0.232928895     
126.76           0.999220931      -0.237151866     0.00421017426    79.2177327       0.00421017426    79.2177327       0.999220931      -0.237151866     
127.08           0.999217477      -0.241365581     0.00428306331    79.3521715       0.00428306331    79.3521715       0.999217477      -0.241365581     
127.4            0.999214006      -0.245570108     0.00435582082    79.481455        0.00435582082    79.481455        0.999214006      -0.245570108     
127.72           0.99921052       -0.249765516     0.00442844651    79.6058532       0.00442844651    79.6058532       0.99921052       -0.249765516     
128.04           0.999207017      -0.253951872     0.00450094016    79.725618        0.00450094016    79.725618        0.999207017      -0.253951872     
128.36           0.999203498      -0.258129242     0.00457330163    79.8409841       0.00457330163    79.8409841       0.999203498      -0.258129242     
128.68           0.999199964      -0.262297693     0.00464553089    79.952171        0.00464553089    79.952171        0.999199964      -0.262297693     
129              0.999196413      -0.266457289     0.00471762794    80.0593837       0.00471762794    80.0593837       0.999196413      -0.266457289     
129.32           0.999192847      -0.270608097     0.00478959287    80.1628142       0.00478959287    80.1628142       0.999192847      -0.270608097     
129.64           0.999189265      -0.27475018      0.00486142579    80.2626425       0.00486142579    80.2626425       0.999189265      -0.27475018      
129.96           0.999185668      -0.278883601     0.00493312689    80.3590371       0.00493312689    80.3590371       0.999185668      -0.278883601     
130              0.999185217      -0.279399673     0.00494208027    80.370853        0.00494208027    80.370853        0.999185217      -0.279399673     
