! Coilcraft 1812CS-392 Chip Inductor				
! 31 July 2002			
# MHZ S MA R 50
!Freq             MagS11           AngS11           MagS21           AngS21           MagS12           AngS12           MagS22           AngS22
1                0.23455308       62.9844142       0.917568371      -13.1635606      0.917568371      -13.1635606      0.23455308       62.9844142       
1.6              0.354154962      60.3570689       0.880397889      -20.4640795      0.880397889      -20.4640795      0.354154962      60.3570689       
2.2              0.459083924      55.9343415       0.834537683      -27.1103345      0.834537683      -27.1103345      0.459083924      55.9343415       
2.8              0.547833606      51.3145747       0.7843987        -33.036498       0.7843987        -33.036498       0.547833606      51.3145747       
3.4              0.621246365      46.965333        0.733498046      -38.2490241      0.733498046      -38.2490241      0.621246365      46.965333        
4                0.68123425       43.0301736       0.684195297      -42.7991338      0.684195297      -42.7991338      0.68123425       43.0301736       
4.6              0.730008207      39.5317724       0.637842132      -46.7590364      0.637842132      -46.7590364      0.730008207      39.5317724       
5.2              0.769665098      36.4446977       0.595063047      -50.2059896      0.595063047      -50.2059896      0.769665098      36.4446977       
5.8              0.802015566      33.7262509       0.556018486      -53.2134341      0.556018486      -53.2134341      0.802015566      33.7262509       
6.4              0.828546606      31.3302246       0.520601464      -55.8469895      0.520601464      -55.8469895      0.828546606      31.3302246       
7                0.850446503      29.2128585       0.488567765      -58.1632902      0.488567765      -58.1632902      0.850446503      29.2128585       
7.6              0.86865158       27.3350976       0.459615528      -60.2102733      0.459615528      -60.2102733      0.86865158       27.3350976       
8.2              0.883895219      25.6631162       0.43343078       -62.0280957      0.43343078       -62.0280957      0.883895219      25.6631162       
8.8              0.896751309      24.1680709       0.409711662      -63.6502384      0.409711662      -63.6502384      0.896751309      24.1680709       
9.4              0.907669929      22.8255552       0.388179995      -65.1045849      0.388179995      -65.1045849      0.907669929      22.8255552       
10               0.917005542      21.6149796       0.368585612      -66.414384       0.368585612      -66.414384       0.917005542      21.6149796       
10.6             0.925038815      20.518978        0.350706782      -67.5990717      0.350706782      -67.5990717      0.925038815      20.518978        
11.2             0.931993337      19.5228804       0.334348643      -68.6749538      0.334348643      -68.6749538      0.931993337      19.5228804       
11.8             0.938048372      18.6142608       0.319340751      -69.6557664      0.319340751      -69.6557664      0.938048372      18.6142608       
12.4             0.94334859       17.7825591       0.305534353      -70.5531321      0.305534353      -70.5531321      0.94334859       17.7825591       
13               0.94801151       17.0187672       0.292799699      -71.3769298      0.292799699      -71.3769298      0.94801151       17.0187672       
13.6             0.952133207      16.3151702       0.281023551      -72.135595       0.281023551      -72.135595       0.952133207      16.3151702       
14.2             0.955792716      15.6651342       0.27010695       -72.8363632      0.27010695       -72.8363632      0.955792716      15.6651342       
14.8             0.95905545       15.0629318       0.259963257      -73.4854684      0.259963257      -73.4854684      0.95905545       15.0629318       
15.4             0.96197586       14.5035981       0.250516452      -74.0883048      0.250516452      -74.0883048      0.96197586       14.5035981       
16               0.964599526      13.9828128       0.241699674      -74.6495598      0.241699674      -74.6495598      0.964599526      13.9828128       
16.6             0.966964803      13.4968016       0.233453966      -75.1733224      0.233453966      -75.1733224      0.966964803      13.4968016       
17.2             0.969104135      13.0422555       0.225727205      -75.6631739      0.225727205      -75.6631739      0.969104135      13.0422555       
17.8             0.971045093      12.6162628       0.218473187      -76.1222623      0.218473187      -76.1222623      0.971045093      12.6162628       
18.4             0.972811221      12.216253        0.211650848      -76.5533647      0.211650848      -76.5533647      0.972811221      12.216253        
19               0.974422708      11.8399489       0.205223599      -76.9589393      0.205223599      -76.9589393      0.974422708      11.8399489       
19.6             0.975896942      11.485327        0.199158748      -77.3411688      0.199158748      -77.3411688      0.975896942      11.485327        
20.2             0.977248958      11.150584        0.193427019      -77.7019979      0.193427019      -77.7019979      0.977248958      11.150584        
20.8             0.978491806      10.8341079       0.188002125      -78.0431637      0.188002125      -78.0431637      0.978491806      10.8341079       
21.4             0.979636852      10.5344536       0.18286041       -78.3662227      0.18286041       -78.3662227      0.979636852      10.5344536       
22               0.980694034      10.2503226       0.177980534      -78.6725733      0.177980534      -78.6725733      0.980694034      10.2503226       
22.6             0.981672068      9.9805447        0.173343207      -78.963475       0.173343207      -78.963475       0.981672068      9.9805447        
23.2             0.982578621      9.72406306       0.168930948      -79.2400651      0.168930948      -79.2400651      0.982578621      9.72406306       
23.8             0.98342046       9.47992083       0.164727888      -79.5033731      0.164727888      -79.5033731      0.98342046       9.47992083       
24.4             0.984203576      9.24724976       0.16071959       -79.7543328      0.16071959       -79.7543328      0.984203576      9.24724976       
25               0.984933285      9.02526032       0.156892891      -79.9937933      0.156892891      -79.9937933      0.984933285      9.02526032       
25.6             0.985614316      8.81323305       0.153235773      -80.222528       0.153235773      -80.222528       0.985614316      8.81323305       
26.2             0.986250892      8.61051107       0.149737237      -80.4412432      0.149737237      -80.4412432      0.986250892      8.61051107       
26.8             0.986846787      8.41649345       0.146387204      -80.6505848      0.146387204      -80.6505848      0.986846787      8.41649345       
27.4             0.987405386      8.23062945       0.143176418      -80.8511447      0.143176418      -80.8511447      0.987405386      8.23062945       
28               0.987929729      8.05241343       0.140096369      -81.0434662      0.140096369      -81.0434662      0.987929729      8.05241343       
28.6             0.988422554      7.88138039       0.137139215      -81.228049       0.137139215      -81.228049       0.988422554      7.88138039       
29.2             0.988886333      7.71710195       0.134297725      -81.4053534      0.134297725      -81.4053534      0.988886333      7.71710195       
29.8             0.989323299      7.5591829        0.131565215      -81.5758039      0.131565215      -81.5758039      0.989323299      7.5591829        
30.4             0.989735477      7.40725804       0.128935504      -81.739793       0.128935504      -81.739793       0.989735477      7.40725804       
31               0.990124703      7.26098939       0.126402862      -81.8976836      0.126402862      -81.8976836      0.990124703      7.26098939       
31.6             0.990492647      7.12006379       0.123961973      -82.0498123      0.123961973      -82.0498123      0.990492647      7.12006379       
32.2             0.990840831      6.98419057       0.121607902      -82.1964911      0.121607902      -82.1964911      0.990840831      6.98419057       
32.8             0.991170643      6.85309969       0.119336055      -82.3380103      0.119336055      -82.3380103      0.991170643      6.85309969       
33.4             0.991483351      6.72653988       0.117142154      -82.4746396      0.117142154      -82.4746396      0.991483351      6.72653988       
34               0.991780117      6.60427705       0.115022212      -82.6066305      0.115022212      -82.6066305      0.991780117      6.60427705       
34.6             0.992062004      6.48609291       0.112972506      -82.7342175      0.112972506      -82.7342175      0.992062004      6.48609291       
35.2             0.99232999       6.3717836        0.110989557      -82.8576194      0.110989557      -82.8576194      0.99232999       6.3717836        
35.8             0.992584972      6.26115857       0.10907011       -82.9770411      0.10907011       -82.9770411      0.992584972      6.26115857       
36.4             0.992827778      6.15403948       0.107211116      -83.092674       0.107211116      -83.092674       0.992827778      6.15403948       
37               0.993059169      6.05025929       0.105409719      -83.2046974      0.105409719      -83.2046974      0.993059169      6.05025929       
37.6             0.99327985       5.94966134       0.103663238      -83.3132798      0.103663238      -83.3132798      0.99327985       5.94966134       
38.2             0.993490469      5.85209856       0.101969153      -83.4185789      0.101969153      -83.4185789      0.993490469      5.85209856       
38.8             0.99369163       5.75743279       0.100325096      -83.5207432      0.100325096      -83.5207432      0.99369163       5.75743279       
39.4             0.993883889      5.66553409       0.0987288402     -83.6199122      0.0987288402     -83.6199122      0.993883889      5.66553409       
40               0.994067762      5.57628013       0.0971782861     -83.7162174      0.0971782861     -83.7162174      0.994067762      5.57628013       
40.6             0.99424373       5.48955566       0.0956714555     -83.8097823      0.0956714555     -83.8097823      0.99424373       5.48955566       
41.2             0.994412238      5.40525202       0.0942064823     -83.9007239      0.0942064823     -83.9007239      0.994412238      5.40525202       
41.8             0.994573702      5.32326665       0.0927816042     -83.9891521      0.0927816042     -83.9891521      0.994573702      5.32326665       
42.4             0.994728508      5.24350268       0.091395156      -84.075171       0.091395156      -84.075171       0.994728508      5.24350268       
43               0.994877016      5.16586855       0.0900455631     -84.1588789      0.0900455631     -84.1588789      0.994877016      5.16586855       
43.6             0.995019562      5.09027764       0.0887313351     -84.2403688      0.0887313351     -84.2403688      0.995019562      5.09027764       
44.2             0.99515646       5.01664795       0.0874510608     -84.3197288      0.0874510608     -84.3197288      0.99515646       5.01664795       
44.8             0.995288005      4.9449018        0.0862034025     -84.3970422      0.0862034025     -84.3970422      0.995288005      4.9449018        
45.4             0.99541447       4.87496554       0.0849870916     -84.4723881      0.0849870916     -84.4723881      0.99541447       4.87496554       
46               0.995536114      4.8067693        0.0838009242     -84.5458416      0.0838009242     -84.5458416      0.995536114      4.8067693        
46.6             0.995653176      4.74024674       0.082643757      -84.6174737      0.082643757      -84.6174737      0.995653176      4.74024674       
47.2             0.995765884      4.67533487       0.0815145035     -84.6873522      0.0815145035     -84.6873522      0.995765884      4.67533487       
47.8             0.99587445       4.61197377       0.0804121306     -84.7555413      0.0804121306     -84.7555413      0.99587445       4.61197377       
48.4             0.995979073      4.55010649       0.0793356554     -84.8221022      0.0793356554     -84.8221022      0.995979073      4.55010649       
49               0.996079941      4.4896788        0.078284142      -84.887093       0.078284142      -84.887093       0.996079941      4.4896788        
49.6             0.996177231      4.43063906       0.077256699      -84.9505691      0.077256699      -84.9505691      0.996177231      4.43063906       
50.2             0.99627111       4.37293806       0.0762524769     -85.0125833      0.0762524769     -85.0125833      0.99627111       4.37293806       
50.8             0.996361733      4.31652891       0.0752706654     -85.073186       0.0752706654     -85.073186       0.996361733      4.31652891       
51.4             0.996449249      4.26136685       0.0743104913     -85.1324251      0.0743104913     -85.1324251      0.996449249      4.26136685       
52               0.996533797      4.20740916       0.0733712166     -85.1903464      0.0733712166     -85.1903464      0.996533797      4.20740916       
52.6             0.996615509      4.15461506       0.0724521362     -85.2469937      0.0724521362     -85.2469937      0.996615509      4.15461506       
53.2             0.996694509      4.10294559       0.0715525765     -85.3024087      0.0715525765     -85.3024087      0.996694509      4.10294559       
53.8             0.996770915      4.05236348       0.0706718931     -85.3566313      0.0706718931     -85.3566313      0.996770915      4.05236348       
54.4             0.996844839      4.00283311       0.0698094698     -85.4096997      0.0698094698     -85.4096997      0.996844839      4.00283311       
55               0.996916386      3.95432038       0.0689647168     -85.4616505      0.0689647168     -85.4616505      0.996916386      3.95432038       
55.6             0.996985656      3.90679266       0.0681370693     -85.5125185      0.0681370693     -85.5125185      0.996985656      3.90679266       
56.2             0.997052742      3.86021868       0.0673259864     -85.5623373      0.0673259864     -85.5623373      0.997052742      3.86021868       
56.8             0.997117736      3.81456849       0.0665309494     -85.6111389      0.0665309494     -85.6111389      0.997117736      3.81456849       
57.4             0.997180723      3.76981338       0.0657514614     -85.6589541      0.0657514614     -85.6589541      0.997180723      3.76981338       
58               0.997241782      3.7259258        0.0649870453     -85.7058122      0.0649870453     -85.7058122      0.997241782      3.7259258        
58.6             0.997300991      3.68287933       0.0642372435     -85.7517416      0.0642372435     -85.7517416      0.997300991      3.68287933       
59.2             0.997358424      3.6406486        0.0635016168     -85.7967694      0.0635016168     -85.7967694      0.997358424      3.6406486        
59.8             0.997414149      3.59920927       0.0627797431     -85.8409215      0.0627797431     -85.8409215      0.997414149      3.59920927       
60.4             0.997468232      3.55853793       0.0620712171     -85.8842231      0.0620712171     -85.8842231      0.997468232      3.55853793       
61               0.997520736      3.5186121        0.061375649      -85.926698       0.061375649      -85.926698       0.997520736      3.5186121        
61.6             0.997571722      3.47941016       0.0606926643     -85.9683694      0.0606926643     -85.9683694      0.997571722      3.47941016       
62.2             0.997621245      3.44091132       0.0600219024     -86.0092594      0.0600219024     -86.0092594      0.997621245      3.44091132       
62.8             0.997669361      3.40309557       0.0593630166     -86.0493894      0.0593630166     -86.0493894      0.997669361      3.40309557       
63.4             0.997716122      3.36594366       0.058715673      -86.0887799      0.058715673      -86.0887799      0.997716122      3.36594366       
64               0.997761576      3.32943705       0.0580795501     -86.1274505      0.0580795501     -86.1274505      0.997761576      3.32943705       
64.6             0.997805772      3.29355789       0.0574543384     -86.1654205      0.0574543384     -86.1654205      0.997805772      3.29355789       
65.2             0.997848753      3.25828897       0.0568397392     -86.2027079      0.0568397392     -86.2027079      0.997848753      3.25828897       
65.8             0.997890564      3.22361372       0.0562354651     -86.2393305      0.0562354651     -86.2393305      0.997890564      3.22361372       
66.4             0.997931245      3.18951613       0.0556412387     -86.2753052      0.0556412387     -86.2753052      0.997931245      3.18951613       
67               0.997970836      3.15598081       0.0550567923     -86.3106484      0.0550567923     -86.3106484      0.997970836      3.15598081       
67.6             0.998009374      3.12299287       0.0544818679     -86.3453759      0.0544818679     -86.3453759      0.998009374      3.12299287       
68.2             0.998046895      3.09053795       0.0539162163     -86.3795029      0.0539162163     -86.3795029      0.998046895      3.09053795       
68.8             0.998083434      3.05860219       0.0533595969     -86.413044       0.0533595969     -86.413044       0.998083434      3.05860219       
69.4             0.998119024      3.02717222       0.0528117774     -86.4460135      0.0528117774     -86.4460135      0.998119024      3.02717222       
70               0.998153696      2.99623509       0.0522725334     -86.478425       0.0522725334     -86.478425       0.998153696      2.99623509       
70.6             0.998187481      2.96577833       0.051741648      -86.5102916      0.051741648      -86.5102916      0.998187481      2.96577833       
71.2             0.998220408      2.93578986       0.0512189116     -86.5416262      0.0512189116     -86.5416262      0.998220408      2.93578986       
71.8             0.998252504      2.906258         0.0507041213     -86.5724409      0.0507041213     -86.5724409      0.998252504      2.906258         
72.4             0.998283797      2.87717147       0.0501970813     -86.6027478      0.0501970813     -86.6027478      0.998283797      2.87717147       
73               0.998314312      2.84851935       0.0496976018     -86.6325583      0.0496976018     -86.6325583      0.998314312      2.84851935       
73.6             0.998344073      2.82029106       0.0492054993     -86.6618834      0.0492054993     -86.6618834      0.998344073      2.82029106       
74.2             0.998373105      2.79247639       0.0487205961     -86.6907339      0.0487205961     -86.6907339      0.998373105      2.79247639       
74.8             0.99840143       2.76506542       0.0482427203     -86.7191201      0.0482427203     -86.7191201      0.99840143       2.76506542       
75.4             0.998429069      2.73804859       0.0477717052     -86.7470522      0.0477717052     -86.7470522      0.998429069      2.73804859       
76               0.998456044      2.71141659       0.0473073895     -86.7745397      0.0473073895     -86.7745397      0.998456044      2.71141659       
76.6             0.998482375      2.68516043       0.0468496169     -86.8015921      0.0468496169     -86.8015921      0.998482375      2.68516043       
77.2             0.998508082      2.65927139       0.0463982358     -86.8282185      0.0463982358     -86.8282185      0.998508082      2.65927139       
77.8             0.998533182      2.63374101       0.0459530993     -86.8544275      0.0459530993     -86.8544275      0.998533182      2.63374101       
78.4             0.998557695      2.60856111       0.045514065      -86.8802278      0.045514065      -86.8802278      0.998557695      2.60856111       
79               0.998581637      2.58372374       0.0450809948     -86.9056275      0.0450809948     -86.9056275      0.998581637      2.58372374       
79.6             0.998605024      2.55922118       0.0446537546     -86.9306346      0.0446537546     -86.9306346      0.998605024      2.55922118       
80.2             0.998627874      2.53504596       0.0442322145     -86.9552568      0.0442322145     -86.9552568      0.998627874      2.53504596       
80.8             0.998650201      2.51119081       0.0438162482     -86.9795016      0.0438162482     -86.9795016      0.998650201      2.51119081       
81.4             0.998672021      2.4876487        0.0434057332     -87.0033762      0.0434057332     -87.0033762      0.998672021      2.4876487        
82               0.998693347      2.46441277       0.0430005507     -87.0268876      0.0430005507     -87.0268876      0.998693347      2.46441277       
82.6             0.998714193      2.4414764        0.042600585      -87.0500426      0.042600585      -87.0500426      0.998714193      2.4414764        
83.2             0.998734574      2.41883311       0.042205724      -87.0728477      0.042205724      -87.0728477      0.998734574      2.41883311       
83.8             0.998754501      2.39647666       0.0418158586     -87.0953095      0.0418158586     -87.0953095      0.998754501      2.39647666       
84.4             0.998773988      2.37440093       0.041430883      -87.1174339      0.041430883      -87.1174339      0.998773988      2.37440093       
85               0.998793046      2.35260003       0.0410506941     -87.139227       0.0410506941     -87.139227       0.998793046      2.35260003       
85.6             0.998811686      2.33106818       0.040675192      -87.1606946      0.040675192      -87.1606946      0.998811686      2.33106818       
86.2             0.998829921      2.30979979       0.0403042791     -87.1818422      0.0403042791     -87.1818422      0.998829921      2.30979979       
86.8             0.99884776       2.28878942       0.039937861      -87.2026755      0.039937861      -87.2026755      0.99884776       2.28878942       
87.4             0.998865215      2.26803179       0.0395758455     -87.2231995      0.0395758455     -87.2231995      0.998865215      2.26803179       
88               0.998882295      2.24752173       0.039218143      -87.2434194      0.039218143      -87.2434194      0.998882295      2.24752173       
88.6             0.99889901       2.22725424       0.0388646664     -87.2633402      0.0388646664     -87.2633402      0.99889901       2.22725424       
89.2             0.998915369      2.20722444       0.0385153308     -87.2829667      0.0385153308     -87.2829667      0.998915369      2.20722444       
89.8             0.998931383      2.18742759       0.0381700537     -87.3023035      0.0381700537     -87.3023035      0.998931383      2.18742759       
90.4             0.998947059      2.16785906       0.0378287546     -87.3213551      0.0378287546     -87.3213551      0.998947059      2.16785906       
91               0.998962406      2.14851436       0.0374913553     -87.340126       0.0374913553     -87.340126       0.998962406      2.14851436       
91.6             0.998977432      2.1293891        0.0371577795     -87.3586203      0.0371577795     -87.3586203      0.998977432      2.1293891        
92.2             0.998992145      2.11047902       0.0368279529     -87.3768421      0.0368279529     -87.3768421      0.998992145      2.11047902       
92.8             0.999006554      2.09177995       0.0365018032     -87.3947955      0.0365018032     -87.3947955      0.999006554      2.09177995       
93.4             0.999020666      2.07328784       0.0361792598     -87.4124842      0.0361792598     -87.4124842      0.999020666      2.07328784       
94               0.999034487      2.05499875       0.035860254      -87.4299121      0.035860254      -87.4299121      0.999034487      2.05499875       
94.6             0.999048025      2.03690881       0.0355447188     -87.4470827      0.0355447188     -87.4470827      0.999048025      2.03690881       
95.2             0.999061287      2.01901429       0.0352325889     -87.4639995      0.0352325889     -87.4639995      0.999061287      2.01901429       
95.8             0.999074279      2.00131152       0.0349238005     -87.4806659      0.0349238005     -87.4806659      0.999074279      2.00131152       
96.4             0.999087008      1.98379694       0.0346182917     -87.4970852      0.0346182917     -87.4970852      0.999087008      1.98379694       
97               0.99909948       1.96646705       0.0343160017     -87.5132606      0.0343160017     -87.5132606      0.99909948       1.96646705       
97.6             0.999111701      1.94931847       0.0340168715     -87.5291952      0.0340168715     -87.5291952      0.999111701      1.94931847       
98.2             0.999123677      1.93234789       0.0337208434     -87.5448919      0.0337208434     -87.5448919      0.999123677      1.93234789       
98.8             0.999135414      1.91555207       0.0334278611     -87.5603536      0.0334278611     -87.5603536      0.999135414      1.91555207       
99.4             0.999146916      1.89892785       0.0331378698     -87.5755831      0.0331378698     -87.5755831      0.999146916      1.89892785       
100              0.99915819       1.88247216       0.0328508158     -87.590583       0.0328508158     -87.590583       0.99915819       1.88247216       
100.6            0.99916924       1.86618199       0.0325666468     -87.6053561      0.0325666468     -87.6053561      0.99916924       1.86618199       
101.2            0.999180072      1.85005441       0.0322853117     -87.6199048      0.0322853117     -87.6199048      0.999180072      1.85005441       
101.8            0.999190691      1.83408655       0.0320067605     -87.6342314      0.0320067605     -87.6342314      0.999190691      1.83408655       
102.4            0.999201101      1.81827561       0.0317309446     -87.6483385      0.0317309446     -87.6483385      0.999201101      1.81827561       
103              0.999211306      1.80261886       0.0314578164     -87.6622281      0.0314578164     -87.6622281      0.999211306      1.80261886       
103.6            0.999221312      1.78711362       0.0311873292     -87.6759025      0.0311873292     -87.6759025      0.999221312      1.78711362       
104.2            0.999231123      1.77175729       0.0309194377     -87.6893639      0.0309194377     -87.6893639      0.999231123      1.77175729       
104.8            0.999240742      1.75654731       0.0306540976     -87.7026141      0.0306540976     -87.7026141      0.999240742      1.75654731       
105.4            0.999250175      1.7414812        0.0303912652     -87.7156552      0.0303912652     -87.7156552      0.999250175      1.7414812        
106              0.999259424      1.72655652       0.0301308984     -87.7284889      0.0301308984     -87.7284889      0.999259424      1.72655652       
106.6            0.999268495      1.71177088       0.0298729555     -87.7411172      0.0298729555     -87.7411172      0.999268495      1.71177088       
107.2            0.99927739       1.69712195       0.0296173961     -87.7535418      0.0296173961     -87.7535418      0.99927739       1.69712195       
107.8            0.999286113      1.68260747       0.0293641804     -87.7657641      0.0293641804     -87.7657641      0.999286113      1.68260747       
108.4            0.999294669      1.66822521       0.0291132698     -87.777786       0.0291132698     -87.777786       0.999294669      1.66822521       
109              0.99930306       1.65397298       0.0288646262     -87.7896088      0.0288646262     -87.7896088      0.99930306       1.65397298       
109.6            0.999311289      1.63984866       0.0286182127     -87.801234       0.0286182127     -87.801234       0.999311289      1.63984866       
110.2            0.999319361      1.62585016       0.0283739929     -87.812663       0.0283739929     -87.812663       0.999319361      1.62585016       
110.8            0.999327278      1.61197545       0.0281319312     -87.8238971      0.0281319312     -87.8238971      0.999327278      1.61197545       
111.4            0.999335044      1.59822253       0.0278919931     -87.8349376      0.0278919931     -87.8349376      0.999335044      1.59822253       
112              0.99934266       1.58458945       0.0276541443     -87.8457855      0.0276541443     -87.8457855      0.99934266       1.58458945       
112.6            0.999350132      1.57107429       0.0274183518     -87.8564421      0.0274183518     -87.8564421      0.999350132      1.57107429       
113.2            0.99935746       1.55767519       0.0271845828     -87.8669084      0.0271845828     -87.8669084      0.99935746       1.55767519       
113.8            0.999364649      1.54439032       0.0269528055     -87.8771854      0.0269528055     -87.8771854      0.999364649      1.54439032       
114.4            0.999371701      1.53121788       0.0267229887     -87.887274       0.0267229887     -87.887274       0.999371701      1.53121788       
115              0.999378618      1.51815611       0.0264951018     -87.8971751      0.0264951018     -87.8971751      0.999378618      1.51815611       
115.6            0.999385403      1.50520331       0.0262691148     -87.9068895      0.0262691148     -87.9068895      0.999385403      1.50520331       
116.2            0.999392059      1.49235778       0.0260449985     -87.9164179      0.0260449985     -87.9164179      0.999392059      1.49235778       
116.8            0.999398588      1.47961788       0.025822724      -87.9257611      0.025822724      -87.9257611      0.999398588      1.47961788       
117.4            0.999404992      1.46698198       0.0256022633     -87.9349196      0.0256022633     -87.9349196      0.999404992      1.46698198       
118              0.999411275      1.45444852       0.0253835887     -87.9438941      0.0253835887     -87.9438941      0.999411275      1.45444852       
118.6            0.999417437      1.44201593       0.0251666733     -87.9526851      0.0251666733     -87.9526851      0.999417437      1.44201593       
119.2            0.999423482      1.4296827        0.0249514905     -87.961293       0.0249514905     -87.961293       0.999423482      1.4296827        
119.8            0.999429411      1.41744733       0.0247380145     -87.9697182      0.0247380145     -87.9697182      0.999429411      1.41744733       
120.4            0.999435227      1.40530837       0.0245262198     -87.977961       0.0245262198     -87.977961       0.999435227      1.40530837       
121              0.999440932      1.39326439       0.0243160815     -87.9860218      0.0243160815     -87.9860218      0.999440932      1.39326439       
121.6            0.999446527      1.38131399       0.0241075751     -87.9939008      0.0241075751     -87.9939008      0.999446527      1.38131399       
122.2            0.999452016      1.36945578       0.0239006767     -88.0015981      0.0239006767     -88.0015981      0.999452016      1.36945578       
122.8            0.999457398      1.35768843       0.0236953627     -88.0091138      0.0236953627     -88.0091138      0.999457398      1.35768843       
123.4            0.999462678      1.3460106        0.0234916103     -88.016448       0.0234916103     -88.016448       0.999462678      1.3460106        
124              0.999467856      1.33442101       0.0232893966     -88.0236008      0.0232893966     -88.0236008      0.999467856      1.33442101       
124.6            0.999472933      1.32291837       0.0230886997     -88.0305719      0.0230886997     -88.0305719      0.999472933      1.32291837       
125.2            0.999477913      1.31150145       0.0228894978     -88.0373614      0.0228894978     -88.0373614      0.999477913      1.31150145       
125.8            0.999482796      1.30016902       0.0226917695     -88.043969       0.0226917695     -88.043969       0.999482796      1.30016902       
126.4            0.999487585      1.28891988       0.0224954939     -88.0503944      0.0224954939     -88.0503944      0.999487585      1.28891988       
127              0.999492281      1.27775285       0.0223006505     -88.0566375      0.0223006505     -88.0566375      0.999492281      1.27775285       
127.6            0.999496884      1.26666677       0.0221072193     -88.0626978      0.0221072193     -88.0626978      0.999496884      1.26666677       
128.2            0.999501398      1.25566052       0.0219151803     -88.0685749      0.0219151803     -88.0685749      0.999501398      1.25566052       
128.8            0.999505824      1.24473297       0.0217245142     -88.0742684      0.0217245142     -88.0742684      0.999505824      1.24473297       
129.4            0.999510162      1.23388304       0.0215352021     -88.0797776      0.0215352021     -88.0797776      0.999510162      1.23388304       
130              0.999514415      1.22310965       0.0213472251     -88.085102       0.0213472251     -88.085102       0.999514415      1.22310965       
130.6            0.999518584      1.21241175       0.021160565      -88.090241       0.021160565      -88.090241       0.999518584      1.21241175       
131.2            0.999522671      1.20178831       0.0209752038     -88.0951937      0.0209752038     -88.0951937      0.999522671      1.20178831       
131.8            0.999526675      1.19123831       0.0207911237     -88.0999595      0.0207911237     -88.0999595      0.999526675      1.19123831       
132.4            0.9995306        1.18076075       0.0206083074     -88.1045374      0.0206083074     -88.1045374      0.9995306        1.18076075       
133              0.999534446      1.17035467       0.0204267379     -88.1089266      0.0204267379     -88.1089266      0.999534446      1.17035467       
133.6            0.999538214      1.16001909       0.0202463985     -88.113126       0.0202463985     -88.113126       0.999538214      1.16001909       
134.2            0.999541907      1.14975307       0.0200672726     -88.1171345      0.0200672726     -88.1171345      0.999541907      1.14975307       
134.8            0.999545524      1.13955569       0.0198893441     -88.1209512      0.0198893441     -88.1209512      0.999545524      1.13955569       
135.4            0.999549067      1.12942604       0.0197125973     -88.1245747      0.0197125973     -88.1245747      0.999549067      1.12942604       
136              0.999552538      1.11936321       0.0195370164     -88.1280037      0.0195370164     -88.1280037      0.999552538      1.11936321       
136.6            0.999555937      1.10936634       0.0193625862     -88.1312371      0.0193625862     -88.1312371      0.999555937      1.10936634       
137.2            0.999559265      1.09943456       0.0191892916     -88.1342733      0.0191892916     -88.1342733      0.999559265      1.09943456       
137.8            0.999562525      1.08956701       0.0190171178     -88.1371108      0.0190171178     -88.1371108      0.999562525      1.08956701       
138.4            0.999565715      1.07976288       0.0188460504     -88.1397482      0.0188460504     -88.1397482      0.999565715      1.07976288       
139              0.999568839      1.07002133       0.018676075      -88.1421836      0.018676075      -88.1421836      0.999568839      1.07002133       
139.6            0.999571896      1.06034156       0.0185071777     -88.1444156      0.0185071777     -88.1444156      0.999571896      1.06034156       
140.2            0.999574888      1.05072278       0.0183393446     -88.1464421      0.0183393446     -88.1464421      0.999574888      1.05072278       
140.8            0.999577816      1.04116422       0.0181725621     -88.1482614      0.0181725621     -88.1482614      0.999577816      1.04116422       
141.4            0.999580681      1.0316651        0.018006817      -88.1498714      0.018006817      -88.1498714      0.999580681      1.0316651        
142              0.999583483      1.02222468       0.0178420961     -88.1512701      0.0178420961     -88.1512701      0.999583483      1.02222468       
142.6            0.999586223      1.01284221       0.0176783867     -88.1524553      0.0176783867     -88.1524553      0.999586223      1.01284221       
143.2            0.999588903      1.00351697       0.0175156759     -88.1534249      0.0175156759     -88.1534249      0.999588903      1.00351697       
143.8            0.999591523      0.994248245      0.0173539513     -88.1541764      0.0173539513     -88.1541764      0.999591523      0.994248245      
144.4            0.999594085      0.985035331      0.0171932008     -88.1547074      0.0171932008     -88.1547074      0.999594085      0.985035331      
145              0.999596588      0.975877536      0.0170334122     -88.1550155      0.0170334122     -88.1550155      0.999596588      0.975877536      
145.6            0.999599034      0.966774181      0.0168745737     -88.1550979      0.0168745737     -88.1550979      0.999599034      0.966774181      
146.2            0.999601424      0.957724595      0.0167166737     -88.1549519      0.0167166737     -88.1549519      0.999601424      0.957724595      
146.8            0.999603758      0.948728122      0.0165597007     -88.1545746      0.0165597007     -88.1545746      0.999603758      0.948728122      
147.4            0.999606038      0.939784114      0.0164036435     -88.1539632      0.0164036435     -88.1539632      0.999606038      0.939784114      
148              0.999608263      0.930891935      0.0162484909     -88.1531144      0.0162484909     -88.1531144      0.999608263      0.930891935      
148.6            0.999610435      0.922050957      0.016094232      -88.1520252      0.016094232      -88.1520252      0.999610435      0.922050957      
149.2            0.999612555      0.913260564      0.0159408561     -88.1506923      0.0159408561     -88.1506923      0.999612555      0.913260564      
149.8            0.999614622      0.904520151      0.0157883527     -88.1491121      0.0157883527     -88.1491121      0.999614622      0.904520151      
150.4            0.999616639      0.895829118      0.0156367113     -88.1472811      0.0156367113     -88.1472811      0.999616639      0.895829118      
151              0.999618605      0.88718688       0.0154859217     -88.1451956      0.0154859217     -88.1451956      0.999618605      0.88718688       
151.6            0.999620521      0.878592859      0.0153359739     -88.1428518      0.0153359739     -88.1428518      0.999620521      0.878592859      
152.2            0.999622388      0.870046484      0.0151868579     -88.1402456      0.0151868579     -88.1402456      0.999622388      0.870046484      
152.8            0.999624206      0.861547195      0.015038564      -88.137373       0.015038564      -88.137373       0.999624206      0.861547195      
153.4            0.999625977      0.853094443      0.0148910826     -88.1342297      0.0148910826     -88.1342297      0.999625977      0.853094443      
154              0.999627701      0.844687683      0.0147444042     -88.1308113      0.0147444042     -88.1308113      0.999627701      0.844687683      
154.6            0.999629378      0.836326381      0.0145985196     -88.127113       0.0145985196     -88.127113       0.999629378      0.836326381      
155.2            0.999631009      0.828010011      0.0144534196     -88.1231302      0.0144534196     -88.1231302      0.999631009      0.828010011      
155.8            0.999632594      0.819738054      0.0143090952     -88.118858       0.0143090952     -88.118858       0.999632594      0.819738054      
156.4            0.999634135      0.811510002      0.0141655374     -88.1142912      0.0141655374     -88.1142912      0.999634135      0.811510002      
157              0.999635631      0.803325351      0.0140227377     -88.1094244      0.0140227377     -88.1094244      0.999635631      0.803325351      
157.6            0.999637084      0.795183607      0.0138806872     -88.1042523      0.0138806872     -88.1042523      0.999637084      0.795183607      
158.2            0.999638493      0.787084283      0.0137393777     -88.098769       0.0137393777     -88.098769       0.999638493      0.787084283      
158.8            0.99963986       0.779026898      0.0135988007     -88.0929687      0.0135988007     -88.0929687      0.99963986       0.779026898      
159.4            0.999641185      0.77101098       0.0134589481     -88.0868453      0.0134589481     -88.0868453      0.999641185      0.77101098       
160              0.999642468      0.763036064      0.0133198116     -88.0803923      0.0133198116     -88.0803923      0.999642468      0.763036064      
160.6            0.99964371       0.755101691      0.0131813834     -88.0736033      0.0131813834     -88.0736033      0.99964371       0.755101691      
161.2            0.999644912      0.747207409      0.0130436557     -88.0664713      0.0130436557     -88.0664713      0.999644912      0.747207409      
161.8            0.999646073      0.739352773      0.0129066206     -88.0589893      0.0129066206     -88.0589893      0.999646073      0.739352773      
162.4            0.999647195      0.731537344      0.0127702705     -88.0511499      0.0127702705     -88.0511499      0.999647195      0.731537344      
163              0.999648278      0.723760691      0.012634598      -88.0429456      0.012634598      -88.0429456      0.999648278      0.723760691      
163.6            0.999649322      0.716022388      0.0124995956     -88.0343683      0.0124995956     -88.0343683      0.999649322      0.716022388      
164.2            0.999650328      0.708322014      0.0123652561     -88.02541        0.0123652561     -88.02541        0.999650328      0.708322014      
164.8            0.999651296      0.700659158      0.0122315723     -88.016062       0.0122315723     -88.016062       0.999651296      0.700659158      
165.4            0.999652227      0.693033411      0.0120985371     -88.0063156      0.0120985371     -88.0063156      0.999652227      0.693033411      
166              0.999653121      0.685444371      0.0119661435     -87.9961616      0.0119661435     -87.9961616      0.999653121      0.685444371      
166.6            0.999653978      0.677891644      0.0118343847     -87.9855904      0.0118343847     -87.9855904      0.999653978      0.677891644      
167.2            0.999654799      0.670374838      0.0117032539     -87.9745921      0.0117032539     -87.9745921      0.999654799      0.670374838      
167.8            0.999655585      0.66289357       0.0115727445     -87.9631565      0.0115727445     -87.9631565      0.999655585      0.66289357       
168.4            0.999656335      0.65544746       0.0114428498     -87.9512729      0.0114428498     -87.9512729      0.999656335      0.65544746       
169              0.999657051      0.648036134      0.0113135635     -87.9389302      0.0113135635     -87.9389302      0.999657051      0.648036134      
169.6            0.999657732      0.640659225      0.011184879      -87.9261168      0.011184879      -87.9261168      0.999657732      0.640659225      
170.2            0.999658379      0.633316369      0.0110567902     -87.9128208      0.0110567902     -87.9128208      0.999658379      0.633316369      
170.8            0.999658992      0.626007208      0.0109292908     -87.8990296      0.0109292908     -87.8990296      0.999658992      0.626007208      
171.4            0.999659572      0.618731388      0.0108023747     -87.8847304      0.0108023747     -87.8847304      0.999659572      0.618731388      
172              0.999660119      0.611488562      0.0106760359     -87.8699094      0.0106760359     -87.8699094      0.999660119      0.611488562      
172.6            0.999660633      0.604278387      0.0105502684     -87.8545528      0.0105502684     -87.8545528      0.999660633      0.604278387      
173.2            0.999661115      0.597100523      0.0104250665     -87.8386458      0.0104250665     -87.8386458      0.999661115      0.597100523      
173.8            0.999661565      0.589954637      0.0103004243     -87.8221732      0.0103004243     -87.8221732      0.999661565      0.589954637      
174.4            0.999661983      0.5828404        0.0101763361     -87.8051191      0.0101763361     -87.8051191      0.999661983      0.5828404        
175              0.99966237       0.575757486      0.0100527964     -87.7874669      0.0100527964     -87.7874669      0.99966237       0.575757486      
175.6            0.999662726      0.568705576      0.00992979958    -87.7691993      0.00992979958    -87.7691993      0.999662726      0.568705576      
176.2            0.999663052      0.561684353      0.00980734026    -87.7502983      0.00980734026    -87.7502983      0.999663052      0.561684353      
176.8            0.999663347      0.554693505      0.00968541305    -87.7307451      0.00968541305    -87.7307451      0.999663347      0.554693505      
177.4            0.999663612      0.547732726      0.00956401265    -87.7105201      0.00956401265    -87.7105201      0.999663612      0.547732726      
178              0.999663848      0.540801711      0.00944313385    -87.6896026      0.00944313385    -87.6896026      0.999663848      0.540801711      
178.6            0.999664054      0.533900162      0.00932277151    -87.6679714      0.00932277151    -87.6679714      0.999664054      0.533900162      
179.2            0.999664231      0.527027782      0.00920292055    -87.645604       0.00920292055    -87.645604       0.999664231      0.527027782      
179.8            0.999664379      0.520184281      0.00908357598    -87.6224769      0.00908357598    -87.6224769      0.999664379      0.520184281      
180.4            0.999664499      0.513369372      0.00896473288    -87.5985658      0.00896473288    -87.5985658      0.999664499      0.513369372      
181              0.99966459       0.50658277       0.00884638639    -87.5738448      0.00884638639    -87.5738448      0.99966459       0.50658277       
181.6            0.999664653      0.499824196      0.00872853172    -87.5482873      0.00872853172    -87.5482873      0.999664653      0.499824196      
182.2            0.999664689      0.493093373      0.00861116416    -87.521865       0.00861116416    -87.521865       0.999664689      0.493093373      
182.8            0.999664698      0.486390029      0.00849427907    -87.4945486      0.00849427907    -87.4945486      0.999664698      0.486390029      
183.4            0.999664679      0.479713894      0.00837787185    -87.4663069      0.00837787185    -87.4663069      0.999664679      0.479713894      
184              0.999664633      0.473064704      0.008261938      -87.4371078      0.008261938      -87.4371078      0.999664633      0.473064704      
184.6            0.99966456       0.466442196      0.00814647306    -87.4069169      0.00814647306    -87.4069169      0.99966456       0.466442196      
185.2            0.999664461      0.459846111      0.00803147266    -87.3756987      0.00803147266    -87.3756987      0.999664461      0.459846111      
185.8            0.999664336      0.453276194      0.00791693248    -87.3434156      0.00791693248    -87.3434156      0.999664336      0.453276194      
186.4            0.999664185      0.446732193      0.00780284826    -87.3100279      0.00780284826    -87.3100279      0.999664185      0.446732193      
187              0.999664009      0.440213858      0.00768921581    -87.2754942      0.00768921581    -87.2754942      0.999664009      0.440213858      
187.6            0.999663807      0.433720946      0.00757603101    -87.2397705      0.00757603101    -87.2397705      0.999663807      0.433720946      
188.2            0.999663579      0.427253212      0.00746328979    -87.2028109      0.00746328979    -87.2028109      0.999663579      0.427253212      
188.8            0.999663327      0.420810417      0.00735098815    -87.1645667      0.00735098815    -87.1645667      0.999663327      0.420810417      
189.4            0.99966305       0.414392326      0.00723912215    -87.1249865      0.00723912215    -87.1249865      0.99966305       0.414392326      
190              0.999662749      0.407998704      0.00712768792    -87.0840162      0.00712768792    -87.0840162      0.999662749      0.407998704      
190.6            0.999662423      0.401629321      0.00701668164    -87.0415986      0.00701668164    -87.0415986      0.999662423      0.401629321      
191.2            0.999662073      0.395283949      0.00690609957    -86.9976733      0.00690609957    -86.9976733      0.999662073      0.395283949      
191.8            0.999661699      0.388962364      0.00679593801    -86.9521762      0.00679593801    -86.9521762      0.999661699      0.388962364      
192.4            0.999661301      0.382664343      0.00668619333    -86.9050396      0.00668619333    -86.9050396      0.999661301      0.382664343      
193              0.99966088       0.376389669      0.00657686197    -86.8561917      0.00657686197    -86.8561917      0.99966088       0.376389669      
193.6            0.999660436      0.370138123      0.00646794044    -86.8055563      0.00646794044    -86.8055563      0.999660436      0.370138123      
194.2            0.999659968      0.363909492      0.00635942529    -86.7530528      0.00635942529    -86.7530528      0.999659968      0.363909492      
194.8            0.999659478      0.357703565      0.00625131314    -86.6985951      0.00625131314    -86.6985951      0.999659478      0.357703565      
195.4            0.999658965      0.351520133      0.0061436007     -86.6420921      0.0061436007     -86.6420921      0.999658965      0.351520133      
196              0.999658429      0.345358991      0.00603628472    -86.5834466      0.00603628472    -86.5834466      0.999658429      0.345358991      
196.6            0.999657871      0.339219935      0.00592936202    -86.5225551      0.00592936202    -86.5225551      0.999657871      0.339219935      
197.2            0.999657291      0.333102764      0.00582282949    -86.4593073      0.00582282949    -86.4593073      0.999657291      0.333102764      
197.8            0.999656689      0.327007278      0.0057166841     -86.3935853      0.0057166841     -86.3935853      0.999656689      0.327007278      
198.4            0.999656065      0.320933283      0.00561092288    -86.3252632      0.00561092288    -86.3252632      0.999656065      0.320933283      
199              0.99965542       0.314880584      0.00550554294    -86.2542065      0.00550554294    -86.2542065      0.99965542       0.314880584      
199.6            0.999654753      0.308848989      0.00540054145    -86.1802708      0.00540054145    -86.1802708      0.999654753      0.308848989      
200.2            0.999654065      0.30283831       0.00529591567    -86.1033016      0.00529591567    -86.1033016      0.999654065      0.30283831       
200.8            0.999653356      0.296848359      0.00519166295    -86.0231327      0.00519166295    -86.0231327      0.999653356      0.296848359      
201.4            0.999652625      0.290878952      0.0050877807     -85.9395858      0.0050877807     -85.9395858      0.999652625      0.290878952      
202              0.999651874      0.284929906      0.00498426644    -85.8524688      0.00498426644    -85.8524688      0.999651874      0.284929906      
202.6            0.999651103      0.27900104       0.00488111778    -85.7615748      0.00488111778    -85.7615748      0.999651103      0.27900104       
203.2            0.999650311      0.273092178      0.0047783324     -85.6666802      0.0047783324     -85.6666802      0.999650311      0.273092178      
203.8            0.999649499      0.267203141      0.00467590812    -85.5675438      0.00467590812    -85.5675438      0.999649499      0.267203141      
204.4            0.999648666      0.261333757      0.00457384284    -85.4639041      0.00457384284    -85.4639041      0.999648666      0.261333757      
205              0.999647814      0.255483854      0.00447213459    -85.3554778      0.00447213459    -85.3554778      0.999647814      0.255483854      
205.6            0.999646942      0.24965326       0.00437078151    -85.2419573      0.00437078151    -85.2419573      0.999646942      0.24965326       
206.2            0.99964605       0.243841809      0.0042697819     -85.1230078      0.0042697819     -85.1230078      0.99964605       0.243841809      
206.8            0.999645138      0.238049334      0.00416913417    -84.9982646      0.00416913417    -84.9982646      0.999645138      0.238049334      
207.4            0.999644207      0.23227567       0.0040688369     -84.8673297      0.0040688369     -84.8673297      0.999644207      0.23227567       
208              0.999643257      0.226520656      0.00396888885    -84.7297674      0.00396888885    -84.7297674      0.999643257      0.226520656      
208.6            0.999642288      0.220784132      0.00386928895    -84.5851006      0.00386928895    -84.5851006      0.999642288      0.220784132      
209.2            0.999641299      0.215065938      0.00377003634    -84.432805       0.00377003634    -84.432805       0.999641299      0.215065938      
209.8            0.999640292      0.209365917      0.00367113038    -84.2723035      0.00367113038    -84.2723035      0.999640292      0.209365917      
210.4            0.999639267      0.203683916      0.00357257069    -84.1029596      0.00357257069    -84.1029596      0.999639267      0.203683916      
211              0.999638222      0.19801978       0.00347435714    -83.9240691      0.00347435714    -83.9240691      0.999638222      0.19801978       
211.6            0.999637159      0.192373358      0.00337648995    -83.7348516      0.00337648995    -83.7348516      0.999637159      0.192373358      
212.2            0.999636078      0.186744501      0.00327896967    -83.534439       0.00327896967    -83.534439       0.999636078      0.186744501      
212.8            0.999634979      0.18113306       0.00318179723    -83.3218641      0.00318179723    -83.3218641      0.999634979      0.18113306       
213.4            0.999633861      0.175538888      0.00308497403    -83.0960453      0.00308497403    -83.0960453      0.999633861      0.175538888      
214              0.999632726      0.169961842      0.00298850198    -82.8557693      0.00298850198    -82.8557693      0.999632726      0.169961842      
214.6            0.999631572      0.164401778      0.00289238357    -82.5996711      0.00289238357    -82.5996711      0.999631572      0.164401778      
215.2            0.999630401      0.158858554      0.00279662197    -82.3262096      0.00279662197    -82.3262096      0.999630401      0.158858554      
215.8            0.999629213      0.15333203       0.00270122115    -82.0336379      0.00270122115    -82.0336379      0.999629213      0.15333203       
216.4            0.999628007      0.147822068      0.00260618598    -81.7199692      0.00260618598    -81.7199692      0.999628007      0.147822068      
217              0.999626783      0.142328532      0.00251152241    -81.3829334      0.00251152241    -81.3829334      0.999626783      0.142328532      
217.6            0.999625542      0.136851285      0.00241723768    -81.0199265      0.00241723768    -81.0199265      0.999625542      0.136851285      
218.2            0.999624285      0.131390193      0.0023233405     -80.6279468      0.0023233405     -80.6279468      0.999624285      0.131390193      
218.8            0.99962301       0.125945125      0.00222984143    -80.2035172      0.00222984143    -80.2035172      0.99962301       0.125945125      
219.4            0.999621718      0.120515949      0.00213675317    -79.7425892      0.00213675317    -79.7425892      0.999621718      0.120515949      
220              0.999620409      0.115102536      0.00204409107    -79.2404217      0.00204409107    -79.2404217      0.999620409      0.115102536      
220.6            0.999619084      0.109704758      0.00195187368    -78.6914295      0.00195187368    -78.6914295      0.999619084      0.109704758      
221.2            0.999617742      0.104322487      0.00186012355    -78.0889907      0.00186012355    -78.0889907      0.999617742      0.104322487      
221.8            0.999616384      0.0989555986     0.00176886814    -77.4251995      0.00176886814    -77.4251995      0.999616384      0.0989555986     
222.4            0.999615009      0.0936039687     0.00167814111    -76.6905482      0.00167814111    -76.6905482      0.999615009      0.0936039687     
223              0.999613617      0.0882674746     0.00158798397    -75.8735111      0.00158798397    -75.8735111      0.999613617      0.0882674746     
223.6            0.99961221       0.0829459948     0.00149844832    -74.9599978      0.00149844832    -74.9599978      0.99961221       0.0829459948     
224.2            0.999610787      0.0776394092     0.00140959878    -73.9326263      0.00140959878    -73.9326263      0.999610787      0.0776394092     
224.8            0.999609347      0.072347599      0.00132151713    -72.7697459      0.00132151713    -72.7697459      0.999609347      0.072347599      
225.4            0.999607892      0.0670704467     0.00123430795    -71.4441138      0.00123430795    -71.4441138      0.999607892      0.0670704467     
226              0.99960642       0.061807836      0.00114810663    -69.9210846      0.00114810663    -69.9210846      0.99960642       0.061807836      
226.6            0.999604933      0.0565596519     0.00106309072    -68.1561171      0.00106309072    -68.1561171      0.999604933      0.0565596519     
227.2            0.999603431      0.0513257805     0.000979496483   -66.0913327      0.000979496483   -66.0913327      0.999603431      0.0513257805     
227.8            0.999601913      0.0461061092     0.000897643177   -63.6507818      0.000897643177   -63.6507818      0.999601913      0.0461061092     
228.4            0.999600379      0.0409005264     0.000817969082   -60.7340578      0.000817969082   -60.7340578      0.999600379      0.0409005264     
229              0.99959883       0.035708922      0.000741085295   -57.2080857      0.000741085295   -57.2080857      0.99959883       0.035708922      
229.6            0.999597266      0.0305311868     0.00066785526    -52.897793       0.00066785526    -52.897793       0.999597266      0.0305311868     
230.2            0.999595686      0.0253672128     0.000599508347   -47.5790593      0.000599508347   -47.5790593      0.999595686      0.0253672128     
230.8            0.999594092      0.020216893      0.000537787226   -40.9841842      0.000537787226   -40.9841842      0.999594092      0.020216893      
231.4            0.999592482      0.0150801219     0.000485093524   -32.8437635      0.000485093524   -32.8437635      0.999592482      0.0150801219     
232              0.999590857      0.00995679453    0.000444504621   -23.0036344      0.000444504621   -23.0036344      0.999590857      0.00995679453    
232.6            0.999589218      0.00484680749    0.000419398203   -11.6315595      0.000419398203   -11.6315595      0.999589218      0.00484680749    
233.2            0.999587564      -0.0002499418    0.000412459319   0.605740634      0.000412459319   0.605740634      0.999587564      -0.0002499418    
233.8            0.999585895      -0.00533355481   0.000424434844   12.6639071       0.000424434844   12.6639071       0.999585895      -0.00533355481   
234.4            0.999584211      -0.010404132     0.000453696188   23.5826403       0.000453696188   23.5826403       0.999584211      -0.010404132     
235              0.999582513      -0.0154617727    0.000497080227   32.864986        0.000497080227   32.864986        0.999582513      -0.0154617727    
235.6            0.9995808        -0.0205065754    0.00055115533    40.4740933       0.00055115533    40.4740933       0.9995808        -0.0205065754    
236.2            0.999579073      -0.0255386375    0.000613003887   46.6207597       0.000613003887   46.6207597       0.999579073      -0.0255386375    
236.8            0.999577332      -0.0305580553    0.000680424958   51.5821956       0.000680424958   51.5821956       0.999577332      -0.0305580553    
237.4            0.999575576      -0.0355649243    0.000751845326   55.6140051       0.000751845326   55.6140051       0.999575576      -0.0355649243    
238              0.999573807      -0.040559339     0.000826160474   58.9239379       0.000826160474   58.9239379       0.999573807      -0.040559339     
238.6            0.999572023      -0.0455413928    0.000902594199   61.6723278       0.000902594199   61.6723278       0.999572023      -0.0455413928    
239.2            0.999570225      -0.0505111785    0.000980595337   63.9805634       0.000980595337   63.9805634       0.999570225      -0.0505111785    
239.8            0.999568413      -0.0554687875    0.00105976678    65.9402379       0.00105976678    65.9402379       0.999568413      -0.0554687875    
240              0.999567806      -0.0571186337    0.00108636469    66.5285221       0.00108636469    66.5285221       0.999567806      -0.0571186337    
