! Coilcraft 1812CS-123 Chip Inductor				
! 31 July 2002			
# MHZ S MA R 50
!Freq             MagS11           AngS11           MagS21           AngS21           MagS12           AngS12           MagS22           AngS22
1                0.564713429      46.8297188       0.739041623      -33.868433       0.739041623      -33.868433       0.564713429      46.8297188       
1.27             0.652948035      42.049511        0.675741579      -40.3293465      0.675741579      -40.3293465      0.652948035      42.049511        
1.54             0.720659814      37.7729803       0.616496692      -45.7275117      0.616496692      -45.7275117      0.720659814      37.7729803       
1.81             0.772459638      34.0725937       0.563021637      -50.2325603      0.563021637      -50.2325603      0.772459638      34.0725937       
2.08             0.812289106      30.9053462       0.515652881      -54.0070053      0.515652881      -54.0070053      0.812289106      30.9053462       
2.35             0.843206087      28.1975677       0.474048315      -57.1903965      0.474048315      -57.1903965      0.843206087      28.1975677       
2.62             0.867482836      25.8747829       0.437597093      -59.8965597      0.437597093      -59.8965597      0.867482836      25.8747829       
2.89             0.886779186      23.8713161       0.405629201      -62.2161552      0.405629201      -62.2161552      0.886779186      23.8713161       
3.16             0.90230344       22.1322662       0.377510483      -64.2207279      0.377510483      -64.2207279      0.90230344       22.1322662       
3.43             0.914938671      20.6127689       0.352678553      -65.9666689      0.352678553      -65.9666689      0.914938671      20.6127689       
3.7              0.925335386      19.276475        0.330650483      -67.4985706      0.330650483      -67.4985706      0.925335386      19.276475        
3.97             0.933977549      18.0939753       0.311018235      -68.8518975      0.311018235      -68.8518975      0.933977549      18.0939753       
4.24             0.941229135      17.0414173       0.293439617      -70.0550535      0.293439617      -70.0550535      0.941229135      17.0414173       
4.51             0.947366918      16.0993678       0.277628363      -71.1309611      0.277628363      -71.1309611      0.947366918      16.0993678       
4.78             0.952603671      15.2519049       0.263344875      -72.0982637      0.263344875      -72.0982637      0.952603671      15.2519049       
5.05             0.957104702      14.4859029       0.250388152      -72.9722417      0.250388152      -72.9722417      0.957104702      14.4859029       
5.32             0.960999742      13.7904728       0.238589001      -73.7655133      0.238589001      -73.7655133      0.960999742      13.7904728       
5.59             0.964391585      13.1565239       0.227804437      -74.4885734      0.227804437      -74.4885734      0.964391585      13.1565239       
5.86             0.967362417      12.5764199       0.217913095      -75.1502109      0.217913095      -75.1502109      0.967362417      12.5764199       
6.13             0.969978512      12.0437078       0.2088115        -75.7578344      0.2088115        -75.7578344      0.969978512      12.0437078       
6.4              0.972293739      11.552903        0.200411033      -76.317727       0.200411033      -76.317727       0.972293739      11.552903        
6.67             0.974352218      11.0993191       0.192635456      -76.8352486      0.192635456      -76.8352486      0.974352218      11.0993191       
6.94             0.976190339      10.67893         0.185418895      -77.3149967      0.185418895      -77.3149967      0.976190339      10.67893         
7.21             0.977838315      10.2882606       0.178704194      -77.7609351      0.178704194      -77.7609351      0.977838315      10.2882606       
7.48             0.97932139       9.92429657       0.172441552      -78.1764981      0.172441552      -78.1764981      0.97932139       9.92429657       
7.75             0.98066078       9.58441229       0.16658741       -78.5646748      0.16658741       -78.5646748      0.98066078       9.58441229       
8.02             0.981874414      9.26631063       0.161103523      -78.9280784      0.161103523      -78.9280784      0.981874414      9.26631063       
8.29             0.982977524      8.96797403       0.15595619       -79.2690024      0.15595619       -79.2690024      0.982977524      8.96797403       
8.56             0.983983112      8.6876237        0.151115611      -79.589468       0.151115611      -79.589468       0.983983112      8.6876237        
8.83             0.984902332      8.42368577       0.146555351      -79.8912629      0.146555351      -79.8912629      0.984902332      8.42368577       
9.1              0.985744792      8.17476288       0.142251882      -80.1759735      0.142251882      -80.1759735      0.985744792      8.17476288       
9.37             0.986518806      7.9396104        0.1381842        -80.4450123      0.1381842        -80.4450123      0.986518806      7.9396104        
9.64             0.987231592      7.7171163        0.134333505      -80.6996414      0.134333505      -80.6996414      0.987231592      7.7171163        
9.91             0.987889445      7.50628414       0.130682917      -80.9409912      0.130682917      -80.9409912      0.987889445      7.50628414       
10.18            0.988497873      7.30621852       0.127217244      -81.1700773      0.127217244      -81.1700773      0.988497873      7.30621852       
10.45            0.989061711      7.1161127        0.123922778      -81.3878147      0.123922778      -81.3878147      0.989061711      7.1161127        
10.72            0.989585217      6.935238         0.120787118      -81.5950299      0.120787118      -81.5950299      0.989585217      6.935238         
10.99            0.990072154      6.76293465       0.117799022      -81.7924709      0.117799022      -81.7924709      0.990072154      6.76293465       
11.26            0.990525855      6.59860384       0.114948274      -81.9808168      0.114948274      -81.9808168      0.990525855      6.59860384       
11.53            0.990949284      6.44170094       0.112225572      -82.1606853      0.112225572      -82.1606853      0.990949284      6.44170094       
11.8             0.99134508       6.29172952       0.109622429      -82.332639       0.109622429      -82.332639       0.99134508       6.29172952       
12.07            0.991715602      6.14823618       0.107131085      -82.4971924      0.107131085      -82.4971924      0.991715602      6.14823618       
12.34            0.99206296       6.01080597       0.104744433      -82.6548157      0.104744433      -82.6548157      0.99206296       6.01080597       
12.61            0.992389051      5.87905848       0.102455951      -82.8059405      0.102455951      -82.8059405      0.992389051      5.87905848       
12.88            0.99269558       5.75264431       0.100259644      -82.9509629      0.100259644      -82.9509629      0.99269558       5.75264431       
13.15            0.992984084      5.63124197       0.0981499927     -83.0902475      0.0981499927     -83.0902475      0.992984084      5.63124197       
13.42            0.993255953      5.5145552        0.0961219065     -83.2241304      0.0961219065     -83.2241304      0.993255953      5.5145552        
13.69            0.993512444      5.40231053       0.0941706835     -83.3529216      0.0941706835     -83.3529216      0.993512444      5.40231053       
13.96            0.993754698      5.29425514       0.0922919745     -83.476908       0.0922919745     -83.476908       0.993754698      5.29425514       
14.23            0.993983752      5.19015495       0.0904817503     -83.5963551      0.0904817503     -83.5963551      0.993983752      5.19015495       
14.5             0.994200549      5.08979296       0.0887362733     -83.7115089      0.0887362733     -83.7115089      0.994200549      5.08979296       
14.77            0.994405952      4.99296766       0.0870520715     -83.8225982      0.0870520715     -83.8225982      0.994405952      4.99296766       
15.04            0.994600745      4.89949175       0.0854259156     -83.9298354      0.0854259156     -83.9298354      0.994600745      4.89949175       
15.31            0.994785648      4.80919085       0.0838547982     -84.0334183      0.0838547982     -84.0334183      0.994785648      4.80919085       
15.58            0.994961322      4.72190245       0.082335915      -84.1335313      0.082335915      -84.1335313      0.994961322      4.72190245       
15.85            0.99512837       4.63747492       0.0808666484     -84.2303465      0.0808666484     -84.2303465      0.99512837       4.63747492       
16.12            0.995287348      4.55576658       0.079444552      -84.3240245      0.079444552      -84.3240245      0.995287348      4.55576658       
16.39            0.99543877       4.47664494       0.0780673368     -84.4147157      0.0780673368     -84.4147157      0.99543877       4.47664494       
16.66            0.995583107      4.39998595       0.0767328592     -84.5025609      0.0767328592     -84.5025609      0.995583107      4.39998595       
16.93            0.995720793      4.32567335       0.0754391092     -84.587692       0.0754391092     -84.587692       0.995720793      4.32567335       
17.2             0.995852232      4.25359805       0.0741842005     -84.6702327      0.0741842005     -84.6702327      0.995852232      4.25359805       
17.47            0.995977795      4.18365761       0.0729663611     -84.7502993      0.0729663611     -84.7502993      0.995977795      4.18365761       
17.74            0.996097828      4.11575574       0.0717839248     -84.8280009      0.0717839248     -84.8280009      0.996097828      4.11575574       
18.01            0.99621265       4.04980183       0.0706353234     -84.9034405      0.0706353234     -84.9034405      0.99621265       4.04980183       
18.28            0.996322557      3.98571054       0.0695190797     -84.9767147      0.0695190797     -84.9767147      0.996322557      3.98571054       
18.55            0.996427827      3.92340145       0.0684338009     -85.0479148      0.0684338009     -85.0479148      0.996427827      3.92340145       
18.82            0.996528715      3.86279869       0.0673781728     -85.1171268      0.0673781728     -85.1171268      0.996528715      3.86279869       
19.09            0.996625461      3.80383061       0.0663509543     -85.1844321      0.0663509543     -85.1844321      0.996625461      3.80383061       
19.36            0.996718288      3.74642953       0.0653509723     -85.2499072      0.0653509723     -85.2499072      0.996718288      3.74642953       
19.63            0.996807403      3.69053142       0.0643771176     -85.3136249      0.0643771176     -85.3136249      0.996807403      3.69053142       
19.9             0.996893001      3.63607571       0.0634283397     -85.3756536      0.0634283397     -85.3756536      0.996893001      3.63607571       
20.17            0.996975264      3.58300502       0.0625036439     -85.4360586      0.0625036439     -85.4360586      0.996975264      3.58300502       
20.44            0.997054361      3.53126498       0.0616020871     -85.4949012      0.0616020871     -85.4949012      0.997054361      3.53126498       
20.71            0.997130452      3.480804         0.0607227749     -85.55224        0.0607227749     -85.55224        0.997130452      3.480804         
20.98            0.997203687      3.43157314       0.059864858      -85.6081304      0.059864858      -85.6081304      0.997203687      3.43157314       
21.25            0.997274205      3.38352592       0.0590275298     -85.6626249      0.0590275298     -85.6626249      0.997274205      3.38352592       
21.52            0.997342138      3.33661816       0.0582100239     -85.7157735      0.0582100239     -85.7157735      0.997342138      3.33661816       
21.79            0.99740761       3.29080784       0.0574116109     -85.7676238      0.0574116109     -85.7676238      0.99740761       3.29080784       
22.06            0.997470736      3.246055         0.056631597      -85.8182209      0.056631597      -85.8182209      0.997470736      3.246055         
22.33            0.997531626      3.20232157       0.0558693215     -85.8676078      0.0558693215     -85.8676078      0.997531626      3.20232157       
22.6             0.997590384      3.1595713        0.0551241549     -85.9158255      0.0551241549     -85.9158255      0.997590384      3.1595713        
22.87            0.997647106      3.11776963       0.0543954969     -85.9629129      0.0543954969     -85.9629129      0.997647106      3.11776963       
23.14            0.997701884      3.07688359       0.053682775      -86.0089072      0.053682775      -86.0089072      0.997701884      3.07688359       
23.41            0.997754804      3.03688174       0.052985443      -86.0538439      0.052985443      -86.0538439      0.997754804      3.03688174       
23.68            0.997805949      2.99773403       0.0523029791     -86.0977568      0.0523029791     -86.0977568      0.997805949      2.99773403       
23.95            0.997855394      2.95941179       0.0516348848     -86.1406781      0.0516348848     -86.1406781      0.997855394      2.95941179       
24.22            0.997903214      2.92188758       0.0509806837     -86.1826388      0.0509806837     -86.1826388      0.997903214      2.92188758       
24.49            0.997949478      2.88513519       0.0503399202     -86.2236682      0.0503399202     -86.2236682      0.997949478      2.88513519       
24.76            0.99799425       2.84912953       0.0497121582     -86.2637945      0.0497121582     -86.2637945      0.99799425       2.84912953       
25.03            0.998037593      2.8138466        0.0490969803     -86.3030447      0.0490969803     -86.3030447      0.998037593      2.8138466        
25.3             0.998079566      2.77926338       0.0484939869     -86.3414444      0.0484939869     -86.3414444      0.998079566      2.77926338       
25.57            0.998120224      2.74535787       0.047902795      -86.3790184      0.047902795      -86.3790184      0.998120224      2.74535787       
25.84            0.99815962       2.71210892       0.0473230374     -86.4157902      0.0473230374     -86.4157902      0.99815962       2.71210892       
26.11            0.998197804      2.67949631       0.046754362      -86.4517825      0.046754362      -86.4517825      0.998197804      2.67949631       
26.38            0.998234824      2.64750059       0.0461964311     -86.4870168      0.0461964311     -86.4870168      0.998234824      2.64750059       
26.65            0.998270726      2.61610314       0.0456489204     -86.521514       0.0456489204     -86.521514       0.998270726      2.61610314       
26.92            0.998305552      2.58528603       0.0451115186     -86.5552939      0.0451115186     -86.5552939      0.998305552      2.58528603       
27.19            0.998339344      2.55503209       0.0445839266     -86.5883756      0.0445839266     -86.5883756      0.998339344      2.55503209       
27.46            0.998372141      2.52532478       0.0440658569     -86.6207774      0.0440658569     -86.6207774      0.998372141      2.52532478       
27.73            0.998403979      2.49614823       0.0435570333     -86.6525168      0.0435570333     -86.6525168      0.998403979      2.49614823       
28               0.998434895      2.46748716       0.0430571901     -86.6836107      0.0430571901     -86.6836107      0.998434895      2.46748716       
28.27            0.998464922      2.43932687       0.0425660716     -86.7140753      0.0425660716     -86.7140753      0.998464922      2.43932687       
28.54            0.998494093      2.41165322       0.0420834318     -86.7439261      0.0420834318     -86.7439261      0.998494093      2.41165322       
28.81            0.998522437      2.38445259       0.0416090336     -86.773178       0.0416090336     -86.773178       0.998522437      2.38445259       
29.08            0.998549986      2.35771188       0.041142649      -86.8018454      0.041142649      -86.8018454      0.998549986      2.35771188       
29.35            0.998576766      2.33141845       0.0406840582     -86.829942       0.0406840582     -86.829942       0.998576766      2.33141845       
29.62            0.998602805      2.30556013       0.0402330492     -86.8574811      0.0402330492     -86.8574811      0.998602805      2.30556013       
29.89            0.998628128      2.28012517       0.0397894178     -86.8844754      0.0397894178     -86.8844754      0.998628128      2.28012517       
30.16            0.99865276       2.25510227       0.0393529669     -86.9109372      0.0393529669     -86.9109372      0.99865276       2.25510227       
30.43            0.998676724      2.2304805        0.0389235066     -86.9368781      0.0389235066     -86.9368781      0.998676724      2.2304805        
30.7             0.998700042      2.20624932       0.0385008533     -86.9623096      0.0385008533     -86.9623096      0.998700042      2.20624932       
30.97            0.998722737      2.18239856       0.03808483       -86.9872425      0.03808483       -86.9872425      0.998722737      2.18239856       
31.24            0.998744829      2.1589184        0.0376752658     -87.0116873      0.0376752658     -87.0116873      0.998744829      2.1589184        
31.51            0.998766337      2.13579935       0.0372719955     -87.0356541      0.0372719955     -87.0356541      0.998766337      2.13579935       
31.78            0.99878728       2.11303225       0.0368748594     -87.0591525      0.0368748594     -87.0591525      0.99878728       2.11303225       
32.05            0.998807677      2.09060824       0.0364837033     -87.0821919      0.0364837033     -87.0821919      0.998807677      2.09060824       
32.32            0.998827545      2.06851875       0.0360983782     -87.1047813      0.0360983782     -87.1047813      0.998827545      2.06851875       
32.59            0.9988469        2.0467555        0.0357187399     -87.1269292      0.0357187399     -87.1269292      0.9988469        2.0467555        
32.86            0.998865759      2.02531048       0.0353446487     -87.1486441      0.0353446487     -87.1486441      0.998865759      2.02531048       
33.13            0.998884137      2.00417595       0.0349759698     -87.1699338      0.0349759698     -87.1699338      0.998884137      2.00417595       
33.4             0.998902049      1.98334439       0.0346125726     -87.1908062      0.0346125726     -87.1908062      0.998902049      1.98334439       
33.67            0.998919509      1.96280855       0.0342543305     -87.2112685      0.0342543305     -87.2112685      0.998919509      1.96280855       
33.94            0.99893653       1.9425614        0.0339011211     -87.2313279      0.0339011211     -87.2313279      0.99893653       1.9425614        
34.21            0.998953126      1.92259613       0.0335528259     -87.2509914      0.0335528259     -87.2509914      0.998953126      1.92259613       
34.48            0.99896931       1.90290613       0.0332093298     -87.2702653      0.0332093298     -87.2702653      0.99896931       1.90290613       
34.75            0.998985093      1.88348501       0.0328705215     -87.2891562      0.0328705215     -87.2891562      0.998985093      1.88348501       
35.02            0.999000487      1.86432658       0.0325362931     -87.3076701      0.0325362931     -87.3076701      0.999000487      1.86432658       
35.29            0.999015504      1.84542483       0.0322065399     -87.3258128      0.0322065399     -87.3258128      0.999015504      1.84542483       
35.56            0.999030154      1.82677393       0.0318811604     -87.34359        0.0318811604     -87.34359        0.999030154      1.82677393       
35.83            0.999044448      1.80836822       0.0315600561     -87.3610071      0.0315600561     -87.3610071      0.999044448      1.80836822       
36.1             0.999058395      1.79020224       0.0312431316     -87.3780692      0.0312431316     -87.3780692      0.999058395      1.79020224       
36.37            0.999072006      1.77227064       0.0309302941     -87.3947815      0.0309302941     -87.3947815      0.999072006      1.77227064       
36.64            0.99908529       1.75456828       0.0306214536     -87.4111486      0.0306214536     -87.4111486      0.99908529       1.75456828       
36.91            0.999098255      1.73709013       0.0303165228     -87.4271751      0.0303165228     -87.4271751      0.999098255      1.73709013       
37.18            0.999110912      1.71983133       0.0300154169     -87.4428655      0.0300154169     -87.4428655      0.999110912      1.71983133       
37.45            0.999123266      1.70278714       0.0297180535     -87.458224       0.0297180535     -87.458224       0.999123266      1.70278714       
37.72            0.999135328      1.68595298       0.0294243524     -87.4732546      0.0294243524     -87.4732546      0.999135328      1.68595298       
37.99            0.999147105      1.66932437       0.029134236      -87.4879612      0.029134236      -87.4879612      0.999147105      1.66932437       
38.26            0.999158604      1.65289698       0.0288476286     -87.5023475      0.0288476286     -87.5023475      0.999158604      1.65289698       
38.53            0.999169832      1.6366666        0.0285644568     -87.516417       0.0285644568     -87.516417       0.999169832      1.6366666        
38.8             0.999180797      1.62062911       0.0282846491     -87.5301731      0.0282846491     -87.5301731      0.999180797      1.62062911       
39.07            0.999191506      1.60478054       0.0280081359     -87.543619       0.0280081359     -87.543619       0.999191506      1.60478054       
39.34            0.999201964      1.58911701       0.0277348499     -87.5567578      0.0277348499     -87.5567578      0.999201964      1.58911701       
39.61            0.999212179      1.57363473       0.0274647251     -87.5695924      0.0274647251     -87.5695924      0.999212179      1.57363473       
39.88            0.999222156      1.55833005       0.0271976976     -87.5821256      0.0271976976     -87.5821256      0.999222156      1.55833005       
40.15            0.999231902      1.54319939       0.0269337052     -87.5943599      0.0269337052     -87.5943599      0.999231902      1.54319939       
40.42            0.999241421      1.52823927       0.0266726873     -87.6062979      0.0266726873     -87.6062979      0.999241421      1.52823927       
40.69            0.999250721      1.5134463        0.0264145848     -87.617942       0.0264145848     -87.617942       0.999250721      1.5134463        
40.96            0.999259805      1.4988172        0.0261593404     -87.6292943      0.0261593404     -87.6292943      0.999259805      1.4988172        
41.23            0.99926868       1.48434874       0.025906898      -87.6403569      0.025906898      -87.6403569      0.99926868       1.48434874       
41.5             0.99927735       1.47003781       0.0256572032     -87.6511319      0.0256572032     -87.6511319      0.99927735       1.47003781       
41.77            0.99928582       1.45588135       0.0254102028     -87.6616209      0.0254102028     -87.6616209      0.99928582       1.45588135       
42.04            0.999294095      1.4418764        0.0251658453     -87.6718258      0.0251658453     -87.6718258      0.999294095      1.4418764        
42.31            0.99930218       1.42802006       0.02492408       -87.6817481      0.02492408       -87.6817481      0.99930218       1.42802006       
42.58            0.999310079      1.41430952       0.024684858      -87.6913893      0.024684858      -87.6913893      0.999310079      1.41430952       
42.85            0.999317796      1.40074203       0.0244481312     -87.7007507      0.0244481312     -87.7007507      0.999317796      1.40074203       
43.12            0.999325335      1.3873149        0.024213853      -87.7098335      0.024213853      -87.7098335      0.999325335      1.3873149        
43.39            0.999332701      1.37402552       0.0239819778     -87.7186388      0.0239819778     -87.7186388      0.999332701      1.37402552       
43.66            0.999339897      1.36087135       0.0237524612     -87.7271677      0.0237524612     -87.7271677      0.999339897      1.36087135       
43.93            0.999346927      1.34784989       0.0235252599     -87.735421       0.0235252599     -87.735421       0.999346927      1.34784989       
44.2             0.999353795      1.33495872       0.0233003315     -87.7433994      0.0233003315     -87.7433994      0.999353795      1.33495872       
44.47            0.999360505      1.32219548       0.0230776348     -87.7511037      0.0230776348     -87.7511037      0.999360505      1.32219548       
44.74            0.999367059      1.30955785       0.0228571296     -87.7585343      0.0228571296     -87.7585343      0.999367059      1.30955785       
45.01            0.999373462      1.29704358       0.0226387765     -87.7656917      0.0226387765     -87.7656917      0.999373462      1.29704358       
45.28            0.999379716      1.28465046       0.0224225372     -87.7725762      0.0224225372     -87.7725762      0.999379716      1.28465046       
45.55            0.999385826      1.27237636       0.0222083742     -87.7791881      0.0222083742     -87.7791881      0.999385826      1.27237636       
45.82            0.999391793      1.26021916       0.0219962509     -87.7855273      0.0219962509     -87.7855273      0.999391793      1.26021916       
46.09            0.999397621      1.24817682       0.0217861316     -87.791594       0.0217861316     -87.791594       0.999397621      1.24817682       
46.36            0.999403312      1.23624734       0.0215779815     -87.7973879      0.0215779815     -87.7973879      0.999403312      1.23624734       
46.63            0.99940887       1.22442877       0.0213717663     -87.8029089      0.0213717663     -87.8029089      0.99940887       1.22442877       
46.9             0.999414298      1.21271918       0.0211674529     -87.8081567      0.0211674529     -87.8081567      0.999414298      1.21271918       
47.17            0.999419598      1.20111672       0.0209650087     -87.8131307      0.0209650087     -87.8131307      0.999419598      1.20111672       
47.44            0.999424772      1.18961955       0.0207644019     -87.8178304      0.0207644019     -87.8178304      0.999424772      1.18961955       
47.71            0.999429823      1.1782259        0.0205656013     -87.8222552      0.0205656013     -87.8222552      0.999429823      1.1782259        
47.98            0.999434755      1.16693403       0.0203685766     -87.8264042      0.0203685766     -87.8264042      0.999434755      1.16693403       
48.25            0.999439568      1.15574222       0.0201732982     -87.8302767      0.0201732982     -87.8302767      0.999439568      1.15574222       
48.52            0.999444265      1.14464882       0.0199797368     -87.8338715      0.0199797368     -87.8338715      0.999444265      1.14464882       
48.79            0.999448849      1.13365218       0.0197878643     -87.8371877      0.0197878643     -87.8371877      0.999448849      1.13365218       
49.06            0.999453322      1.12275072       0.0195976527     -87.8402238      0.0195976527     -87.8402238      0.999453322      1.12275072       
49.33            0.999457686      1.11194288       0.0194090748     -87.8429787      0.0194090748     -87.8429787      0.999457686      1.11194288       
49.6             0.999461943      1.10122714       0.0192221042     -87.8454509      0.0192221042     -87.8454509      0.999461943      1.10122714       
49.87            0.999466095      1.09060199       0.0190367148     -87.8476387      0.0190367148     -87.8476387      0.999466095      1.09060199       
50.14            0.999470144      1.08006599       0.0188528811     -87.8495405      0.0188528811     -87.8495405      0.999470144      1.08006599       
50.41            0.999474092      1.06961769       0.0186705782     -87.8511546      0.0186705782     -87.8511546      0.999474092      1.06961769       
50.68            0.999477941      1.05925571       0.0184897818     -87.8524788      0.0184897818     -87.8524788      0.999477941      1.05925571       
50.95            0.999481692      1.04897868       0.018310468      -87.8535113      0.018310468      -87.8535113      0.999481692      1.04897868       
51.22            0.999485348      1.03878524       0.0181326135     -87.8542497      0.0181326135     -87.8542497      0.999485348      1.03878524       
51.49            0.999488911      1.0286741        0.0179561954     -87.8546919      0.0179561954     -87.8546919      0.999488911      1.0286741        
51.76            0.999492381      1.01864396       0.0177811913     -87.8548352      0.0177811913     -87.8548352      0.999492381      1.01864396       
52.03            0.999495761      1.00869358       0.0176075792     -87.8546773      0.0176075792     -87.8546773      0.999495761      1.00869358       
52.3             0.999499052      0.998821703      0.0174353377     -87.8542154      0.0174353377     -87.8542154      0.999499052      0.998821703      
52.57            0.999502255      0.98902714       0.0172644459     -87.8534465      0.0172644459     -87.8534465      0.999502255      0.98902714       
52.84            0.999505373      0.979308704      0.0170948829     -87.8523678      0.0170948829     -87.8523678      0.999505373      0.979308704      
53.11            0.999508407      0.969665236      0.0169266288     -87.8509761      0.0169266288     -87.8509761      0.999508407      0.969665236      
53.38            0.999511358      0.960095601      0.0167596637     -87.8492682      0.0167596637     -87.8492682      0.999511358      0.960095601      
53.65            0.999514228      0.950598687      0.0165939683     -87.8472405      0.0165939683     -87.8472405      0.999514228      0.950598687      
53.92            0.999517017      0.941173404      0.0164295235     -87.8448896      0.0164295235     -87.8448896      0.999517017      0.941173404      
54.19            0.999519728      0.931818685      0.0162663107     -87.8422116      0.0162663107     -87.8422116      0.999519728      0.931818685      
54.46            0.999522362      0.922533481      0.0161043118     -87.8392028      0.0161043118     -87.8392028      0.999522362      0.922533481      
54.73            0.99952492       0.913316766      0.0159435088     -87.8358589      0.0159435088     -87.8358589      0.99952492       0.913316766      
55               0.999527402      0.904167534      0.0157838841     -87.8321759      0.0157838841     -87.8321759      0.999527402      0.904167534      
55.27            0.999529812      0.895084799      0.0156254208     -87.8281492      0.0156254208     -87.8281492      0.999529812      0.895084799      
55.54            0.999532149      0.886067593      0.0154681018     -87.8237743      0.0154681018     -87.8237743      0.999532149      0.886067593      
55.81            0.999534415      0.877114966      0.0153119106     -87.8190465      0.0153119106     -87.8190465      0.999534415      0.877114966      
56.08            0.99953661       0.868225989      0.0151568311     -87.8139607      0.0151568311     -87.8139607      0.99953661       0.868225989      
56.35            0.999538737      0.859399748      0.0150028473     -87.8085118      0.0150028473     -87.8085118      0.999538737      0.859399748      
56.62            0.999540796      0.850635348      0.0148499438     -87.8026945      0.0148499438     -87.8026945      0.999540796      0.850635348      
56.89            0.999542788      0.841931911      0.0146981051     -87.7965031      0.0146981051     -87.7965031      0.999542788      0.841931911      
57.16            0.999544715      0.833288575      0.0145473162     -87.789932       0.0145473162     -87.789932       0.999544715      0.833288575      
57.43            0.999546576      0.824704494      0.0143975626     -87.7829751      0.0143975626     -87.7829751      0.999546576      0.824704494      
57.7             0.999548374      0.816178839      0.0142488296     -87.7756263      0.0142488296     -87.7756263      0.999548374      0.816178839      
57.97            0.999550109      0.807710794      0.0141011032     -87.7678789      0.0141011032     -87.7678789      0.999550109      0.807710794      
58.24            0.999551783      0.799299561      0.0139543695     -87.7597264      0.0139543695     -87.7597264      0.999551783      0.799299561      
58.51            0.999553395      0.790944355      0.0138086147     -87.7511618      0.0138086147     -87.7511618      0.999553395      0.790944355      
58.78            0.999554948      0.782644405      0.0136638255     -87.7421778      0.0136638255     -87.7421778      0.999554948      0.782644405      
59.05            0.999556441      0.774398956      0.0135199888     -87.7327671      0.0135199888     -87.7327671      0.999556441      0.774398956      
59.32            0.999557876      0.766207266      0.0133770916     -87.7229218      0.0133770916     -87.7229218      0.999557876      0.766207266      
59.59            0.999559254      0.758068604      0.0132351213     -87.7126339      0.0132351213     -87.7126339      0.999559254      0.758068604      
59.86            0.999560575      0.749982256      0.0130940654     -87.7018951      0.0130940654     -87.7018951      0.999560575      0.749982256      
60.13            0.999561841      0.741947518      0.0129539117     -87.6906966      0.0129539117     -87.6906966      0.999561841      0.741947518      
60.4             0.999563051      0.733963701      0.0128146482     -87.6790296      0.0128146482     -87.6790296      0.999563051      0.733963701      
60.67            0.999564207      0.726030125      0.0126762632     -87.6668848      0.0126762632     -87.6668848      0.999564207      0.726030125      
60.94            0.99956531       0.718146125      0.012538745      -87.6542524      0.012538745      -87.6542524      0.99956531       0.718146125      
61.21            0.99956636       0.710311047      0.0124020823     -87.6411224      0.0124020823     -87.6411224      0.99956636       0.710311047      
61.48            0.999567358      0.702524247      0.0122662639     -87.6274845      0.0122662639     -87.6274845      0.999567358      0.702524247      
61.75            0.999568305      0.694785094      0.0121312789     -87.613328       0.0121312789     -87.613328       0.999568305      0.694785094      
62.02            0.999569201      0.687092967      0.0119971165     -87.5986415      0.0119971165     -87.5986415      0.999569201      0.687092967      
62.29            0.999570048      0.679447255      0.0118637661     -87.5834136      0.0118637661     -87.5834136      0.999570048      0.679447255      
62.56            0.999570845      0.671847361      0.0117312173     -87.5676322      0.0117312173     -87.5676322      0.999570845      0.671847361      
62.83            0.999571593      0.664292694      0.01159946       -87.5512848      0.01159946       -87.5512848      0.999571593      0.664292694      
63.1             0.999572294      0.656782676      0.011468484      -87.5343584      0.011468484      -87.5343584      0.999572294      0.656782676      
63.37            0.999572948      0.649316737      0.0113382795     -87.5168395      0.0113382795     -87.5168395      0.999572948      0.649316737      
63.64            0.999573554      0.641894318      0.0112088368     -87.4987142      0.0112088368     -87.4987142      0.999573554      0.641894318      
63.91            0.999574115      0.634514868      0.0110801464     -87.479968       0.0110801464     -87.479968       0.999574115      0.634514868      
64.18            0.99957463       0.627177848      0.010952199      -87.4605858      0.010952199      -87.4605858      0.99957463       0.627177848      
64.45            0.9995751        0.619882724      0.0108249853     -87.4405518      0.0108249853     -87.4405518      0.9995751        0.619882724      
64.72            0.999575526      0.612628974      0.0106984963     -87.4198499      0.0106984963     -87.4198499      0.999575526      0.612628974      
64.99            0.999575908      0.605416085      0.0105727231     -87.398463       0.0105727231     -87.398463       0.999575908      0.605416085      
65.26            0.999576246      0.598243549      0.0104476569     -87.3763735      0.0104476569     -87.3763735      0.999576246      0.598243549      
65.53            0.999576542      0.59111087       0.0103232893     -87.3535632      0.0103232893     -87.3535632      0.999576542      0.59111087       
65.8             0.999576796      0.584017558      0.0101996117     -87.330013       0.0101996117     -87.330013       0.999576796      0.584017558      
66.07            0.999577008      0.576963133      0.0100766158     -87.3057031      0.0100766158     -87.3057031      0.999577008      0.576963133      
66.34            0.999577179      0.56994712       0.00995429357    -87.2806128      0.00995429357    -87.2806128      0.999577179      0.56994712       
66.61            0.999577309      0.562969054      0.00983263688    -87.2547206      0.00983263688    -87.2547206      0.999577309      0.562969054      
66.88            0.999577398      0.556028476      0.00971163788    -87.2280041      0.00971163788    -87.2280041      0.999577398      0.556028476      
67.15            0.999577448      0.549124937      0.00959128883    -87.2004401      0.00959128883    -87.2004401      0.999577448      0.549124937      
67.42            0.999577459      0.542257991      0.00947158209    -87.1720042      0.00947158209    -87.1720042      0.999577459      0.542257991      
67.69            0.999577431      0.535427203      0.00935251018    -87.142671       0.00935251018    -87.142671       0.999577431      0.535427203      
67.96            0.999577364      0.528632143      0.00923406573    -87.1124143      0.00923406573    -87.1124143      0.999577364      0.528632143      
68.23            0.99957726       0.521872388      0.0091162415     -87.0812063      0.0091162415     -87.0812063      0.99957726       0.521872388      
68.5             0.999577118      0.515147522      0.00899903037    -87.0490182      0.00899903037    -87.0490182      0.999577118      0.515147522      
68.77            0.999576938      0.508457134      0.00888242535    -87.0158202      0.00888242535    -87.0158202      0.999576938      0.508457134      
69.04            0.999576722      0.501800823      0.00876641955    -86.9815807      0.00876641955    -86.9815807      0.999576722      0.501800823      
69.31            0.99957647       0.49517819       0.00865100621    -86.9462669      0.00865100621    -86.9462669      0.99957647       0.49517819       
69.58            0.999576182      0.488588845      0.00853617868    -86.9098446      0.00853617868    -86.9098446      0.999576182      0.488588845      
69.85            0.999575858      0.482032404      0.00842193042    -86.8722779      0.00842193042    -86.8722779      0.999575858      0.482032404      
70.12            0.999575499      0.475508486      0.00830825501    -86.8335293      0.00830825501    -86.8335293      0.999575499      0.475508486      
70.39            0.999575105      0.46901672       0.00819514613    -86.7935594      0.00819514613    -86.7935594      0.999575105      0.46901672       
70.66            0.999574677      0.462556738      0.00808259758    -86.7523272      0.00808259758    -86.7523272      0.999574677      0.462556738      
70.93            0.999574214      0.456128178      0.00797060325    -86.7097895      0.00797060325    -86.7097895      0.999574214      0.456128178      
71.2             0.999573718      0.449730684      0.00785915716    -86.6659011      0.00785915716    -86.6659011      0.999573718      0.449730684      
71.47            0.999573189      0.443363905      0.00774825342    -86.6206147      0.00774825342    -86.6206147      0.999573189      0.443363905      
71.74            0.999572626      0.437027495      0.00763788624    -86.5738804      0.00763788624    -86.5738804      0.999572626      0.437027495      
72.01            0.999572031      0.430721113      0.00752804993    -86.5256461      0.00752804993    -86.5256461      0.999572031      0.430721113      
72.28            0.999571404      0.424444426      0.00741873892    -86.4758569      0.00741873892    -86.4758569      0.999571404      0.424444426      
72.55            0.999570744      0.418197101      0.00730994773    -86.424455       0.00730994773    -86.424455       0.999570744      0.418197101      
72.82            0.999570053      0.411978815      0.00720167097    -86.3713798      0.00720167097    -86.3713798      0.999570053      0.411978815      
73.09            0.99956933       0.405789245      0.00709390338    -86.3165674      0.00709390338    -86.3165674      0.99956933       0.405789245      
73.36            0.999568576      0.399628076      0.00698663976    -86.2599506      0.00698663976    -86.2599506      0.999568576      0.399628076      
73.63            0.999567792      0.393494997      0.00687987503    -86.2014584      0.00687987503    -86.2014584      0.999567792      0.393494997      
73.9             0.999566976      0.387389701      0.00677360421    -86.1410163      0.00677360421    -86.1410163      0.999566976      0.387389701      
74.17            0.999566131      0.381311886      0.00666782242    -86.0785452      0.00666782242    -86.0785452      0.999566131      0.381311886      
74.44            0.999565256      0.375261253      0.00656252486    -86.013962       0.00656252486    -86.013962       0.999565256      0.375261253      
74.71            0.999564351      0.36923751       0.00645770685    -85.9471786      0.00645770685    -85.9471786      0.999564351      0.36923751       
74.98            0.999563416      0.363240366      0.0063533638     -85.878102       0.0063533638     -85.878102       0.999563416      0.363240366      
75.25            0.999562453      0.357269537      0.00624949121    -85.8066338      0.00624949121    -85.8066338      0.999562453      0.357269537      
75.52            0.99956146       0.351324741      0.00614608469    -85.7326696      0.00614608469    -85.7326696      0.99956146       0.351324741      
75.79            0.999560439      0.345405702      0.00604313995    -85.656099       0.00604313995    -85.656099       0.999560439      0.345405702      
76.06            0.99955939       0.339512145      0.00594065281    -85.5768046      0.00594065281    -85.5768046      0.99955939       0.339512145      
76.33            0.999558312      0.333643803      0.00583861918    -85.4946621      0.00583861918    -85.4946621      0.999558312      0.333643803      
76.6             0.999557207      0.327800408      0.00573703507    -85.4095391      0.00573703507    -85.4095391      0.999557207      0.327800408      
76.87            0.999556074      0.3219817        0.00563589662    -85.321295       0.00563589662    -85.321295       0.999556074      0.3219817        
77.14            0.999554914      0.31618742       0.00553520005    -85.22978        0.00553520005    -85.22978        0.999554914      0.31618742       
77.41            0.999553726      0.310417314      0.00543494172    -85.1348344      0.00543494172    -85.1348344      0.999553726      0.310417314      
77.68            0.999552512      0.30467113       0.00533511808    -85.0362881      0.00533511808    -85.0362881      0.999552512      0.30467113       
77.95            0.999551271      0.298948621      0.00523572572    -84.9339593      0.00523572572    -84.9339593      0.999551271      0.298948621      
78.22            0.999550003      0.293249544      0.00513676133    -84.8276537      0.00513676133    -84.8276537      0.999550003      0.293249544      
78.49            0.999548709      0.287573656      0.00503822174    -84.7171634      0.00503822174    -84.7171634      0.999548709      0.287573656      
78.76            0.99954739       0.281920721      0.0049401039     -84.6022658      0.0049401039     -84.6022658      0.99954739       0.281920721      
79.03            0.999546044      0.276290505      0.00484240492    -84.4827219      0.00484240492    -84.4827219      0.999546044      0.276290505      
79.3             0.999544673      0.270682777      0.00474512203    -84.3582754      0.00474512203    -84.3582754      0.999544673      0.270682777      
79.57            0.999543276      0.265097308      0.00464825262    -84.2286504      0.00464825262    -84.2286504      0.999543276      0.265097308      
79.84            0.999541854      0.259533873      0.00455179424    -84.0935503      0.00455179424    -84.0935503      0.999541854      0.259533873      
80.11            0.999540408      0.253992252      0.0044557446     -83.952655       0.0044557446     -83.952655       0.999540408      0.253992252      
80.38            0.999538936      0.248472225      0.0043601016     -83.8056192      0.0043601016     -83.8056192      0.999538936      0.248472225      
80.65            0.99953744       0.242973577      0.00426486332    -83.6520695      0.00426486332    -83.6520695      0.99953744       0.242973577      
80.92            0.999535919      0.237496094      0.00417002805    -83.4916019      0.00417002805    -83.4916019      0.999535919      0.237496094      
81.19            0.999534374      0.232039566      0.00407559431    -83.3237781      0.00407559431    -83.3237781      0.999534374      0.232039566      
81.46            0.999532805      0.226603786      0.00398156084    -83.1481223      0.00398156084    -83.1481223      0.999532805      0.226603786      
81.73            0.999531212      0.221188549      0.00388792665    -82.9641167      0.00388792665    -82.9641167      0.999531212      0.221188549      
82               0.999529596      0.215793654      0.00379469101    -82.7711974      0.00379469101    -82.7711974      0.999529596      0.215793654      
82.27            0.999527956      0.210418901      0.00370185353    -82.5687484      0.00370185353    -82.5687484      0.999527956      0.210418901      
82.54            0.999526292      0.205064093      0.00360941414    -82.3560965      0.00360941414    -82.3560965      0.999526292      0.205064093      
82.81            0.999524606      0.199729037      0.00351737312    -82.1325036      0.00351737312    -82.1325036      0.999524606      0.199729037      
83.08            0.999522896      0.19441354       0.00342573119    -81.8971593      0.00342573119    -81.8971593      0.999522896      0.19441354       
83.35            0.999521164      0.189117414      0.00333448951    -81.6491719      0.00333448951    -81.6491719      0.999521164      0.189117414      
83.62            0.999519408      0.183840472      0.00324364975    -81.3875582      0.00324364975    -81.3875582      0.999519408      0.183840472      
83.89            0.999517631      0.178582529      0.00315321416    -81.111231       0.00315321416    -81.111231       0.999517631      0.178582529      
84.16            0.999515831      0.173343405      0.00306318561    -80.8189861      0.00306318561    -80.8189861      0.999515831      0.173343405      
84.43            0.999514008      0.168122919      0.00297356771    -80.5094855      0.00297356771    -80.5094855      0.999514008      0.168122919      
84.7             0.999512164      0.162920894      0.00288436487    -80.1812392      0.00288436487    -80.1812392      0.999512164      0.162920894      
84.97            0.999510297      0.157737155      0.00279558245    -79.8325831      0.00279558245    -79.8325831      0.999510297      0.157737155      
85.24            0.999508409      0.152571529      0.00270722688    -79.4616532      0.00270722688    -79.4616532      0.999508409      0.152571529      
85.51            0.9995065        0.147423846      0.00261930581    -79.0663555      0.00261930581    -79.0663555      0.9995065        0.147423846      
85.78            0.999504568      0.142293937      0.0025318283     -78.6443302      0.0025318283     -78.6443302      0.999504568      0.142293937      
86.05            0.999502616      0.137181635      0.00244480506    -78.1929086      0.00244480506    -78.1929086      0.999502616      0.137181635      
86.32            0.999500642      0.132086778      0.00235824875    -77.7090627      0.00235824875    -77.7090627      0.999500642      0.132086778      
86.59            0.999498647      0.127009202      0.00227217423    -77.1893443      0.00227217423    -77.1893443      0.999498647      0.127009202      
86.86            0.999496631      0.121948747      0.00218659904    -76.6298111      0.00218659904    -76.6298111      0.999496631      0.121948747      
87.13            0.999494594      0.116905255      0.00210154385    -76.0259385      0.00210154385    -76.0259385      0.999494594      0.116905255      
87.4             0.999492537      0.111878569      0.00201703308    -75.3725117      0.00201703308    -75.3725117      0.999492537      0.111878569      
87.67            0.999490459      0.106868536      0.00193309563    -74.6634938      0.00193309563    -74.6634938      0.999490459      0.106868536      
87.94            0.99948836       0.101875003      0.0018497658     -73.891865       0.0018497658     -73.891865       0.99948836       0.101875003      
88.21            0.999486242      0.0968978195     0.00176708447    -73.0494238      0.00176708447    -73.0494238      0.999486242      0.0968978195     
88.48            0.999484103      0.0919368365     0.00168510055    -72.126542       0.00168510055    -72.126542       0.999484103      0.0919368365     
88.75            0.999481944      0.0869919073     0.00160387278    -71.1118601      0.00160387278    -71.1118601      0.999481944      0.0869919073     
89.02            0.999479765      0.0820628868     0.00152347217    -69.9919093      0.00152347217    -69.9919093      0.999479765      0.0820628868     
89.29            0.999477566      0.0771496315     0.00144398497    -68.7506411      0.00144398497    -68.7506411      0.999477566      0.0771496315     
89.56            0.999475348      0.0722519998     0.00136551663    -67.3688418      0.00136551663    -67.3688418      0.999475348      0.0722519998     
89.83            0.999473109      0.0673698518     0.00128819688    -65.8234081      0.00128819688    -65.8234081      0.999473109      0.0673698518     
90.1             0.999470852      0.0625030493     0.00121218641    -64.086459       0.00121218641    -64.086459       0.999470852      0.0625030493     
90.37            0.999468575      0.0576514556     0.00113768562    -62.124266       0.00113768562    -62.124266       0.999468575      0.0576514556     
90.64            0.999466279      0.0528149357     0.00106494609    -59.8960078      0.00106494609    -59.8960078      0.999466279      0.0528149357     
90.91            0.999463963      0.0479933563     0.000994285522   -57.3524097      0.000994285522   -57.3524097      0.999463963      0.0479933563     
91.18            0.999461629      0.0431865857     0.000926106975   -54.4344444      0.000926106975   -54.4344444      0.999461629      0.0431865857     
91.45            0.999459275      0.0383944934     0.000860923028   -51.0725044      0.000860923028   -51.0725044      0.999459275      0.0383944934     
91.72            0.999456903      0.033616951      0.000799384531   -47.1868672      0.000799384531   -47.1868672      0.999456903      0.033616951      
91.99            0.999454512      0.0288538311     0.000742311581   -42.6909529      0.000742311581   -42.6909529      0.999454512      0.0288538311     
92.26            0.999452102      0.0241050082     0.000690719738   -37.49976        0.000690719738   -37.49976        0.999452102      0.0241050082     
92.53            0.999449674      0.0193703578     0.000645826623   -31.5465197      0.000645826623   -31.5465197      0.999449674      0.0193703578     
92.8             0.999447227      0.0146497574     0.000609013702   -24.8096487      0.000609013702   -24.8096487      0.999447227      0.0146497574     
93.07            0.999444762      0.00994308554    0.000581712062   -17.3471173      0.000581712062   -17.3471173      0.999444762      0.00994308554    
93.34            0.999442278      0.00525022225    0.000565195242   -9.32515257      0.000565195242   -9.32515257      0.999442278      0.00525022225    
93.61            0.999439777      0.00057104899    0.000560312019   -1.01864519      0.000560312019   -1.01864519      0.999439777      0.00057104899    
93.88            0.999437257      -0.00409455144   0.000567260049   7.23325677       0.000567260049   7.23325677       0.999437257      -0.00409455144   
94.15            0.999434719      -0.00874669487   0.000585520186   15.1042245       0.000585520186   15.1042245       0.999434719      -0.00874669487   
94.42            0.999432164      -0.0133854958    0.000613991842   22.3509768       0.000613991842   22.3509768       0.999432164      -0.0133854958    
94.69            0.99942959       -0.0180110676    0.000651251488   28.8432114       0.000651251488   28.8432114       0.99942959       -0.0180110676    
94.96            0.999426999      -0.022623522     0.000695809803   34.5517402       0.000695809803   34.5517402       0.999426999      -0.022623522     
95.23            0.99942439       -0.0272229697    0.000746287958   39.5158646       0.000746287958   39.5158646       0.99942439       -0.0272229697    
95.5             0.999421764      -0.0318095202    0.00080150154    43.8104982       0.00080150154    43.8104982       0.999421764      -0.0318095202    
95.77            0.99941912       -0.0363832815    0.000860478187   47.5224846       0.000860478187   47.5224846       0.99941912       -0.0363832815    
96.04            0.999416459      -0.0409443608    0.000922440017   50.7368542       0.000922440017   50.7368542       0.999416459      -0.0409443608    
96.31            0.99941378       -0.0454928636    0.000986772867   53.5303276       0.000986772867   53.5303276       0.99941378       -0.0454928636    
96.58            0.999411084      -0.0500288945    0.00105299421    55.9691506       0.00105299421    55.9691506       0.999411084      -0.0500288945    
96.85            0.999408371      -0.054552557     0.00112072481    58.109159        0.00112072481    58.109159        0.999408371      -0.054552557     
97.12            0.999405641      -0.0590639534    0.00118966555    59.9968201       0.00118966555    59.9968201       0.999405641      -0.0590639534    
97.39            0.999402894      -0.0635631846    0.00125957921    61.6705802       0.00125957921    61.6705802       0.999402894      -0.0635631846    
97.66            0.99940013       -0.0680503507    0.00133027643    63.1622019       0.00133027643    63.1622019       0.99940013       -0.0680503507    
97.93            0.999397349      -0.0725255506    0.00140160494    64.4979565       0.00140160494    64.4979565       0.999397349      -0.0725255506    
98.2             0.999394551      -0.0769888821    0.00147344147    65.6996361       0.00147344147    65.6996361       0.999394551      -0.0769888821    
98.47            0.999391737      -0.0814404419    0.00154568546    66.7853879       0.00154568546    66.7853879       0.999391737      -0.0814404419    
98.74            0.999388906      -0.0858803256    0.00161825434    67.7703914       0.00161825434    67.7703914       0.999388906      -0.0858803256    
99.01            0.999386058      -0.0903086279    0.00169107986    68.6674061       0.00169107986    68.6674061       0.999386058      -0.0903086279    
99.28            0.999383194      -0.0947254424    0.00176410523    69.4872099       0.00176410523    69.4872099       0.999383194      -0.0947254424    
99.55            0.999380314      -0.0991308616    0.00183728295    70.2389524       0.00183728295    70.2389524       0.999380314      -0.0991308616    
99.82            0.999377417      -0.103524977     0.00191057305    70.9304395       0.00191057305    70.9304395       0.999377417      -0.103524977     
100.09           0.999374504      -0.107907879     0.00198394174    71.5683624       0.00198394174    71.5683624       0.999374504      -0.107907879     
100.36           0.999371574      -0.112279658     0.00205736029    72.1584834       0.00205736029    72.1584834       0.999371574      -0.112279658     
100.63           0.999368629      -0.116640402     0.00213080422    72.7057874       0.00213080422    72.7057874       0.999368629      -0.116640402     
100.9            0.999365667      -0.120990199     0.00220425253    73.2146054       0.00220425253    73.2146054       0.999365667      -0.120990199     
101.17           0.999362689      -0.125329135     0.00227768718    73.6887154       0.00227768718    73.6887154       0.999362689      -0.125329135     
101.44           0.999359696      -0.129657297     0.0023510926     74.1314262       0.0023510926     74.1314262       0.999359696      -0.129657297     
101.71           0.999356686      -0.133974769     0.00242445534    74.5456469       0.00242445534    74.5456469       0.999356686      -0.133974769     
101.98           0.999353661      -0.138281635     0.00249776371    74.933944        0.00249776371    74.933944        0.999353661      -0.138281635     
102.25           0.999350619      -0.142577979     0.00257100756    75.2985895       0.00257100756    75.2985895       0.999350619      -0.142577979     
102.52           0.999347562      -0.146863882     0.00264417805    75.6416017       0.00264417805    75.6416017       0.999347562      -0.146863882     
102.79           0.99934449       -0.151139426     0.00271726746    75.9647786       0.00271726746    75.9647786       0.99934449       -0.151139426     
103.06           0.999341402      -0.155404692     0.00279026904    76.2697272       0.00279026904    76.2697272       0.999341402      -0.155404692     
103.33           0.999338298      -0.159659759     0.00286317691    76.5578876       0.00286317691    76.5578876       0.999338298      -0.159659759     
103.6            0.999335178      -0.163904706     0.00293598589    76.8305538       0.00293598589    76.8305538       0.999335178      -0.163904706     
103.87           0.999332044      -0.168139611     0.00300869149    77.0888919       0.00300869149    77.0888919       0.999332044      -0.168139611     
104.14           0.999328894      -0.172364552     0.00308128973    77.3339549       0.00308128973    77.3339549       0.999328894      -0.172364552     
104.41           0.999325728      -0.176579604     0.00315377717    77.5666962       0.00315377717    77.5666962       0.999325728      -0.176579604     
104.68           0.999322547      -0.180784843     0.00322615077    77.7879812       0.00322615077    77.7879812       0.999322547      -0.180784843     
104.95           0.999319352      -0.184980345     0.00329840791    77.9985965       0.00329840791    77.9985965       0.999319352      -0.184980345     
105.22           0.99931614       -0.189166183     0.00337054628    78.1992592       0.00337054628    78.1992592       0.99931614       -0.189166183     
105.49           0.999312914      -0.19334243      0.00344256388    78.390624        0.00344256388    78.390624        0.999312914      -0.19334243      
105.76           0.999309673      -0.19750916      0.00351445899    78.5732901       0.00351445899    78.5732901       0.999309673      -0.19750916      
106.03           0.999306417      -0.201666444     0.00358623013    78.7478065       0.00358623013    78.7478065       0.999306417      -0.201666444     
106.3            0.999303145      -0.205814352     0.00365787601    78.9146774       0.00365787601    78.9146774       0.999303145      -0.205814352     
106.57           0.999299859      -0.209952957     0.00372939556    79.0743665       0.00372939556    79.0743665       0.999299859      -0.209952957     
106.84           0.999296558      -0.214082326     0.00380078786    79.2273012       0.00380078786    79.2273012       0.999296558      -0.214082326     
107.11           0.999293242      -0.218202529     0.00387205216    79.3738757       0.00387205216    79.3738757       0.999293242      -0.218202529     
107.38           0.999289911      -0.222313634     0.00394318783    79.5144544       0.00394318783    79.5144544       0.999289911      -0.222313634     
107.65           0.999286566      -0.22641571      0.00401419437    79.6493746       0.00401419437    79.6493746       0.999286566      -0.22641571      
107.92           0.999283206      -0.230508822     0.00408507141    79.778949        0.00408507141    79.778949        0.999283206      -0.230508822     
108.19           0.999279831      -0.234593037     0.00415581866    79.9034676       0.00415581866    79.9034676       0.999279831      -0.234593037     
108.46           0.999276442      -0.23866842      0.00422643592    80.0232001       0.00422643592    80.0232001       0.999276442      -0.23866842      
108.73           0.999273038      -0.242735037     0.00429692309    80.1383975       0.00429692309    80.1383975       0.999273038      -0.242735037     
109              0.99926962       -0.246792952     0.00436728012    80.2492935       0.00436728012    80.2492935       0.99926962       -0.246792952     
109.27           0.999266187      -0.250842228     0.00443750705    80.3561064       0.00443750705    80.3561064       0.999266187      -0.250842228     
109.54           0.99926274       -0.254882928     0.00450760397    80.4590397       0.00450760397    80.4590397       0.99926274       -0.254882928     
109.81           0.999259279      -0.258915115     0.00457757103    80.5582839       0.00457757103    80.5582839       0.999259279      -0.258915115     
110              0.999256834      -0.26174751      0.00462672936    80.6260077       0.00462672936    80.6260077       0.999256834      -0.26174751      
