! Coilcraft 1812CS-102 Chip Inductor				
! 31 July 2002			
# MHZ S MA R 50
!Freq             MagS11           AngS11           MagS21           AngS21           MagS12           AngS12           MagS22           AngS22
1                0.0640339794     72.0300204       0.982134918      -3.55566603      0.982134918      -3.55566603      0.0640339794     72.0300204       
2.17             0.134549897      74.7568282       0.97332059       -7.66464179      0.97332059       -7.66464179      0.134549897      74.7568282       
3.34             0.203436641      72.9693066       0.960322764      -11.6862475      0.960322764      -11.6862475      0.203436641      72.9693066       
4.51             0.269435631      70.198786        0.943423916      -15.5873567      0.943423916      -15.5873567      0.269435631      70.198786        
5.68             0.331804024      67.1368881       0.923180236      -19.3402318      0.923180236      -19.3402318      0.331804024      67.1368881       
6.85             0.390060048      64.0231391       0.900248797      -22.9237902      0.900248797      -22.9237902      0.390060048      64.0231391       
8.02             0.443940382      60.9652953       0.875305453      -26.3238014      0.875305453      -26.3238014      0.443940382      60.9652953       
9.19             0.493366751      58.0181516       0.84899163       -29.5324212      0.84899163       -29.5324212      0.493366751      58.0181516       
10.36            0.538408305      55.210286        0.821881016      -32.5473227      0.821881016      -32.5473227      0.538408305      55.210286        
11.53            0.579242852      52.5554336       0.794462344      -35.3706419      0.794462344      -35.3706419      0.579242852      52.5554336       
12.7             0.616121049      50.0582549       0.76713451       -38.0079015      0.76713451       -38.0079015      0.616121049      50.0582549       
13.87            0.649336137      47.7176768       0.740210182      -40.4670211      0.740210182      -40.4670211      0.649336137      47.7176768       
15.04            0.679200227      45.5290086       0.713924468      -42.7574726      0.713924468      -42.7574726      0.679200227      45.5290086       
16.21            0.706026926      43.4853516       0.688445987      -44.8895988      0.688445987      -44.8895988      0.706026926      43.4853516       
17.38            0.730119468      41.5785619       0.663888451      -46.8740914      0.663888451      -46.8740914      0.730119468      41.5785619       
18.55            0.751763267      39.7999075       0.640321633      -48.7216086      0.640321633      -48.7216086      0.751763267      39.7999075       
19.72            0.771221791      38.1405148       0.617781089      -50.4425097      0.617781089      -50.4425097      0.771221791      38.1405148       
20.89            0.788734816      36.5916624       0.596276423      -52.0466806      0.596276423      -52.0466806      0.788734816      36.5916624       
22.06            0.804518286      35.144969        0.575798067      -53.5434295      0.575798067      -53.5434295      0.804518286      35.144969        
23.23            0.818765201      33.7925046       0.556322716      -54.9414333      0.556322716      -54.9414333      0.818765201      33.7925046       
24.4             0.831647101      32.5268503       0.537817589      -56.2487205      0.537817589      -56.2487205      0.831647101      32.5268503       
25.57            0.843315863      31.3411209       0.520243707      -57.4726785      0.520243707      -57.4726785      0.843315863      31.3411209       
26.74            0.853905599      30.2289638       0.503558382      -58.6200776      0.503558382      -58.6200776      0.853905599      30.2289638       
27.91            0.863534546      29.1845433       0.487717058      -59.6971045      0.487717058      -59.6971045      0.863534546      29.1845433       
29.08            0.872306849      28.2025141       0.472674667      -60.7094009      0.472674667      -60.7094009      0.872306849      28.2025141       
30.25            0.880314224      27.2779906       0.458386599      -61.6621052      0.458386599      -61.6621052      0.880314224      27.2779906       
31.42            0.887637461      26.406513        0.444809369      -62.5598937      0.444809369      -62.5598937      0.887637461      26.406513        
32.59            0.894347763      25.5840139       0.431901077      -63.4070208      0.431901077      -63.4070208      0.894347763      25.5840139       
33.76            0.900507952      24.8067846       0.419621688      -64.2073573      0.419621688      -64.2073573      0.900507952      24.8067846       
34.93            0.906173508      24.0714435       0.407933201      -64.9644261      0.407933201      -64.9644261      0.906173508      24.0714435       
36.1             0.9113935        23.3749065       0.396799725      -65.6814352      0.396799725      -65.6814352      0.9113935        23.3749065       
37.27            0.916211389      22.7143592       0.386187487      -66.361308       0.386187487      -66.361308       0.916211389      22.7143592       
38.44            0.920665725      22.0872318       0.376064801      -67.0067106      0.376064801      -67.0067106      0.920665725      22.0872318       
39.61            0.924790764      21.4911757       0.366402005      -67.6200773      0.366402005      -67.6200773      0.924790764      21.4911757       
40.78            0.928616993      20.9240425       0.357171374      -68.2036324      0.357171374      -68.2036324      0.928616993      20.9240425       
41.95            0.932171594      20.3838651       0.34834703       -68.759411       0.34834703       -68.759411       0.932171594      20.3838651       
43.12            0.935478846      19.8688405       0.33990483       -69.2892772      0.33990483       -69.2892772      0.935478846      19.8688405       
44.29            0.93856047       19.3773141       0.331822271      -69.7949404      0.331822271      -69.7949404      0.93856047       19.3773141       
45.46            0.941435932      18.9077661       0.324078377      -70.2779699      0.324078377      -70.2779699      0.941435932      18.9077661       
46.63            0.944122712      18.4587983       0.316653604      -70.7398085      0.316653604      -70.7398085      0.944122712      18.4587983       
47.8             0.94663653       18.0291237       0.309529735      -71.181784       0.309529735      -71.181784       0.94663653       18.0291237       
48.97            0.948991549      17.6175554       0.30268979       -71.6051199      0.30268979       -71.6051199      0.948991549      17.6175554       
50.14            0.951200548      17.2229983       0.296117938      -72.0109451      0.296117938      -72.0109451      0.951200548      17.2229983       
51.31            0.953275081      16.8444403       0.289799412      -72.4003022      0.289799412      -72.4003022      0.953275081      16.8444403       
52.48            0.955225608      16.480945        0.28372043       -72.7741557      0.28372043       -72.7741557      0.955225608      16.480945        
53.65            0.957061613      16.1316454       0.277868125      -73.1333984      0.277868125      -73.1333984      0.957061613      16.1316454       
54.82            0.958791711      15.7957373       0.272230478      -73.478858       0.272230478      -73.478858       0.958791711      15.7957373       
55.99            0.96042374       15.4724745       0.266796251      -73.8113025      0.266796251      -73.8113025      0.96042374       15.4724745       
57.16            0.961964838      15.1611632       0.261554936      -74.1314457      0.261554936      -74.1314457      0.961964838      15.1611632       
58.33            0.963421518      14.8611584       0.256496696      -74.4399512      0.256496696      -74.4399512      0.963421518      14.8611584       
59.5             0.964799731      14.571859        0.251612317      -74.7374371      0.251612317      -74.7374371      0.964799731      14.571859        
60.67            0.966104922      14.2927049       0.246893165      -75.0244793      0.246893165      -75.0244793      0.966104922      14.2927049       
61.84            0.967342078      14.0231734       0.242331142      -75.3016154      0.242331142      -75.3016154      0.967342078      14.0231734       
63.01            0.968515775      13.7627762       0.237918646      -75.5693473      0.237918646      -75.5693473      0.968515775      13.7627762       
64.18            0.969630216      13.5110566       0.23364854       -75.8281442      0.23364854       -75.8281442      0.969630216      13.5110566       
65.35            0.970689268      13.2675873       0.229514114      -76.0784454      0.229514114      -76.0784454      0.970689268      13.2675873       
66.52            0.97169649       13.0319679       0.225509059      -76.3206622      0.225509059      -76.3206622      0.97169649       13.0319679       
67.69            0.972655164      12.8038231       0.221627434      -76.5551803      0.221627434      -76.5551803      0.972655164      12.8038231       
68.86            0.973568319      12.5828006       0.217863648      -76.7823616      0.217863648      -76.7823616      0.973568319      12.5828006       
70.03            0.974438757      12.3685694       0.214212427      -77.002546       0.214212427      -77.002546       0.974438757      12.3685694       
71.2             0.975269066      12.1608183       0.210668801      -77.2160531      0.210668801      -77.2160531      0.975269066      12.1608183       
72.37            0.976061646      11.9592547       0.207228076      -77.4231836      0.207228076      -77.4231836      0.976061646      11.9592547       
73.54            0.976818721      11.7636028       0.203885821      -77.6242205      0.203885821      -77.6242205      0.976818721      11.7636028       
74.71            0.977542355      11.5736028       0.200637849      -77.8194306      0.200637849      -77.8194306      0.977542355      11.5736028       
75.88            0.978234467      11.3890096       0.197480199      -78.0090655      0.197480199      -78.0090655      0.978234467      11.3890096       
77.05            0.978896839      11.2095919       0.194409125      -78.1933626      0.194409125      -78.1933626      0.978896839      11.2095919       
78.22            0.979531132      11.0351312       0.191421078      -78.3725464      0.191421078      -78.3725464      0.979531132      11.0351312       
79.39            0.980138893      10.8654209       0.188512696      -78.5468287      0.188512696      -78.5468287      0.980138893      10.8654209       
80.56            0.980721566      10.7002656       0.185680793      -78.7164101      0.185680793      -78.7164101      0.980721566      10.7002656       
81.73            0.981280495      10.5394803       0.182922345      -78.8814805      0.182922345      -78.8814805      0.981280495      10.5394803       
82.9             0.981816941      10.3828897       0.180234485      -79.0422197      0.180234485      -79.0422197      0.981816941      10.3828897       
84.07            0.982332079      10.2303278       0.177614486      -79.198798       0.177614486      -79.198798       0.982332079      10.2303278       
85.24            0.982827011      10.081637        0.17505976       -79.3513772      0.17505976       -79.3513772      0.982827011      10.081637        
86.41            0.983302768      9.93666761       0.172567844      -79.5001107      0.172567844      -79.5001107      0.983302768      9.93666761       
87.58            0.983760316      9.79527772       0.170136396      -79.6451441      0.170136396      -79.6451441      0.983760316      9.79527772       
88.75            0.984200563      9.65733228       0.167763188      -79.7866158      0.167763188      -79.7866158      0.984200563      9.65733228       
89.92            0.98462436       9.52270292       0.165446095      -79.9246576      0.165446095      -79.9246576      0.98462436       9.52270292       
91.09            0.985032507      9.39126749       0.163183096      -80.0593947      0.163183096      -80.0593947      0.985032507      9.39126749       
92.26            0.985425757      9.26290973       0.160972262      -80.1909462      0.160972262      -80.1909462      0.985425757      9.26290973       
93.43            0.985804817      9.13751886       0.158811753      -80.3194256      0.158811753      -80.3194256      0.985804817      9.13751886       
94.6             0.986170353      9.01498933       0.156699813      -80.4449413      0.156699813      -80.4449413      0.986170353      9.01498933       
95.77            0.986522993      8.89522045       0.154634768      -80.5675962      0.154634768      -80.5675962      0.986522993      8.89522045       
96.94            0.986863329      8.7781162        0.152615015      -80.6874889      0.152615015      -80.6874889      0.986863329      8.7781162        
98.11            0.987191921      8.66358488       0.150639025      -80.8047133      0.150639025      -80.8047133      0.987191921      8.66358488       
99.28            0.987509294      8.55153893       0.148705335      -80.919359       0.148705335      -80.919359       0.987509294      8.55153893       
100.45           0.987815948      8.44189468       0.146812546      -81.0315117      0.146812546      -81.0315117      0.987815948      8.44189468       
101.62           0.988112353      8.33457213       0.144959318      -81.1412534      0.144959318      -81.1412534      0.988112353      8.33457213       
102.79           0.988398954      8.22949479       0.14314437       -81.2486623      0.14314437       -81.2486623      0.988398954      8.22949479       
103.96           0.988676173      8.12658943       0.141366473      -81.3538133      0.141366473      -81.3538133      0.988676173      8.12658943       
105.13           0.988944408      8.02578597       0.139624451      -81.4567783      0.139624451      -81.4567783      0.988944408      8.02578597       
106.3            0.989204039      7.92701728       0.137917175      -81.5576259      0.137917175      -81.5576259      0.989204039      7.92701728       
107.47           0.989455424      7.83021904       0.136243564      -81.6564218      0.136243564      -81.6564218      0.989455424      7.83021904       
108.64           0.989698901      7.73532957       0.13460258       -81.7532291      0.13460258       -81.7532291      0.989698901      7.73532957       
109.81           0.989934796      7.64228975       0.132993226      -81.8481084      0.132993226      -81.8481084      0.989934796      7.64228975       
110.98           0.990163412      7.55104284       0.131414547      -81.9411174      0.131414547      -81.9411174      0.990163412      7.55104284       
112.15           0.990385043      7.46153439       0.129865622      -82.0323119      0.129865622      -82.0323119      0.990385043      7.46153439       
113.32           0.990599963      7.37371211       0.12834557       -82.1217454      0.12834557       -82.1217454      0.990599963      7.37371211       
114.49           0.990808438      7.28752576       0.126853542      -82.209469       0.126853542      -82.209469       0.990808438      7.28752576       
115.66           0.991010716      7.20292709       0.125388722      -82.295532       0.125388722      -82.295532       0.991010716      7.20292709       
116.83           0.991207036      7.11986971       0.123950324      -82.3799819      0.123950324      -82.3799819      0.991207036      7.11986971       
118              0.991397626      7.03830898       0.122537594      -82.462864       0.122537594      -82.462864       0.991397626      7.03830898       
119.17           0.9915827        6.95820198       0.121149804      -82.5442221      0.121149804      -82.5442221      0.9915827        6.95820198       
120.34           0.991762466      6.87950742       0.119786254      -82.6240984      0.119786254      -82.6240984      0.991762466      6.87950742       
121.51           0.99193712       6.80218551       0.11844627       -82.7025334      0.11844627       -82.7025334      0.99193712       6.80218551       
122.68           0.99210685       6.72619797       0.117129201      -82.779566       0.117129201      -82.779566       0.99210685       6.72619797       
123.85           0.992271834      6.6515079        0.115834421      -82.8552338      0.115834421      -82.8552338      0.992271834      6.6515079        
125.02           0.992432243      6.57807974       0.114561326      -82.929573       0.114561326      -82.929573       0.992432243      6.57807974       
126.19           0.992588241      6.50587921       0.113309334      -83.0026184      0.113309334      -83.0026184      0.992588241      6.50587921       
127.36           0.992739984      6.43487328       0.112077883      -83.0744036      0.112077883      -83.0744036      0.992739984      6.43487328       
128.53           0.99288762       6.36503005       0.110866429      -83.1449609      0.110866429      -83.1449609      0.99288762       6.36503005       
129.7            0.993031293      6.29631877       0.109674449      -83.2143216      0.109674449      -83.2143216      0.993031293      6.29631877       
130.87           0.993171138      6.22870973       0.108501439      -83.2825159      0.108501439      -83.2825159      0.993171138      6.22870973       
132.04           0.993307288      6.16217427       0.107346908      -83.3495726      0.107346908      -83.3495726      0.993307288      6.16217427       
133.21           0.993439866      6.09668471       0.106210385      -83.41552        0.106210385      -83.41552        0.993439866      6.09668471       
134.38           0.993568992      6.03221428       0.105091414      -83.480385       0.105091414      -83.480385       0.993568992      6.03221428       
135.55           0.993694782      5.96873715       0.103989555      -83.5441939      0.103989555      -83.5441939      0.993694782      5.96873715       
136.72           0.993817345      5.90622832       0.102904379      -83.6069718      0.102904379      -83.6069718      0.993817345      5.90622832       
137.89           0.993936787      5.84466365       0.101835476      -83.6687431      0.101835476      -83.6687431      0.993936787      5.84466365       
139.06           0.994053209      5.78401975       0.100782445      -83.7295314      0.100782445      -83.7295314      0.994053209      5.78401975       
140.23           0.994166709      5.72427402       0.0997449014     -83.7893595      0.0997449014     -83.7893595      0.994166709      5.72427402       
141.4            0.994277378      5.6654046        0.0987224701     -83.8482493      0.0987224701     -83.8482493      0.994277378      5.6654046        
142.57           0.994385308      5.60739031       0.0977147894     -83.9062223      0.0977147894     -83.9062223      0.994385308      5.60739031       
143.74           0.994490584      5.55021065       0.0967215087     -83.9632989      0.0967215087     -83.9632989      0.994490584      5.55021065       
144.91           0.994593288      5.49384576       0.0957422883     -84.019499       0.0957422883     -84.019499       0.994593288      5.49384576       
146.08           0.9946935        5.43827642       0.094776799      -84.0748421      0.094776799      -84.0748421      0.9946935        5.43827642       
147.25           0.994791296      5.383484         0.0938247218     -84.1293466      0.0938247218     -84.1293466      0.994791296      5.383484         
148.42           0.99488675       5.32945044       0.0928857473     -84.1830306      0.0928857473     -84.1830306      0.99488675       5.32945044       
149.59           0.994979932      5.27615824       0.0919595757     -84.2359117      0.0919595757     -84.2359117      0.994979932      5.27615824       
150.76           0.99507091       5.22359041       0.0910459162     -84.2880066      0.0910459162     -84.2880066      0.99507091       5.22359041       
151.93           0.99515975       5.17173052       0.0901444865     -84.3393318      0.0901444865     -84.3393318      0.99515975       5.17173052       
153.1            0.995246514      5.12056258       0.0892550128     -84.3899032      0.0892550128     -84.3899032      0.995246514      5.12056258       
154.27           0.995331264      5.0700711        0.0883772294     -84.4397361      0.0883772294     -84.4397361      0.995331264      5.0700711        
155.44           0.995414057      5.02024106       0.0875108783     -84.4888453      0.0875108783     -84.4888453      0.995414057      5.02024106       
156.61           0.99549495       4.97105786       0.0866557091     -84.5372454      0.0866557091     -84.5372454      0.99549495       4.97105786       
157.78           0.995573997      4.92250732       0.0858114785     -84.5849502      0.0858114785     -84.5849502      0.995573997      4.92250732       
158.95           0.995651251      4.8745757        0.0849779502     -84.6319733      0.0849779502     -84.6319733      0.995651251      4.8745757        
160.12           0.995726761      4.82724962       0.0841548947     -84.6783279      0.0841548947     -84.6783279      0.995726761      4.82724962       
161.29           0.995800577      4.7805161        0.0833420889     -84.7240266      0.0833420889     -84.7240266      0.995800577      4.7805161        
162.46           0.995872745      4.73436252       0.082539316      -84.7690818      0.082539316      -84.7690818      0.995872745      4.73436252       
163.63           0.995943311      4.68877663       0.0817463653     -84.8135055      0.0817463653     -84.8135055      0.995943311      4.68877663       
164.8            0.996012319      4.6437465        0.0809630317     -84.8573091      0.0809630317     -84.8573091      0.996012319      4.6437465        
165.97           0.996079811      4.59926054       0.080189116      -84.9005041      0.080189116      -84.9005041      0.996079811      4.59926054       
167.14           0.996145827      4.55530748       0.0794244244     -84.9431012      0.0794244244     -84.9431012      0.996145827      4.55530748       
168.31           0.996210407      4.51187636       0.0786687683     -84.985111       0.0786687683     -84.985111       0.996210407      4.51187636       
169.48           0.996273589      4.46895651       0.0779219641     -85.0265438      0.0779219641     -85.0265438      0.996273589      4.46895651       
170.65           0.99633541       4.42653757       0.0771838332     -85.0674096      0.0771838332     -85.0674096      0.99633541       4.42653757       
171.82           0.996395906      4.38460942       0.0764542019     -85.1077179      0.0764542019     -85.1077179      0.996395906      4.38460942       
172.99           0.99645511       4.34316224       0.0757329008     -85.1474781      0.0757329008     -85.1474781      0.99645511       4.34316224       
174.16           0.996513057      4.30218646       0.0750197651     -85.1866993      0.0750197651     -85.1866993      0.996513057      4.30218646       
175.33           0.996569778      4.26167275       0.0743146344     -85.2253903      0.0743146344     -85.2253903      0.996569778      4.26167275       
176.5            0.996625305      4.22161206       0.0736173524     -85.2635595      0.0736173524     -85.2635595      0.996625305      4.22161206       
177.67           0.996679667      4.18199553       0.0729277666     -85.3012154      0.0729277666     -85.3012154      0.996679667      4.18199553       
178.84           0.996732894      4.14281456       0.0722457288     -85.3383658      0.0722457288     -85.3383658      0.996732894      4.14281456       
180.01           0.996785014      4.10406075       0.0715710942     -85.3750187      0.0715710942     -85.3750187      0.996785014      4.10406075       
181.18           0.996836054      4.06572592       0.0709037219     -85.4111814      0.0709037219     -85.4111814      0.996836054      4.06572592       
182.35           0.996886041      4.02780211       0.0702434745     -85.4468614      0.0702434745     -85.4468614      0.996886041      4.02780211       
183.52           0.996935001      3.99028155       0.0695902179     -85.4820657      0.0695902179     -85.4820657      0.996935001      3.99028155       
184.69           0.996982959      3.95315665       0.0689438215     -85.5168012      0.0689438215     -85.5168012      0.996982959      3.95315665       
185.86           0.997029938      3.91642004       0.0683041579     -85.5510745      0.0683041579     -85.5510745      0.997029938      3.91642004       
187.03           0.997075962      3.8800645        0.0676711028     -85.5848921      0.0676711028     -85.5848921      0.997075962      3.8800645        
188.2            0.997121054      3.84408301       0.0670445348     -85.6182603      0.0670445348     -85.6182603      0.997121054      3.84408301       
189.37           0.997165235      3.80846872       0.0664243356     -85.6511851      0.0664243356     -85.6511851      0.997165235      3.80846872       
190.54           0.997208527      3.77321492       0.0658103897     -85.6836724      0.0658103897     -85.6836724      0.997208527      3.77321492       
191.71           0.997250951      3.73831509       0.0652025845     -85.7157278      0.0652025845     -85.7157278      0.997250951      3.73831509       
192.88           0.997292527      3.70376286       0.0646008097     -85.7473568      0.0646008097     -85.7473568      0.997292527      3.70376286       
194.05           0.997333273      3.669552         0.0640049582     -85.7785648      0.0640049582     -85.7785648      0.997333273      3.669552         
195.22           0.99737321       3.63567645       0.0634149248     -85.8093569      0.0634149248     -85.8093569      0.99737321       3.63567645       
196.39           0.997412355      3.60213026       0.0628306072     -85.8397381      0.0628306072     -85.8397381      0.997412355      3.60213026       
197.56           0.997450726      3.56890765       0.0622519053     -85.8697131      0.0622519053     -85.8697131      0.997450726      3.56890765       
198.73           0.997488341      3.53600296       0.0616787214     -85.8992867      0.0616787214     -85.8992867      0.997488341      3.53600296       
199.9            0.997525216      3.50341067       0.06111096       -85.9284633      0.06111096       -85.9284633      0.997525216      3.50341067       
201.07           0.997561368      3.47112536       0.0605485277     -85.9572472      0.0605485277     -85.9572472      0.997561368      3.47112536       
202.24           0.997596812      3.43914178       0.0599913333     -85.9856426      0.0599913333     -85.9856426      0.997596812      3.43914178       
203.41           0.997631565      3.40745475       0.0594392879     -86.0136536      0.0594392879     -86.0136536      0.997631565      3.40745475       
204.58           0.99766564       3.37605925       0.0588923041     -86.0412839      0.0588923041     -86.0412839      0.99766564       3.37605925       
205.75           0.997699052      3.34495034       0.0583502969     -86.0685374      0.0583502969     -86.0685374      0.997699052      3.34495034       
206.92           0.997731816      3.31412321       0.0578131829     -86.0954176      0.0578131829     -86.0954176      0.997731816      3.31412321       
208.09           0.997763946      3.28357315       0.0572808809     -86.121928       0.0572808809     -86.121928       0.997763946      3.28357315       
209.26           0.997795454      3.25329556       0.056753311      -86.1480718      0.056753311      -86.1480718      0.997795454      3.25329556       
210.43           0.997826354      3.22328593       0.0562303955     -86.1738523      0.0562303955     -86.1738523      0.997826354      3.22328593       
211.6            0.997856659      3.19353986       0.0557120581     -86.1992725      0.0557120581     -86.1992725      0.997856659      3.19353986       
212.77           0.99788638       3.16405303       0.0551982242     -86.2243353      0.0551982242     -86.2243353      0.99788638       3.16405303       
213.94           0.99791553       3.13482124       0.0546888211     -86.2490434      0.0546888211     -86.2490434      0.99791553       3.13482124       
215.11           0.99794412       3.10584036       0.0541837772     -86.2733995      0.0541837772     -86.2733995      0.99794412       3.10584036       
216.28           0.997972163      3.07710635       0.0536830227     -86.2974062      0.0536830227     -86.2974062      0.997972163      3.07710635       
217.45           0.997999668      3.04861526       0.0531864893     -86.3210658      0.0531864893     -86.3210658      0.997999668      3.04861526       
218.62           0.998026647      3.02036323       0.05269411       -86.3443806      0.05269411       -86.3443806      0.998026647      3.02036323       
219.79           0.99805311       2.99234646       0.0522058194     -86.3673527      0.0522058194     -86.3673527      0.99805311       2.99234646       
220.96           0.998079068      2.96456126       0.0517215532     -86.3899842      0.0517215532     -86.3899842      0.998079068      2.96456126       
222.13           0.99810453       2.937004         0.0512412486     -86.4122769      0.0512412486     -86.4122769      0.99810453       2.937004         
223.3            0.998129506      2.90967111       0.0507648442     -86.4342327      0.0507648442     -86.4342327      0.998129506      2.90967111       
224.47           0.998154005      2.88255913       0.0502922797     -86.4558531      0.0502922797     -86.4558531      0.998154005      2.88255913       
225.64           0.998178037      2.85566464       0.049823496      -86.4771398      0.049823496      -86.4771398      0.998178037      2.85566464       
226.81           0.998201611      2.82898431       0.0493584354     -86.4980941      0.0493584354     -86.4980941      0.998201611      2.82898431       
227.98           0.998224736      2.80251486       0.0488970411     -86.5187173      0.0488970411     -86.5187173      0.998224736      2.80251486       
229.15           0.998247419      2.77625309       0.0484392578     -86.5390107      0.0484392578     -86.5390107      0.998247419      2.77625309       
230.32           0.998269669      2.75019586       0.047985031      -86.5589752      0.047985031      -86.5589752      0.998269669      2.75019586       
231.49           0.998291496      2.7243401        0.0475343074     -86.5786119      0.0475343074     -86.5786119      0.998291496      2.7243401        
232.66           0.998312905      2.69868278       0.0470870347     -86.5979215      0.0470870347     -86.5979215      0.998312905      2.69868278       
233.83           0.998333905      2.67322096       0.0466431618     -86.6169048      0.0466431618     -86.6169048      0.998333905      2.67322096       
235              0.998354504      2.64795172       0.0462026385     -86.6355623      0.0462026385     -86.6355623      0.998354504      2.64795172       
236.17           0.998374709      2.62287225       0.0457654155     -86.6538945      0.0457654155     -86.6538945      0.998374709      2.62287225       
237.34           0.998394527      2.59797974       0.0453314446     -86.6719018      0.0453314446     -86.6719018      0.998394527      2.59797974       
238.51           0.998413965      2.57327147       0.0449006785     -86.6895844      0.0449006785     -86.6895844      0.998413965      2.57327147       
239.68           0.99843303       2.54874475       0.0444730708     -86.7069423      0.0444730708     -86.7069423      0.99843303       2.54874475       
240.85           0.998451728      2.52439698       0.0440485759     -86.7239756      0.0440485759     -86.7239756      0.998451728      2.52439698       
242.02           0.998470067      2.50022556       0.0436271491     -86.7406841      0.0436271491     -86.7406841      0.998470067      2.50022556       
243.19           0.998488052      2.47622797       0.0432087468     -86.7570676      0.0432087468     -86.7570676      0.998488052      2.47622797       
244.36           0.99850569       2.45240173       0.042793326      -86.7731257      0.042793326      -86.7731257      0.99850569       2.45240173       
245.53           0.998522986      2.42874442       0.0423808444     -86.7888578      0.0423808444     -86.7888578      0.998522986      2.42874442       
246.7            0.998539947      2.40525364       0.0419712608     -86.8042633      0.0419712608     -86.8042633      0.998539947      2.40525364       
247.87           0.998556578      2.38192705       0.0415645346     -86.8193414      0.0415645346     -86.8193414      0.998556578      2.38192705       
249.04           0.998572885      2.35876236       0.0411606258     -86.8340913      0.0411606258     -86.8340913      0.998572885      2.35876236       
250.21           0.998588874      2.33575731       0.0407594955     -86.8485118      0.0407594955     -86.8485118      0.998588874      2.33575731       
251.38           0.99860455       2.31290968       0.0403611052     -86.8626018      0.0403611052     -86.8626018      0.99860455       2.31290968       
252.55           0.998619917      2.29021731       0.0399654173     -86.87636        0.0399654173     -86.87636        0.998619917      2.29021731       
253.72           0.998634983      2.26767806       0.0395723949     -86.8897849      0.0395723949     -86.8897849      0.998634983      2.26767806       
254.89           0.99864975       2.24528984       0.0391820015     -86.9028749      0.0391820015     -86.9028749      0.99864975       2.24528984       
256.06           0.998664225      2.22305059       0.0387942016     -86.9156283      0.0387942016     -86.9156283      0.998664225      2.22305059       
257.23           0.998678412      2.20095829       0.0384089601     -86.9280431      0.0384089601     -86.9280431      0.998678412      2.20095829       
258.4            0.998692315      2.17901097       0.0380262427     -86.9401174      0.0380262427     -86.9401174      0.998692315      2.17901097       
259.57           0.99870594       2.15720667       0.0376460157     -86.9518489      0.0376460157     -86.9518489      0.99870594       2.15720667       
260.74           0.998719291      2.13554347       0.0372682458     -86.9632352      0.0372682458     -86.9632352      0.998719291      2.13554347       
261.91           0.998732372      2.11401951       0.0368929005     -86.9742738      0.0368929005     -86.9742738      0.998732372      2.11401951       
263.08           0.998745188      2.09263294       0.0365199478     -86.9849621      0.0365199478     -86.9849621      0.998745188      2.09263294       
264.25           0.998757742      2.07138195       0.0361493563     -86.9952971      0.0361493563     -86.9952971      0.998757742      2.07138195       
265.42           0.998770039      2.05026474       0.0357810951     -87.0052758      0.0357810951     -87.0052758      0.998770039      2.05026474       
266.59           0.998782083      2.02927958       0.0354151338     -87.0148949      0.0354151338     -87.0148949      0.998782083      2.02927958       
267.76           0.998793878      2.00842475       0.0350514427     -87.0241512      0.0350514427     -87.0241512      0.998793878      2.00842475       
268.93           0.998805428      1.98769855       0.0346899924     -87.0330409      0.0346899924     -87.0330409      0.998805428      1.98769855       
270.1            0.998816736      1.96709932       0.0343307541     -87.0415604      0.0343307541     -87.0415604      0.998816736      1.96709932       
271.27           0.998827806      1.94662543       0.0339736996     -87.0497054      0.0339736996     -87.0497054      0.998827806      1.94662543       
272.44           0.998838642      1.92627528       0.0336188011     -87.057472       0.0336188011     -87.057472       0.998838642      1.92627528       
273.61           0.998849248      1.9060473        0.0332660311     -87.0648556      0.0332660311     -87.0648556      0.998849248      1.9060473        
274.78           0.998859626      1.88593992       0.0329153629     -87.0718516      0.0329153629     -87.0718516      0.998859626      1.88593992       
275.95           0.99886978       1.86595163       0.0325667699     -87.0784552      0.0325667699     -87.0784552      0.99886978       1.86595163       
277.12           0.998879713      1.84608092       0.0322202263     -87.0846612      0.0322202263     -87.0846612      0.998879713      1.84608092       
278.29           0.99888943       1.82632633       0.0318757064     -87.0904642      0.0318757064     -87.0904642      0.99888943       1.82632633       
279.46           0.998898932      1.8066864        0.0315331853     -87.0958587      0.0315331853     -87.0958587      0.998898932      1.8066864        
280.63           0.998908223      1.78715971       0.0311926381     -87.1008387      0.0311926381     -87.1008387      0.998908223      1.78715971       
281.8            0.998917306      1.76774486       0.0308540405     -87.1053982      0.0308540405     -87.1053982      0.998917306      1.76774486       
282.97           0.998926185      1.74844046       0.0305173688     -87.1095307      0.0305173688     -87.1095307      0.998926185      1.74844046       
284.14           0.998934861      1.72924518       0.0301825994     -87.1132295      0.0301825994     -87.1132295      0.998934861      1.72924518       
285.31           0.998943338      1.71015766       0.0298497092     -87.1164875      0.0298497092     -87.1164875      0.998943338      1.71015766       
286.48           0.998951619      1.69117659       0.0295186754     -87.1192974      0.0295186754     -87.1192974      0.998951619      1.69117659       
287.65           0.998959707      1.6723007        0.0291894758     -87.1216516      0.0291894758     -87.1216516      0.998959707      1.6723007        
288.82           0.998967603      1.6535287        0.0288620883     -87.123542       0.0288620883     -87.123542       0.998967603      1.6535287        
289.99           0.998975311      1.63485934       0.0285364913     -87.1249602      0.0285364913     -87.1249602      0.998975311      1.63485934       
291.16           0.998982834      1.61629141       0.0282126635     -87.1258976      0.0282126635     -87.1258976      0.998982834      1.61629141       
292.33           0.998990174      1.59782368       0.0278905839     -87.1263449      0.0278905839     -87.1263449      0.998990174      1.59782368       
293.5            0.998997333      1.57945497       0.027570232      -87.1262927      0.027570232      -87.1262927      0.998997333      1.57945497       
294.67           0.999004314      1.5611841        0.0272515874     -87.125731       0.0272515874     -87.125731       0.999004314      1.5611841        
295.84           0.999011119      1.54300992       0.0269346303     -87.1246495      0.0269346303     -87.1246495      0.999011119      1.54300992       
297.01           0.999017751      1.52493129       0.0266193409     -87.1230372      0.0266193409     -87.1230372      0.999017751      1.52493129       
298.18           0.999024212      1.50694711       0.0263056999     -87.1208828      0.0263056999     -87.1208828      0.999024212      1.50694711       
299.35           0.999030504      1.48905626       0.0259936884     -87.1181745      0.0259936884     -87.1181745      0.999030504      1.48905626       
300.52           0.999036629      1.47125766       0.0256832875     -87.1149         0.0256832875     -87.1149         0.999036629      1.47125766       
301.69           0.99904259       1.45355025       0.0253744789     -87.1110464      0.0253744789     -87.1110464      0.99904259       1.45355025       
302.86           0.999048389      1.43593297       0.0250672445     -87.1066002      0.0250672445     -87.1066002      0.999048389      1.43593297       
304.03           0.999054028      1.4184048        0.0247615663     -87.1015472      0.0247615663     -87.1015472      0.999054028      1.4184048        
305.2            0.999059508      1.40096471       0.0244574268     -87.0958728      0.0244574268     -87.0958728      0.999059508      1.40096471       
306.37           0.999064832      1.3836117        0.0241548086     -87.0895617      0.0241548086     -87.0895617      0.999064832      1.3836117        
307.54           0.999070003      1.36634478       0.0238536949     -87.0825976      0.0238536949     -87.0825976      0.999070003      1.36634478       
308.71           0.999075021      1.34916298       0.0235540687     -87.0749639      0.0235540687     -87.0749639      0.999075021      1.34916298       
309.88           0.999079889      1.33206535       0.0232559136     -87.066643       0.0232559136     -87.066643       0.999079889      1.33206535       
311.05           0.999084608      1.31505093       0.0229592133     -87.0576164      0.0229592133     -87.0576164      0.999084608      1.31505093       
312.22           0.999089181      1.2981188        0.0226639519     -87.047865       0.0226639519     -87.047865       0.999089181      1.2981188        
313.39           0.999093609      1.28126804       0.0223701135     -87.0373685      0.0223701135     -87.0373685      0.999093609      1.28126804       
314.56           0.999097894      1.26449776       0.0220776827     -87.0261059      0.0220776827     -87.0261059      0.999097894      1.26449776       
315.73           0.999102038      1.24780705       0.0217866441     -87.0140551      0.0217866441     -87.0140551      0.999102038      1.24780705       
316.9            0.999106042      1.23119505       0.0214969828     -87.001193       0.0214969828     -87.001193       0.999106042      1.23119505       
318.07           0.999109909      1.21466089       0.021208684      -86.9874953      0.021208684      -86.9874953      0.999109909      1.21466089       
319.24           0.999113639      1.19820372       0.020921733      -86.9729366      0.020921733      -86.9729366      0.999113639      1.19820372       
320.41           0.999117235      1.1818227        0.0206361156     -86.9574901      0.0206361156     -86.9574901      0.999117235      1.1818227        
321.58           0.999120697      1.16551701       0.0203518175     -86.941128       0.0203518175     -86.941128       0.999120697      1.16551701       
322.75           0.999124028      1.14928584       0.0200688249     -86.9238207      0.0200688249     -86.9238207      0.999124028      1.14928584       
323.92           0.99912723       1.13312837       0.0197871241     -86.9055375      0.0197871241     -86.9055375      0.99912723       1.13312837       
325.09           0.999130302      1.11704383       0.0195067016     -86.8862459      0.0195067016     -86.8862459      0.999130302      1.11704383       
326.26           0.999133248      1.10103142       0.0192275441     -86.8659116      0.0192275441     -86.8659116      0.999133248      1.10103142       
327.43           0.999136069      1.08509039       0.0189496385     -86.844499       0.0189496385     -86.844499       0.999136069      1.08509039       
328.6            0.999138765      1.06921997       0.0186729721     -86.8219701      0.0186729721     -86.8219701      0.999138765      1.06921997       
329.77           0.999141338      1.05341942       0.0183975321     -86.7982853      0.0183975321     -86.7982853      0.999141338      1.05341942       
330.94           0.999143791      1.03768799       0.0181233061     -86.7734026      0.0181233061     -86.7734026      0.999143791      1.03768799       
332.11           0.999146123      1.02202498       0.0178502818     -86.7472778      0.0178502818     -86.7472778      0.999146123      1.02202498       
333.28           0.999148336      1.00642965       0.0175784472     -86.7198644      0.0175784472     -86.7198644      0.999148336      1.00642965       
334.45           0.999150433      0.990901305      0.0173077904     -86.691113       0.0173077904     -86.691113       0.999150433      0.990901305      
335.62           0.999152413      0.975439248      0.0170382996     -86.6609719      0.0170382996     -86.6609719      0.999152413      0.975439248      
336.79           0.999154278      0.96004279       0.0167699636     -86.6293859      0.0167699636     -86.6293859      0.999154278      0.96004279       
337.96           0.99915603       0.944711257      0.0165027708     -86.5962971      0.0165027708     -86.5962971      0.99915603       0.944711257      
339.13           0.99915767       0.92944398       0.0162367103     -86.5616439      0.0162367103     -86.5616439      0.99915767       0.92944398       
340.3            0.999159199      0.9142403        0.0159717711     -86.5253612      0.0159717711     -86.5253612      0.999159199      0.9142403        
341.47           0.999160617      0.899099569      0.0157079426     -86.48738        0.0157079426     -86.48738        0.999160617      0.899099569      
342.64           0.999161927      0.884021144      0.0154452141     -86.4476269      0.0154452141     -86.4476269      0.999161927      0.884021144      
343.81           0.999163129      0.869004396      0.0151835753     -86.4060242      0.0151835753     -86.4060242      0.999163129      0.869004396      
344.98           0.999164225      0.854048699      0.014923016      -86.3624892      0.014923016      -86.3624892      0.999164225      0.854048699      
346.15           0.999165215      0.839153439      0.0146635264     -86.3169341      0.0146635264     -86.3169341      0.999165215      0.839153439      
347.32           0.999166101      0.82431801       0.0144050965     -86.2692651      0.0144050965     -86.2692651      0.999166101      0.82431801       
348.49           0.999166883      0.809541812      0.0141477169     -86.2193826      0.0141477169     -86.2193826      0.999166883      0.809541812      
349.66           0.999167563      0.794824256      0.0138913781     -86.1671802      0.0138913781     -86.1671802      0.999167563      0.794824256      
350.83           0.999168142      0.780164757      0.013636071      -86.1125442      0.013636071      -86.1125442      0.999168142      0.780164757      
352              0.999168621      0.765562742      0.0133817865     -86.0553534      0.0133817865     -86.0553534      0.999168621      0.765562742      
353.17           0.999169001      0.751017642      0.0131285158     -85.9954777      0.0131285158     -85.9954777      0.999169001      0.751017642      
354.34           0.999169283      0.736528899      0.0128762504     -85.9327782      0.0128762504     -85.9327782      0.999169283      0.736528899      
355.51           0.999169467      0.722095958      0.0126249818     -85.8671055      0.0126249818     -85.8671055      0.999169467      0.722095958      
356.68           0.999169555      0.707718274      0.012374702      -85.7982994      0.012374702      -85.7982994      0.999169555      0.707718274      
357.85           0.999169547      0.69339531       0.012125403      -85.7261879      0.012125403      -85.7261879      0.999169547      0.69339531       
359.02           0.999169445      0.679126534      0.011877077      -85.6505854      0.011877077      -85.6505854      0.999169445      0.679126534      
360.19           0.99916925       0.664911422      0.0116297167     -85.5712923      0.0116297167     -85.5712923      0.99916925       0.664911422      
361.36           0.999168962      0.650749455      0.0113833147     -85.488093       0.0113833147     -85.488093       0.999168962      0.650749455      
362.53           0.999168582      0.636640124      0.0111378642     -85.4007543      0.0111378642     -85.4007543      0.999168582      0.636640124      
363.7            0.999168111      0.622582923      0.0108933585     -85.3090239      0.0108933585     -85.3090239      0.999168111      0.622582923      
364.87           0.99916755       0.608577354      0.0106497912     -85.2126285      0.0106497912     -85.2126285      0.99916755       0.608577354      
366.04           0.9991669        0.594622927      0.0104071561     -85.1112709      0.0104071561     -85.1112709      0.9991669        0.594622927      
367.21           0.999166161      0.580719155      0.0101654476     -85.0046281      0.0101654476     -85.0046281      0.999166161      0.580719155      
368.38           0.999165335      0.566865559      0.00992466024    -84.8923481      0.00992466024    -84.8923481      0.999165335      0.566865559      
369.55           0.999164422      0.553061666      0.00968478897    -84.7740464      0.00968478897    -84.7740464      0.999164422      0.553061666      
370.72           0.999163423      0.539307009      0.00944582917    -84.6493028      0.00944582917    -84.6493028      0.999163423      0.539307009      
371.89           0.999162339      0.525601127      0.00920777666    -84.5176565      0.00920777666    -84.5176565      0.999162339      0.525601127      
373.06           0.99916117       0.511943564      0.00897062772    -84.3786016      0.00897062772    -84.3786016      0.99916117       0.511943564      
374.23           0.999159918      0.49833387       0.00873437919    -84.2315812      0.00873437919    -84.2315812      0.999159918      0.49833387       
375.4            0.999158582      0.4847716        0.00849902845    -84.0759809      0.00849902845    -84.0759809      0.999158582      0.4847716        
376.57           0.999157164      0.471256317      0.00826457355    -83.9111212      0.00826457355    -83.9111212      0.999157164      0.471256317      
377.74           0.999155665      0.457787586      0.00803101324    -83.736249       0.00803101324    -83.736249       0.999155665      0.457787586      
378.91           0.999154085      0.444364979      0.00779834709    -83.550527       0.00779834709    -83.550527       0.999154085      0.444364979      
380.08           0.999152424      0.430988075      0.00756657553    -83.3530219      0.00756657553    -83.3530219      0.999152424      0.430988075      
381.25           0.999150684      0.417656455      0.00733570006    -83.1426903      0.00733570006    -83.1426903      0.999150684      0.417656455      
382.42           0.999148865      0.404369706      0.0071057233     -82.9183621      0.0071057233     -82.9183621      0.999148865      0.404369706      
383.59           0.999146968      0.391127422      0.00687664921    -82.6787207      0.00687664921    -82.6787207      0.999146968      0.391127422      
384.76           0.999144994      0.3779292        0.00664848327    -82.42228        0.00664848327    -82.42228        0.999144994      0.3779292        
385.93           0.999142943      0.364774641      0.00642123274    -82.1473557      0.00642123274    -82.1473557      0.999142943      0.364774641      
387.1            0.999140815      0.351663354      0.0061949069     -81.8520321      0.0061949069     -81.8520321      0.999140815      0.351663354      
388.27           0.999138612      0.33859495       0.00596951747    -81.534121       0.00596951747    -81.534121       0.999138612      0.33859495       
389.44           0.999136334      0.325569046      0.00574507895    -81.1911122      0.00574507895    -81.1911122      0.999136334      0.325569046      
390.61           0.999133981      0.312585262      0.00552160925    -80.8201125      0.00552160925    -80.8201125      0.999133981      0.312585262      
391.78           0.999131555      0.299643225      0.00529913025    -80.4177712      0.00529913025    -80.4177712      0.999131555      0.299643225      
392.95           0.999129055      0.286742564      0.00507766865    -79.9801867      0.00507766865    -79.9801867      0.999129055      0.286742564      
394.12           0.999126483      0.273882914      0.00485725699    -79.5027903      0.00485725699    -79.5027903      0.999126483      0.273882914      
395.29           0.999123838      0.261063914      0.00463793496    -78.9802004      0.00463793496    -78.9802004      0.999123838      0.261063914      
396.46           0.999121123      0.248285207      0.00441975098    -78.4060359      0.00441975098    -78.4060359      0.999121123      0.248285207      
397.63           0.999118336      0.235546439      0.00420276442    -77.7726785      0.00420276442    -77.7726785      0.999118336      0.235546439      
398.8            0.999115479      0.222847263      0.00398704831    -77.0709649      0.00398704831    -77.0709649      0.999115479      0.222847263      
399.97           0.999112552      0.210187334      0.00377269304    -76.2897845      0.00377269304    -76.2897845      0.999112552      0.210187334      
401.14           0.999109555      0.197566311      0.00355981122    -75.4155504      0.00355981122    -75.4155504      0.999109555      0.197566311      
402.31           0.99910649       0.184983858      0.00334854431    -74.4314935      0.00334854431    -74.4314935      0.99910649       0.184983858      
403.48           0.999103357      0.172439642      0.00313907161    -73.3167126      0.00313907161    -73.3167126      0.999103357      0.172439642      
404.65           0.999100155      0.159933333      0.00293162287    -72.0448831      0.00293162287    -72.0448831      0.999100155      0.159933333      
405.82           0.999096887      0.147464608      0.00272649592    -70.5824829      0.00272649592    -70.5824829      0.999096887      0.147464608      
406.99           0.999093552      0.135033145      0.00252408207    -68.8863349      0.00252408207    -68.8863349      0.999093552      0.135033145      
408.16           0.99909015       0.122638625      0.00232490294    -66.900187       0.00232490294    -66.900187       0.99909015       0.122638625      
409.33           0.999086682      0.110280736      0.00212966494    -64.5499525      0.00212966494    -64.5499525      0.999086682      0.110280736      
410.5            0.99908315       0.0979591664     0.00193934062    -61.7371704      0.00193934062    -61.7371704      0.99908315       0.0979591664     
411.67           0.999079552      0.0856736094     0.00175529146    -58.3303396      0.00175529146    -58.3303396      0.999079552      0.0856736094     
412.84           0.99907589       0.0734237616     0.00157945218    -54.1544622      0.00157945218    -54.1544622      0.99907589       0.0734237616     
414.01           0.999072164      0.061209323      0.00141460067    -48.98149        0.00141460067    -48.98149        0.999072164      0.061209323      
415.18           0.999068374      0.0490299969     0.00126472399    -42.5308784      0.00126472399    -42.5308784      0.999068374      0.0490299969     
416.35           0.999064521      0.0368854901     0.00113541911    -34.5038272      0.00113541911    -34.5038272      0.999064521      0.0368854901     
417.52           0.999060606      0.0247755124     0.00103405393    -24.6945694      0.00103405393    -24.6945694      0.999060606      0.0247755124     
418.69           0.999056628      0.0126997772     0.000969037462   -13.2099161      0.000969037462   -13.2099161      0.999056628      0.0126997772     
419.86           0.999052589      0.000658000786   0.000947480489   -0.693833238     0.000947480489   -0.693833238     0.999052589      0.000658000786   
421.03           0.999048488      -0.0113500973    0.000971894767   11.7493812       0.000971894767   11.7493812       0.999048488      -0.0113500973    
422.2            0.999044327      -0.0233247943    0.00103869111    23.0513328       0.00103869111    23.0513328       0.999044327      -0.0233247943    
423.37           0.999040104      -0.0352663647    0.00114012885    32.6390921       0.00114012885    32.6390921       0.999040104      -0.0352663647    
424.54           0.999035822      -0.0471750796    0.00126763886    40.4584594       0.00126763886    40.4584594       0.999035822      -0.0471750796    
425.71           0.99903148       -0.0590512073    0.00141393687    46.7363432       0.00141393687    46.7363432       0.99903148       -0.0590512073    
426.88           0.999027078      -0.0708950131    0.00157357103    51.7732533       0.00157357103    51.7732533       0.999027078      -0.0708950131    
428.05           0.999022618      -0.0827067596    0.00174268386    55.8441253       0.00174268386    55.8441253       0.999022618      -0.0827067596    
429.22           0.999018098      -0.0944867063    0.00191859436    59.1701814       0.00191859436    59.1701814       0.999018098      -0.0944867063    
430.39           0.999013521      -0.10623511      0.00209943561    61.9205039       0.00209943561    61.9205039       0.999013521      -0.10623511      
431.56           0.999008886      -0.117952225     0.00228389247    64.2220045       0.00228389247    64.2220045       0.999008886      -0.117952225     
432.73           0.999004193      -0.129638301     0.00247102391    66.1697332       0.00247102391    66.1697332       0.999004193      -0.129638301     
433.9            0.998999443      -0.141293589     0.00266014503    67.8352777       0.00266014503    67.8352777       0.998999443      -0.141293589     
435.07           0.998994636      -0.152918333     0.00285074891    69.2730617       0.00285074891    69.2730617       0.998994636      -0.152918333     
436.24           0.998989773      -0.164512777     0.00304245428    70.5249166       0.00304245428    70.5249166       0.998989773      -0.164512777     
437.41           0.998984854      -0.176077161     0.0032349701     71.6233661       0.0032349701     71.6233661       0.998984854      -0.176077161     
438.58           0.998979879      -0.187611724     0.00342807117    72.5939854       0.00342807117    72.5939854       0.998979879      -0.187611724     
439.75           0.998974849      -0.199116701     0.00362158104    73.4571076       0.00362158104    73.4571076       0.998974849      -0.199116701     
440.92           0.998969763      -0.210592324     0.00381535992    74.2290664       0.00381535992    74.2290664       0.998969763      -0.210592324     
442.09           0.998964623      -0.222038826     0.00400929595    74.9231111       0.00400929595    74.9231111       0.998964623      -0.222038826     
443.26           0.998959428      -0.233456433     0.00420329877    75.5500881       0.00420329877    75.5500881       0.998959428      -0.233456433     
444.43           0.99895418       -0.244845372     0.00439729482    76.1189519       0.00439729482    76.1189519       0.99895418       -0.244845372     
445.6            0.998948877      -0.256205865     0.00459122378    76.6371543       0.00459122378    76.6371543       0.998948877      -0.256205865     
446.77           0.998943521      -0.267538134     0.00478503588    77.1109423       0.00478503588    77.1109423       0.998943521      -0.267538134     
447.94           0.998938112      -0.278842398     0.00497868979    77.5455889       0.00497868979    77.5455889       0.998938112      -0.278842398     
449.11           0.99893265       -0.290118872     0.00517215106    77.9455739       0.00517215106    77.9455739       0.99893265       -0.290118872     
450.28           0.998927135      -0.301367772     0.00536539081    78.3147257       0.00536539081    78.3147257       0.998927135      -0.301367772     
451.45           0.998921569      -0.312589309     0.00555838481    78.6563346       0.00555838481    78.6563346       0.998921569      -0.312589309     
452.62           0.99891595       -0.323783693     0.0057511126     78.9732433       0.0057511126     78.9732433       0.99891595       -0.323783693     
453.79           0.998910279      -0.334951131     0.00594355691    79.2679195       0.00594355691    79.2679195       0.998910279      -0.334951131     
454.96           0.998904557      -0.346091829     0.00613570314    79.5425159       0.00613570314    79.5425159       0.998904557      -0.346091829     
456.13           0.998898784      -0.35720599      0.00632753892    79.7989178       0.00632753892    79.7989178       0.998898784      -0.35720599      
457.3            0.99889296       -0.368293816     0.00651905378    80.0387838       0.00651905378    80.0387838       0.99889296       -0.368293816     
458.47           0.998887086      -0.379355506     0.00671023886    80.2635781       0.00671023886    80.2635781       0.998887086      -0.379355506     
459.64           0.998881161      -0.390391256     0.00690108669    80.4745982       0.00690108669    80.4745982       0.998881161      -0.390391256     
460.81           0.998875187      -0.401401263     0.00709159098    80.672998        0.00709159098    80.672998        0.998875187      -0.401401263     
461.98           0.998869162      -0.412385719     0.00728174646    80.8598068       0.00728174646    80.8598068       0.998869162      -0.412385719     
463.15           0.998863088      -0.423344816     0.00747154873    81.0359455       0.00747154873    81.0359455       0.998863088      -0.423344816     
464.32           0.998856965      -0.434278743     0.00766099417    81.2022409       0.00766099417    81.2022409       0.998856965      -0.434278743     
465.49           0.998850792      -0.445187687     0.00785007981    81.3594368       0.00785007981    81.3594368       0.998850792      -0.445187687     
466.66           0.998844571      -0.456071835     0.00803880327    81.5082044       0.00803880327    81.5082044       0.998844571      -0.456071835     
467.83           0.998838302      -0.466931369     0.00822716267    81.6491511       0.00822716267    81.6491511       0.998838302      -0.466931369     
469              0.998831984      -0.477766471     0.00841515657    81.7828272       0.00841515657    81.7828272       0.998831984      -0.477766471     
470              0.998826546      -0.487008014     0.00857554463    81.8916965       0.00857554463    81.8916965       0.998826546      -0.487008014     
