! Coilcraft 1812CS-273 Chip Inductor				
! 31 July 2002			
# MHZ S MA R 50
!Freq             MagS11           AngS11           MagS21           AngS21           MagS12           AngS12           MagS22           AngS22
1                0.814892408      28.2121052       0.477365059      -53.803068       0.477365059      -53.803068       0.814892408      28.2121052       
1.12             0.842739932      25.9625703       0.441394346      -56.7040968      0.441394346      -56.7040968      0.842739932      25.9625703       
1.24             0.865049691      24.0015812       0.409641254      -59.20104        0.409641254      -59.20104        0.865049691      24.0015812       
1.36             0.883112593      22.2861452       0.381571919      -61.3659146      0.381571919      -61.3659146      0.883112593      22.2861452       
1.48             0.897890679      20.7785714       0.356688615      -63.2563751      0.356688615      -63.2563751      0.897890679      20.7785714       
1.6              0.910103408      19.4469167       0.334549782      -64.9185613      0.334549782      -64.9185613      0.910103408      19.4469167       
1.72             0.920292452      18.2645237       0.31477371       -66.3895126      0.31477371       -66.3895126      0.920292452      18.2645237       
1.84             0.92886909       17.2092816       0.297034872      -67.6991135      0.297034872      -67.6991135      0.92886909       17.2092816       
1.96             0.936148502      16.2628716       0.281057463      -68.8716239      0.281057463      -68.8716239      0.936148502      16.2628716       
2.08             0.942374539      15.4100895       0.266608351      -69.9268694      0.266608351      -69.9268694      0.942374539      15.4100895       
2.2              0.947737669      14.6382739       0.253490432      -70.8811627      0.253490432      -70.8811627      0.947737669      14.6382739       
2.32             0.952388047      13.9368356       0.241536758      -71.7480177      0.241536758      -71.7480177      0.952388047      13.9368356       
2.44             0.956445105      13.2968759       0.230605526      -72.5387042      0.230605526      -72.5387042      0.956445105      13.2968759       
2.56             0.960004652      12.7108797       0.220575877      -73.2626816      0.220575877      -73.2626816      0.960004652      12.7108797       
2.68             0.963144171      12.1724682       0.211344417      -73.9279382      0.211344417      -73.9279382      0.963144171      12.1724682       
2.8              0.965926805      11.6761999       0.202822343      -74.54126        0.202822343      -74.54126        0.965926805      11.6761999       
2.92             0.968404386      11.2174104       0.194933082      -75.1084438      0.194933082      -75.1084438      0.968404386      11.2174104       
3.04             0.97061975       10.7920822       0.187610337      -75.6344677      0.187610337      -75.6344677      0.97061975       10.7920822       
3.16             0.972608531      10.3967398       0.180796489      -76.1236282      0.180796489      -76.1236282      0.972608531      10.3967398       
3.28             0.97440055       10.0283629       0.174441263      -76.5796511      0.174441263      -76.5796511      0.97440055       10.0283629       
3.4              0.976020907      9.68431614       0.168500636      -77.005782       0.168500636      -77.005782       0.976020907      9.68431614       
3.52             0.977490845      9.36229073       0.16293591       -77.40486        0.16293591       -77.40486        0.977490845      9.36229073       
3.64             0.978828434      9.06025638       0.157712962      -77.7793788      0.157712962      -77.7793788      0.978828434      9.06025638       
3.76             0.98004912       8.77642121       0.152801593      -78.131537       0.152801593      -78.131537       0.98004912       8.77642121       
3.88             0.981166165      8.50919827       0.148174997      -78.4632801      0.148174997      -78.4632801      0.981166165      8.50919827       
4                0.982191008      8.25717749       0.143809303      -78.7763357      0.143809303      -78.7763357      0.982191008      8.25717749       
4.12             0.983133556      8.01910205       0.139683196      -79.0722425      0.139683196      -79.0722425      0.983133556      8.01910205       
4.24             0.984002421      7.79384833       0.135777583      -79.3523756      0.135777583      -79.3523756      0.984002421      7.79384833       
4.36             0.984805117      7.58040897       0.132075321      -79.6179673      0.132075321      -79.6179673      0.984805117      7.58040897       
4.48             0.985548227      7.37787833       0.128560974      -79.8701253      0.128560974      -79.8701253      0.985548227      7.37787833       
4.6              0.986237533      7.18544017       0.125220612      -80.1098475      0.125220612      -80.1098475      0.986237533      7.18544017       
4.72             0.986878133      7.00235689       0.122041631      -80.3380356      0.122041631      -80.3380356      0.986878133      7.00235689       
4.84             0.987474535      6.82796048       0.119012602      -80.5555063      0.119012602      -80.5555063      0.987474535      6.82796048       
4.96             0.988030736      6.66164449       0.116123138      -80.7630007      0.116123138      -80.7630007      0.988030736      6.66164449       
5.08             0.98855029       6.50285719       0.113363783      -80.9611933      0.113363783      -80.9611933      0.98855029       6.50285719       
5.2              0.989036369      6.3510956        0.110725904      -81.1506987      0.110725904      -81.1506987      0.989036369      6.3510956        
5.32             0.989491804      6.20590023       0.108201611      -81.3320786      0.108201611      -81.3320786      0.989491804      6.20590023       
5.44             0.989919135      6.06685053       0.105783675      -81.5058472      0.105783675      -81.5058472      0.989919135      6.06685053       
5.56             0.990320643      5.93356087       0.103465465      -81.6724757      0.103465465      -81.6724757      0.990320643      5.93356087       
5.68             0.990698382      5.80567702       0.101240883      -81.8323974      0.101240883      -81.8323974      0.990698382      5.80567702       
5.8              0.991054203      5.68287305       0.0991043152     -81.9860109      0.0991043152     -81.9860109      0.991054203      5.68287305       
5.92             0.991389782      5.56484855       0.0970505851     -82.1336833      0.0970505851     -82.1336833      0.991389782      5.56484855       
6.04             0.991706636      5.4513262        0.095074911      -82.2757541      0.095074911      -82.2757541      0.991706636      5.4513262        
6.16             0.992006142      5.34204962       0.0931728696     -82.4125368      0.0931728696     -82.4125368      0.992006142      5.34204962       
6.28             0.992289552      5.23678144       0.0913403636     -82.5443218      0.0913403636     -82.5443218      0.992289552      5.23678144       
6.4              0.992558008      5.13530157       0.0895735922     -82.6713786      0.0895735922     -82.6713786      0.992558008      5.13530157       
6.52             0.99281255       5.03740565       0.0878690251     -82.7939571      0.0878690251     -82.7939571      0.99281255       5.03740565       
6.64             0.993054129      4.9429037        0.0862233786     -82.91229        0.0862233786     -82.91229        0.993054129      4.9429037        
6.76             0.993283618      4.85161889       0.0846335951     -83.0265938      0.0846335951     -83.0265938      0.993283618      4.85161889       
6.88             0.993501814      4.76338639       0.0830968236     -83.1370703      0.0830968236     -83.1370703      0.993501814      4.76338639       
7                0.993709452      4.67805241       0.0816104028     -83.2439079      0.0816104028     -83.2439079      0.993709452      4.67805241       
7.12             0.993907205      4.59547326       0.080171846      -83.3472826      0.080171846      -83.3472826      0.993907205      4.59547326       
7.24             0.994095695      4.51551457       0.0787788265     -83.4473589      0.0787788265     -83.4473589      0.994095695      4.51551457       
7.36             0.994275495      4.43805054       0.0774291653     -83.5442911      0.0774291653     -83.5442911      0.994275495      4.43805054       
7.48             0.994447134      4.36296325       0.0761208198     -83.6382236      0.0761208198     -83.6382236      0.994447134      4.36296325       
7.6              0.9946111        4.29014209       0.074851873      -83.7292919      0.074851873      -83.7292919      0.9946111        4.29014209       
7.72             0.994767847      4.21948317       0.0736205242     -83.8176234      0.0736205242     -83.8176234      0.994767847      4.21948317       
7.84             0.994917793      4.15088883       0.0724250803     -83.9033378      0.0724250803     -83.9033378      0.994917793      4.15088883       
7.96             0.995061329      4.08426721       0.0712639479     -83.9865477      0.0712639479     -83.9865477      0.995061329      4.08426721       
8.08             0.995198816      4.01953177       0.0701356263     -84.0673592      0.0701356263     -84.0673592      0.995198816      4.01953177       
8.2              0.995330589      3.95660097       0.0690387006     -84.1458721      0.0690387006     -84.1458721      0.995330589      3.95660097       
8.32             0.995456963      3.89539787       0.0679718358     -84.2221809      0.0679718358     -84.2221809      0.995456963      3.89539787       
8.44             0.995578229      3.83584985       0.0669337713     -84.2963745      0.0669337713     -84.2963745      0.995578229      3.83584985       
8.56             0.995694659      3.77788827       0.0659233157     -84.368537       0.0659233157     -84.368537       0.995694659      3.77788827       
8.68             0.995806506      3.72144824       0.0649393423     -84.4387481      0.0649393423     -84.4387481      0.995806506      3.72144824       
8.8              0.995914009      3.66646835       0.0639807846     -84.5070828      0.0639807846     -84.5070828      0.995914009      3.66646835       
8.92             0.99601739       3.61289043       0.0630466324     -84.5736125      0.0630466324     -84.5736125      0.99601739       3.61289043       
9.04             0.996116855      3.56065937       0.0621359283     -84.6384047      0.0621359283     -84.6384047      0.996116855      3.56065937       
9.16             0.996212602      3.50972288       0.0612477641     -84.7015234      0.0612477641     -84.7015234      0.996212602      3.50972288       
9.28             0.996304811      3.46003136       0.0603812776     -84.7630293      0.0603812776     -84.7630293      0.996304811      3.46003136       
9.4              0.996393655      3.4115377        0.0595356502     -84.8229801      0.0595356502     -84.8229801      0.996393655      3.4115377        
9.52             0.996479295      3.36419712       0.0587101037     -84.8814306      0.0587101037     -84.8814306      0.996479295      3.36419712       
9.64             0.996561882      3.31796705       0.057903898      -84.9384329      0.057903898      -84.9384329      0.996561882      3.31796705       
9.76             0.99664156       3.27280698       0.057116329      -84.9940364      0.057116329      -84.9940364      0.99664156       3.27280698       
9.88             0.996718461      3.22867835       0.0563467261     -85.0482882      0.0563467261     -85.0482882      0.996718461      3.22867835       
10               0.996792714      3.18554442       0.0555944506     -85.1012333      0.0555944506     -85.1012333      0.996792714      3.18554442       
10.12            0.996864436      3.14337017       0.0548588933     -85.1529144      0.0548588933     -85.1529144      0.996864436      3.14337017       
10.24            0.996933741      3.10212222       0.0541394736     -85.2033722      0.0541394736     -85.2033722      0.996933741      3.10212222       
10.36            0.997000735      3.06176868       0.0534356371     -85.2526455      0.0534356371     -85.2526455      0.997000735      3.06176868       
10.48            0.997065519      3.02227915       0.0527468546     -85.3007713      0.0527468546     -85.3007713      0.997065519      3.02227915       
10.6             0.997128187      2.98362455       0.0520726204     -85.3477851      0.0520726204     -85.3477851      0.997128187      2.98362455       
10.72            0.997188829      2.94577711       0.0514124514     -85.3937206      0.0514124514     -85.3937206      0.997188829      2.94577711       
10.84            0.997247531      2.90871027       0.0507658853     -85.43861        0.0507658853     -85.43861        0.997247531      2.90871027       
10.96            0.997304372      2.87239863       0.05013248       -85.4824842      0.05013248       -85.4824842      0.997304372      2.87239863       
11.08            0.99735943       2.83681786       0.0495118123     -85.5253727      0.0495118123     -85.5253727      0.99735943       2.83681786       
11.2             0.997412776      2.80194467       0.0489034768     -85.5673035      0.0489034768     -85.5673035      0.997412776      2.80194467       
11.32            0.997464481      2.76775676       0.0483070852     -85.6083037      0.0483070852     -85.6083037      0.997464481      2.76775676       
11.44            0.997514608      2.73423274       0.0477222653     -85.6483991      0.0477222653     -85.6483991      0.997514608      2.73423274       
11.56            0.997563219      2.7013521        0.0471486601     -85.6876144      0.0471486601     -85.6876144      0.997563219      2.7013521        
11.68            0.997610375      2.66909518       0.0465859272     -85.7259732      0.0465859272     -85.7259732      0.997610375      2.66909518       
11.8             0.99765613       2.6374431        0.0460337379     -85.7634982      0.0460337379     -85.7634982      0.99765613       2.6374431        
11.92            0.997700539      2.60637774       0.0454917766     -85.8002112      0.0454917766     -85.8002112      0.997700539      2.60637774       
12.04            0.997743651      2.57588168       0.0449597402     -85.8361329      0.0449597402     -85.8361329      0.997743651      2.57588168       
12.16            0.997785516      2.5459382        0.0444373374     -85.8712833      0.0444373374     -85.8712833      0.997785516      2.5459382        
12.28            0.997826179      2.51653121       0.0439242883     -85.9056816      0.0439242883     -85.9056816      0.997826179      2.51653121       
12.4             0.997865684      2.48764527       0.0434203234     -85.9393462      0.0434203234     -85.9393462      0.997865684      2.48764527       
12.52            0.997904074      2.45926548       0.0429251838     -85.9722946      0.0429251838     -85.9722946      0.997904074      2.45926548       
12.64            0.997941388      2.43137755       0.0424386202     -86.0045438      0.0424386202     -86.0045438      0.997941388      2.43137755       
12.76            0.997977665      2.40396768       0.0419603924     -86.03611        0.0419603924     -86.03611        0.997977665      2.40396768       
12.88            0.99801294       2.37702261       0.0414902694     -86.0670088      0.0414902694     -86.0670088      0.99801294       2.37702261       
13               0.998047249      2.35052955       0.0410280285     -86.0972552      0.0410280285     -86.0972552      0.998047249      2.35052955       
13.12            0.998080625      2.32447619       0.0405734549     -86.1268636      0.0405734549     -86.1268636      0.998080625      2.32447619       
13.24            0.9981131        2.29885064       0.0401263418     -86.1558477      0.0401263418     -86.1558477      0.9981131        2.29885064       
13.36            0.998144704      2.27364145       0.0396864897     -86.1842209      0.0396864897     -86.1842209      0.998144704      2.27364145       
13.48            0.998175467      2.24883757       0.039253706      -86.2119959      0.039253706      -86.2119959      0.998175467      2.24883757       
13.6             0.998205416      2.22442834       0.0388278049     -86.2391849      0.0388278049     -86.2391849      0.998205416      2.22442834       
13.72            0.998234578      2.20040347       0.0384086072     -86.2657997      0.0384086072     -86.2657997      0.998234578      2.20040347       
13.84            0.998262979      2.17675302       0.0379959396     -86.2918516      0.0379959396     -86.2918516      0.998262979      2.17675302       
13.96            0.998290644      2.15346739       0.037589635      -86.3173515      0.037589635      -86.3173515      0.998290644      2.15346739       
14.08            0.998317595      2.13053732       0.0371895318     -86.3423099      0.0371895318     -86.3423099      0.998317595      2.13053732       
14.2             0.998343856      2.10795383       0.0367954737     -86.3667367      0.0367954737     -86.3667367      0.998343856      2.10795383       
14.32            0.998369448      2.08570828       0.0364073098     -86.3906415      0.0364073098     -86.3906415      0.998369448      2.08570828       
14.44            0.998394392      2.06379227       0.0360248942     -86.4140338      0.0360248942     -86.4140338      0.998394392      2.06379227       
14.56            0.998418708      2.0421977        0.0356480855     -86.4369223      0.0356480855     -86.4369223      0.998418708      2.0421977        
14.68            0.998442416      2.02091675       0.0352767472     -86.4593156      0.0352767472     -86.4593156      0.998442416      2.02091675       
14.8             0.998465533      1.99994181       0.0349107471     -86.481222       0.0349107471     -86.481222       0.998465533      1.99994181       
14.92            0.998488077      1.97926555       0.0345499571     -86.5026493      0.0345499571     -86.5026493      0.998488077      1.97926555       
15.04            0.998510066      1.95888086       0.0341942533     -86.523605       0.0341942533     -86.523605       0.998510066      1.95888086       
15.16            0.998531515      1.93878084       0.0338435156     -86.5440965      0.0338435156     -86.5440965      0.998531515      1.93878084       
15.28            0.998552442      1.91895883       0.0334976277     -86.5641308      0.0334976277     -86.5641308      0.998552442      1.91895883       
15.4             0.99857286       1.89940836       0.033156477      -86.5837144      0.033156477      -86.5837144      0.99857286       1.89940836       
15.52            0.998592784      1.88012316       0.0328199541     -86.6028539      0.0328199541     -86.6028539      0.998592784      1.88012316       
15.64            0.998612229      1.86109716       0.0324879533     -86.6215554      0.0324879533     -86.6215554      0.998612229      1.86109716       
15.76            0.998631208      1.84232447       0.0321603717     -86.6398248      0.0321603717     -86.6398248      0.998631208      1.84232447       
15.88            0.998649734      1.82379937       0.0318371097     -86.6576677      0.0318371097     -86.6576677      0.998649734      1.82379937       
16               0.99866782       1.80551632       0.0315180708     -86.6750895      0.0315180708     -86.6750895      0.99866782       1.80551632       
16.12            0.998685477      1.78746993       0.0312031611     -86.6920954      0.0312031611     -86.6920954      0.998685477      1.78746993       
16.24            0.998702719      1.769655         0.0308922897     -86.7086903      0.0308922897     -86.7086903      0.998702719      1.769655         
16.36            0.998719555      1.75206644       0.030585368      -86.724879       0.030585368      -86.724879       0.998719555      1.75206644       
16.48            0.998735996      1.73469934       0.0302823103     -86.7406659      0.0302823103     -86.7406659      0.998735996      1.73469934       
16.6             0.998752054      1.71754891       0.0299830333     -86.7560554      0.0299830333     -86.7560554      0.998752054      1.71754891       
16.72            0.998767739      1.70061052       0.029687456      -86.7710515      0.029687456      -86.7710515      0.998767739      1.70061052       
16.84            0.99878306       1.68387964       0.0293954998     -86.7856581      0.0293954998     -86.7856581      0.99878306       1.68387964       
16.96            0.998798026      1.6673519        0.029107088      -86.7998789      0.029107088      -86.7998789      0.998798026      1.6673519        
17.08            0.998812647      1.65102303       0.0288221466     -86.8137175      0.0288221466     -86.8137175      0.998812647      1.65102303       
17.2             0.998826932      1.63488889       0.0285406031     -86.8271771      0.0285406031     -86.8271771      0.998826932      1.63488889       
17.32            0.998840889      1.61894544       0.0282623873     -86.8402608      0.0282623873     -86.8402608      0.998840889      1.61894544       
17.44            0.998854527      1.60318878       0.027987431      -86.8529717      0.027987431      -86.8529717      0.998854527      1.60318878       
17.56            0.998867853      1.58761507       0.0277156675     -86.8653126      0.0277156675     -86.8653126      0.998867853      1.58761507       
17.68            0.998880876      1.57222063       0.0274470322     -86.877286       0.0274470322     -86.877286       0.998880876      1.57222063       
17.8             0.998893602      1.55700183       0.0271814623     -86.8888944      0.0271814623     -86.8888944      0.998893602      1.55700183       
17.92            0.998906039      1.54195516       0.0269188963     -86.9001401      0.0269188963     -86.9001401      0.998906039      1.54195516       
18.04            0.998918194      1.5270772        0.0266592747     -86.9110252      0.0266592747     -86.9110252      0.998918194      1.5270772        
18.16            0.998930074      1.51236462       0.0264025393     -86.9215517      0.0264025393     -86.9215517      0.998930074      1.51236462       
18.28            0.998941684      1.49781418       0.0261486337     -86.9317215      0.0261486337     -86.9317215      0.998941684      1.49781418       
18.4             0.998953033      1.48342272       0.0258975028     -86.9415361      0.0258975028     -86.9415361      0.998953033      1.48342272       
18.52            0.998964126      1.46918716       0.0256490927     -86.9509971      0.0256490927     -86.9509971      0.998964126      1.46918716       
18.64            0.998974968      1.45510449       0.0254033514     -86.9601059      0.0254033514     -86.9601059      0.998974968      1.45510449       
18.76            0.998985565      1.44117181       0.0251602278     -86.9688636      0.0251602278     -86.9688636      0.998985565      1.44117181       
18.88            0.998995924      1.42738625       0.0249196722     -86.9772715      0.0249196722     -86.9772715      0.998995924      1.42738625       
19               0.99900605       1.41374504       0.0246816362     -86.9853303      0.0246816362     -86.9853303      0.99900605       1.41374504       
19.12            0.999015947      1.40024549       0.0244460727     -86.9930409      0.0244460727     -86.9930409      0.999015947      1.40024549       
19.24            0.999025622      1.38688493       0.0242129356     -87.0004039      0.0242129356     -87.0004039      0.999025622      1.38688493       
19.36            0.999035078      1.37366081       0.0239821799     -87.0074198      0.0239821799     -87.0074198      0.999035078      1.37366081       
19.48            0.999044321      1.36057061       0.023753762      -87.0140891      0.023753762      -87.0140891      0.999044321      1.36057061       
19.6             0.999053356      1.34761187       0.023527639      -87.0204119      0.023527639      -87.0204119      0.999053356      1.34761187       
19.72            0.999062186      1.33478221       0.0233037693     -87.0263883      0.0233037693     -87.0263883      0.999062186      1.33478221       
19.84            0.999070817      1.3220793        0.0230821123     -87.0320183      0.0230821123     -87.0320183      0.999070817      1.3220793        
19.96            0.999079253      1.30950085       0.0228626281     -87.0373017      0.0228626281     -87.0373017      0.999079253      1.30950085       
20.08            0.999087497      1.29704465       0.022645278      -87.0422382      0.022645278      -87.0422382      0.999087497      1.29704465       
20.2             0.999095554      1.28470852       0.0224300243     -87.0468274      0.0224300243     -87.0468274      0.999095554      1.28470852       
20.32            0.999103428      1.27249034       0.0222168299     -87.0510686      0.0222168299     -87.0510686      0.999103428      1.27249034       
20.44            0.999111123      1.26038805       0.0220056587     -87.0549611      0.0220056587     -87.0549611      0.999111123      1.26038805       
20.56            0.999118642      1.24839962       0.0217964756     -87.0585041      0.0217964756     -87.0585041      0.999118642      1.24839962       
20.68            0.999125988      1.23652308       0.021589246      -87.0616967      0.021589246      -87.0616967      0.999125988      1.23652308       
20.8             0.999133166      1.2247565        0.0213839364     -87.0645375      0.0213839364     -87.0645375      0.999133166      1.2247565        
20.92            0.999140179      1.21309799       0.0211805139     -87.0670255      0.0211805139     -87.0670255      0.999140179      1.21309799       
21.04            0.99914703       1.20154571       0.0209789463     -87.0691591      0.0209789463     -87.0691591      0.99914703       1.20154571       
21.16            0.999153722      1.19009786       0.0207792023     -87.0709368      0.0207792023     -87.0709368      0.999153722      1.19009786       
21.28            0.999160259      1.17875268       0.0205812512     -87.072357       0.0205812512     -87.072357       0.999160259      1.17875268       
21.4             0.999166643      1.16750845       0.020385063      -87.0734178      0.020385063      -87.0734178      0.999166643      1.16750845       
21.52            0.999172877      1.15636348       0.0201906083     -87.0741172      0.0201906083     -87.0741172      0.999172877      1.15636348       
21.64            0.999178965      1.14531614       0.0199978586     -87.0744532      0.0199978586     -87.0744532      0.999178965      1.14531614       
21.76            0.999184908      1.1343648        0.0198067856     -87.0744234      0.0198067856     -87.0744234      0.999184908      1.1343648        
21.88            0.999190711      1.12350791       0.0196173621     -87.0740254      0.0196173621     -87.0740254      0.999190711      1.12350791       
22               0.999196375      1.11274391       0.0194295611     -87.0732567      0.0194295611     -87.0732567      0.999196375      1.11274391       
22.12            0.999201903      1.1020713        0.0192433565     -87.0721145      0.0192433565     -87.0721145      0.999201903      1.1020713        
22.24            0.999207298      1.09148861       0.0190587225     -87.0705961      0.0190587225     -87.0705961      0.999207298      1.09148861       
22.36            0.999212562      1.08099439       0.0188756339     -87.0686983      0.0188756339     -87.0686983      0.999212562      1.08099439       
22.48            0.999217698      1.07058724       0.0186940663     -87.066418       0.0186940663     -87.066418       0.999217698      1.07058724       
22.6             0.999222707      1.06026577       0.0185139955     -87.0637518      0.0185139955     -87.0637518      0.999222707      1.06026577       
22.72            0.999227592      1.05002862       0.0183353979     -87.0606962      0.0183353979     -87.0606962      0.999227592      1.05002862       
22.84            0.999232356      1.03987448       0.0181582505     -87.0572476      0.0181582505     -87.0572476      0.999232356      1.03987448       
22.96            0.999237         1.02980205       0.0179825307     -87.0534021      0.0179825307     -87.0534021      0.999237         1.02980205       
23.08            0.999241526      1.01981005       0.0178082164     -87.0491556      0.0178082164     -87.0491556      0.999241526      1.01981005       
23.2             0.999245937      1.00989725       0.0176352859     -87.044504       0.0176352859     -87.044504       0.999245937      1.00989725       
23.32            0.999250235      1.00006242       0.017463718      -87.0394429      0.017463718      -87.0394429      0.999250235      1.00006242       
23.44            0.999254422      0.99030437       0.0172934919     -87.0339677      0.0172934919     -87.0339677      0.999254422      0.99030437       
23.56            0.999258498      0.980621936      0.0171245873     -87.0280736      0.0171245873     -87.0280736      0.999258498      0.980621936      
23.68            0.999262468      0.971013969      0.0169569842     -87.0217557      0.0169569842     -87.0217557      0.999262468      0.971013969      
23.8             0.999266331      0.961479348      0.016790663      -87.0150089      0.016790663      -87.0150089      0.999266331      0.961479348      
23.92            0.99927009       0.952016972      0.0166256047     -87.0078277      0.0166256047     -87.0078277      0.99927009       0.952016972      
24.04            0.999273747      0.942625763      0.0164617905     -87.0002066      0.0164617905     -87.0002066      0.999273747      0.942625763      
24.16            0.999277304      0.933304665      0.016299202      -86.9921398      0.016299202      -86.9921398      0.999277304      0.933304665      
24.28            0.999280761      0.924052642      0.0161378211     -86.9836214      0.0161378211     -86.9836214      0.999280761      0.924052642      
24.4             0.999284121      0.914868678      0.0159776303     -86.974645       0.0159776303     -86.974645       0.999284121      0.914868678      
24.52            0.999287385      0.905751779      0.0158186121     -86.9652042      0.0158186121     -86.9652042      0.999287385      0.905751779      
24.64            0.999290555      0.896700967      0.0156607496     -86.9552924      0.0156607496     -86.9552924      0.999290555      0.896700967      
24.76            0.999293632      0.887715286      0.0155040262     -86.9449024      0.0155040262     -86.9449024      0.999293632      0.887715286      
24.88            0.999296617      0.878793796      0.0153484254     -86.9340273      0.0153484254     -86.9340273      0.999296617      0.878793796      
25               0.999299513      0.869935577      0.0151939314     -86.9226594      0.0151939314     -86.9226594      0.999299513      0.869935577      
25.12            0.99930232       0.861139725      0.0150405285     -86.910791       0.0150405285     -86.910791       0.99930232       0.861139725      
25.24            0.99930504       0.852405355      0.0148882011     -86.8984142      0.0148882011     -86.8984142      0.99930504       0.852405355      
25.36            0.999307674      0.843731595      0.0147369342     -86.8855205      0.0147369342     -86.8855205      0.999307674      0.843731595      
25.48            0.999310224      0.835117594      0.0145867131     -86.8721015      0.0145867131     -86.8721015      0.999310224      0.835117594      
25.6             0.99931269       0.826562515      0.014437523      -86.8581482      0.014437523      -86.8581482      0.99931269       0.826562515      
25.72            0.999315075      0.818065534      0.0142893499     -86.8436514      0.0142893499     -86.8436514      0.999315075      0.818065534      
25.84            0.999317379      0.809625848      0.0141421796     -86.8286016      0.0141421796     -86.8286016      0.999317379      0.809625848      
25.96            0.999319603      0.801242663      0.0139959985     -86.8129888      0.0139959985     -86.8129888      0.999319603      0.801242663      
26.08            0.999321748      0.792915203      0.0138507931     -86.7968028      0.0138507931     -86.7968028      0.999321748      0.792915203      
26.2             0.999323817      0.784642705      0.0137065501     -86.780033       0.0137065501     -86.780033       0.999323817      0.784642705      
26.32            0.999325809      0.776424421      0.0135632565     -86.7626686      0.0135632565     -86.7626686      0.999325809      0.776424421      
26.44            0.999327726      0.768259614      0.0134208997     -86.744698       0.0134208997     -86.744698       0.999327726      0.768259614      
26.56            0.999329569      0.760147564      0.013279467      -86.7261096      0.013279467      -86.7261096      0.999329569      0.760147564      
26.68            0.999331339      0.752087561      0.0131389463     -86.7068912      0.0131389463     -86.7068912      0.999331339      0.752087561      
26.8             0.999333038      0.744078909      0.0129993255     -86.6870302      0.0129993255     -86.6870302      0.999333038      0.744078909      
26.92            0.999334665      0.736120924      0.0128605926     -86.6665134      0.0128605926     -86.6665134      0.999334665      0.736120924      
27.04            0.999336222      0.728212933      0.0127227362     -86.6453275      0.0127227362     -86.6453275      0.999336222      0.728212933      
27.16            0.99933771       0.720354278      0.0125857448     -86.6234584      0.0125857448     -86.6234584      0.99933771       0.720354278      
27.28            0.99933913       0.712544309      0.0124496071     -86.6008916      0.0124496071     -86.6008916      0.99933913       0.712544309      
27.4             0.999340483      0.704782389      0.0123143123     -86.5776121      0.0123143123     -86.5776121      0.999340483      0.704782389      
27.52            0.99934177       0.697067893      0.0121798493     -86.5536043      0.0121798493     -86.5536043      0.99934177       0.697067893      
27.64            0.999342991      0.689400206      0.0120462078     -86.5288521      0.0120462078     -86.5288521      0.999342991      0.689400206      
27.76            0.999344148      0.681778723      0.0119133772     -86.5033388      0.0119133772     -86.5033388      0.999344148      0.681778723      
27.88            0.999345241      0.67420285       0.0117813473     -86.477047       0.0117813473     -86.477047       0.999345241      0.67420285       
28               0.999346271      0.666672002      0.011650108      -86.4499588      0.011650108      -86.4499588      0.999346271      0.666672002      
28.12            0.999347239      0.659185607      0.0115196494     -86.4220555      0.0115196494     -86.4220555      0.999347239      0.659185607      
28.24            0.999348146      0.6517431        0.0113899619     -86.3933179      0.0113899619     -86.3933179      0.999348146      0.6517431        
28.36            0.999348992      0.644343926      0.0112610359     -86.363726       0.0112610359     -86.363726       0.999348992      0.644343926      
28.48            0.999349779      0.63698754       0.0111328621     -86.3332588      0.0111328621     -86.3332588      0.999349779      0.63698754       
28.6             0.999350506      0.629673405      0.0110054312     -86.3018948      0.0110054312     -86.3018948      0.999350506      0.629673405      
28.72            0.999351175      0.622400994      0.0108787343     -86.2696117      0.0108787343     -86.2696117      0.999351175      0.622400994      
28.84            0.999351787      0.61516979       0.0107527623     -86.2363862      0.0107527623     -86.2363862      0.999351787      0.61516979       
28.96            0.999352342      0.607979282      0.0106275067     -86.2021941      0.0106275067     -86.2021941      0.999352342      0.607979282      
29.08            0.999352841      0.600828967      0.0105029589     -86.1670103      0.0105029589     -86.1670103      0.999352841      0.600828967      
29.2             0.999353284      0.593718355      0.0103791103     -86.1308089      0.0103791103     -86.1308089      0.999353284      0.593718355      
29.32            0.999353672      0.586646958      0.0102559528     -86.0935626      0.0102559528     -86.0935626      0.999353672      0.586646958      
29.44            0.999354006      0.5796143        0.0101334783     -86.0552434      0.0101334783     -86.0552434      0.999354006      0.5796143        
29.56            0.999354287      0.572619911      0.0100116787     -86.0158219      0.0100116787     -86.0158219      0.999354287      0.572619911      
29.68            0.999354515      0.565663329      0.0098905462     -85.9752677      0.0098905462     -85.9752677      0.999354515      0.565663329      
29.8             0.99935469       0.5587441        0.00977007312    -85.9335491      0.00977007312    -85.9335491      0.99935469       0.5587441        
29.92            0.999354814      0.551861776      0.00965025188    -85.890633       0.00965025188    -85.890633       0.999354814      0.551861776      
30.04            0.999354886      0.545015917      0.00953107506    -85.8464851      0.00953107506    -85.8464851      0.999354886      0.545015917      
30.16            0.999354908      0.538206091      0.00941253535    -85.8010697      0.00941253535    -85.8010697      0.999354908      0.538206091      
30.28            0.99935488       0.53143187       0.00929462558    -85.7543493      0.00929462558    -85.7543493      0.99935488       0.53143187       
30.4             0.999354802      0.524692836      0.00917733872    -85.7062852      0.00917733872    -85.7062852      0.999354802      0.524692836      
30.52            0.999354676      0.517988575      0.00906066786    -85.6568368      0.00906066786    -85.6568368      0.999354676      0.517988575      
30.64            0.999354501      0.511318682      0.0089446062     -85.6059618      0.0089446062     -85.6059618      0.999354501      0.511318682      
30.76            0.999354278      0.504682755      0.00882914709    -85.553616       0.00882914709    -85.553616       0.999354278      0.504682755      
30.88            0.999354009      0.4980804        0.00871428398    -85.4997535      0.00871428398    -85.4997535      0.999354009      0.4980804        
31               0.999353692      0.491511231      0.00860001046    -85.4443261      0.00860001046    -85.4443261      0.999353692      0.491511231      
31.12            0.999353329      0.484974865      0.00848632022    -85.3872835      0.00848632022    -85.3872835      0.999353329      0.484974865      
31.24            0.99935292       0.478470927      0.00837320709    -85.3285732      0.00837320709    -85.3285732      0.99935292       0.478470927      
31.36            0.999352465      0.471999045      0.008260665      -85.2681402      0.008260665      -85.2681402      0.999352465      0.471999045      
31.48            0.999351966      0.465558855      0.00814868801    -85.2059271      0.00814868801    -85.2059271      0.999351966      0.465558855      
31.6             0.999351422      0.459149999      0.00803727029    -85.1418736      0.00803727029    -85.1418736      0.999351422      0.459149999      
31.72            0.999350835      0.452772123      0.00792640612    -85.0759167      0.00792640612    -85.0759167      0.999350835      0.452772123      
31.84            0.999350203      0.446424878      0.0078160899     -85.0079905      0.0078160899     -85.0079905      0.999350203      0.446424878      
31.96            0.999349529      0.440107921      0.00770631616    -84.9380257      0.00770631616    -84.9380257      0.999349529      0.440107921      
32.08            0.999348812      0.433820914      0.00759707951    -84.8659496      0.00759707951    -84.8659496      0.999348812      0.433820914      
32.2             0.999348053      0.427563525      0.0074883747     -84.7916862      0.0074883747     -84.7916862      0.999348053      0.427563525      
32.32            0.999347251      0.421335426      0.00738019659    -84.7151555      0.00738019659    -84.7151555      0.999347251      0.421335426      
32.44            0.999346409      0.415136292      0.00727254015    -84.6362733      0.00727254015    -84.6362733      0.999346409      0.415136292      
32.56            0.999345525      0.408965807      0.00716540047    -84.5549515      0.00716540047    -84.5549515      0.999345525      0.408965807      
32.68            0.999344601      0.402823656      0.00705877274    -84.4710972      0.00705877274    -84.4710972      0.999344601      0.402823656      
32.8             0.999343636      0.39670953       0.00695265228    -84.3846125      0.00695265228    -84.3846125      0.999343636      0.39670953       
32.92            0.999342631      0.390623125      0.00684703453    -84.2953946      0.00684703453    -84.2953946      0.999342631      0.390623125      
33.04            0.999341587      0.38456414       0.00674191504    -84.203335       0.00674191504    -84.203335       0.999341587      0.38456414       
33.16            0.999340504      0.37853228       0.00663728947    -84.1083195      0.00663728947    -84.1083195      0.999340504      0.37853228       
33.28            0.999339382      0.372527252      0.00653315361    -84.0102272      0.00653315361    -84.0102272      0.999339382      0.372527252      
33.4             0.999338222      0.366548771      0.00642950338    -83.9089309      0.00642950338    -83.9089309      0.999338222      0.366548771      
33.52            0.999337023      0.360596552      0.00632633482    -83.8042959      0.00632633482    -83.8042959      0.999337023      0.360596552      
33.64            0.999335787      0.354670316      0.00622364409    -83.6961801      0.00622364409    -83.6961801      0.999335787      0.354670316      
33.76            0.999334513      0.348769788      0.00612142747    -83.5844328      0.00612142747    -83.5844328      0.999334513      0.348769788      
33.88            0.999333202      0.342894697      0.00601968141    -83.4688946      0.00601968141    -83.4688946      0.999333202      0.342894697      
34               0.999331854      0.337044774      0.00591840246    -83.3493966      0.00591840246    -83.3493966      0.999331854      0.337044774      
34.12            0.99933047       0.331219758      0.00581758734    -83.2257596      0.00581758734    -83.2257596      0.99933047       0.331219758      
34.24            0.999329049      0.325419386      0.00571723288    -83.0977934      0.00571723288    -83.0977934      0.999329049      0.325419386      
34.36            0.999327593      0.319643403      0.0056173361     -82.9652961      0.0056173361     -82.9652961      0.999327593      0.319643403      
34.48            0.999326101      0.313891556      0.00551789415    -82.8280527      0.00551789415    -82.8280527      0.999326101      0.313891556      
34.6             0.999324574      0.308163596      0.00541890436    -82.6858347      0.00541890436    -82.6858347      0.999324574      0.308163596      
34.72            0.999323012      0.302459277      0.00532036421    -82.5383985      0.00532036421    -82.5383985      0.999323012      0.302459277      
34.84            0.999321416      0.296778356      0.00522227139    -82.3854845      0.00522227139    -82.3854845      0.999321416      0.296778356      
34.96            0.999319785      0.291120594      0.00512462374    -82.2268156      0.00512462374    -82.2268156      0.999319785      0.291120594      
35.08            0.999318119      0.285485755      0.00502741934    -82.0620956      0.00502741934    -82.0620956      0.999318119      0.285485755      
35.2             0.99931642       0.279873607      0.00493065643    -81.8910079      0.00493065643    -81.8910079      0.99931642       0.279873607      
35.32            0.999314688      0.274283919      0.00483433353    -81.7132135      0.00483433353    -81.7132135      0.999314688      0.274283919      
35.44            0.999312922      0.268716467      0.00473844933    -81.5283491      0.00473844933    -81.5283491      0.999312922      0.268716467      
35.56            0.999311123      0.263171025      0.00464300284    -81.3360248      0.00464300284    -81.3360248      0.999311123      0.263171025      
35.68            0.999309291      0.257647374      0.00454799328    -81.1358217      0.00454799328    -81.1358217      0.999309291      0.257647374      
35.8             0.999307427      0.252145297      0.0044534202     -80.9272894      0.0044534202     -80.9272894      0.999307427      0.252145297      
35.92            0.99930553       0.246664578      0.00435928345    -80.7099427      0.00435928345    -80.7099427      0.99930553       0.246664578      
36.04            0.999303602      0.241205007      0.0042655832     -80.4832585      0.0042655832     -80.4832585      0.999303602      0.241205007      
36.16            0.999301641      0.235766374      0.00417232       -80.246672       0.00417232       -80.246672       0.999301641      0.235766374      
36.28            0.999299649      0.230348473      0.0040794948     -79.9995723      0.0040794948     -79.9995723      0.999299649      0.230348473      
36.4             0.999297626      0.224951102      0.00398710896    -79.7412984      0.00398710896    -79.7412984      0.999297626      0.224951102      
36.52            0.999295571      0.219574059      0.00389516434    -79.4711331      0.00389516434    -79.4711331      0.999295571      0.219574059      
36.64            0.999293486      0.214217146      0.00380366328    -79.1882977      0.00380366328    -79.1882977      0.999293486      0.214217146      
36.76            0.99929137       0.208880169      0.00371260873    -78.8919455      0.00371260873    -78.8919455      0.99929137       0.208880169      
36.88            0.999289223      0.203562933      0.00362200423    -78.5811536      0.00362200423    -78.5811536      0.999289223      0.203562933      
37               0.999287047      0.198265248      0.00353185403    -78.2549155      0.00353185403    -78.2549155      0.999287047      0.198265248      
37.12            0.99928484       0.192986928      0.00344216313    -77.9121305      0.00344216313    -77.9121305      0.99928484       0.192986928      
37.24            0.999282603      0.187727785      0.00335293741    -77.5515936      0.00335293741    -77.5515936      0.999282603      0.187727785      
37.36            0.999280337      0.182487638      0.00326418369    -77.1719829      0.00326418369    -77.1719829      0.999280337      0.182487638      
37.48            0.999278042      0.177266305      0.00317590985    -76.7718454      0.00317590985    -76.7718454      0.999278042      0.177266305      
37.6             0.999275717      0.172063607      0.00308812497    -76.3495813      0.00308812497    -76.3495813      0.999275717      0.172063607      
37.72            0.999273363      0.166879369      0.00300083948    -75.9034251      0.00300083948    -75.9034251      0.999273363      0.166879369      
37.84            0.99927098       0.161713417      0.00291406535    -75.4314251      0.00291406535    -75.4314251      0.99927098       0.161713417      
37.96            0.999268569      0.156565578      0.00282781625    -74.9314187      0.00282781625    -74.9314187      0.999268569      0.156565578      
38.08            0.999266129      0.151435684      0.00274210784    -74.4010046      0.00274210784    -74.4010046      0.999266129      0.151435684      
38.2             0.999263662      0.146323566      0.002656958      -73.8375108      0.002656958      -73.8375108      0.999263662      0.146323566      
38.32            0.999261166      0.14122906       0.0025723872     -73.2379572      0.0025723872     -73.2379572      0.999261166      0.14122906       
38.44            0.999258642      0.136152002      0.00248841884    -72.5990125      0.00248841884    -72.5990125      0.999258642      0.136152002      
38.56            0.99925609       0.13109223       0.00240507972    -71.9169445      0.00240507972    -71.9169445      0.99925609       0.13109223       
38.68            0.999253511      0.126049587      0.00232240058    -71.1875622      0.00232240058    -71.1875622      0.999253511      0.126049587      
38.8             0.999250904      0.121023913      0.00224041671    -70.4061484      0.00224041671    -70.4061484      0.999250904      0.121023913      
38.92            0.999248271      0.116015055      0.00215916872    -69.5673822      0.00215916872    -69.5673822      0.999248271      0.116015055      
39.04            0.99924561       0.111022858      0.00207870342    -68.6652487      0.00207870342    -68.6652487      0.99924561       0.111022858      
39.16            0.999242922      0.106047171      0.00199907491    -67.6929348      0.00199907491    -67.6929348      0.999242922      0.106047171      
39.28            0.999240208      0.101087844      0.00192034584    -66.6427091      0.00192034584    -66.6427091      0.999240208      0.101087844      
39.4             0.999237467      0.0961447296     0.00184258896    -65.5057854      0.00184258896    -65.5057854      0.999237467      0.0961447296     
39.52            0.9992347        0.0912176816     0.00176588901    -64.272167       0.00176588901    -64.272167       0.9992347        0.0912176816     
39.64            0.999231906      0.0863065556     0.00169034486    -62.9304741      0.00169034486    -62.9304741      0.999231906      0.0863065556     
39.76            0.999229086      0.0814112091     0.00161607229    -61.4677548      0.00161607229    -61.4677548      0.999229086      0.0814112091     
39.88            0.999226241      0.0765315013     0.00154320709    -59.8692871      0.00154320709    -59.8692871      0.999226241      0.0765315013     
40               0.99922337       0.071667293      0.0014719089     -58.1183823      0.0014719089     -58.1183823      0.99922337       0.071667293      
40.12            0.999220473      0.0668184467     0.00140236571    -56.1962118      0.00140236571    -56.1962118      0.999220473      0.0668184467     
40.24            0.99921755       0.0619848266     0.001334799      -54.0816916      0.001334799      -54.0816916      0.99921755       0.0619848266     
40.36            0.999214602      0.0571662984     0.00126946965    -51.7514823      0.00126946965    -51.7514823      0.999214602      0.0571662984     
40.48            0.999211629      0.0523627296     0.00120668435    -49.18019        0.00120668435    -49.18019        0.999211629      0.0523627296     
40.6             0.999208631      0.0475739892     0.00114680219    -46.3408921      0.00114680219    -46.3408921      0.999208631      0.0475739892     
40.72            0.999205608      0.0427999475     0.00109024064    -43.2061605      0.00109024064    -43.2061605      0.999205608      0.0427999475     
40.84            0.99920256       0.0380404766     0.00103747979    -39.7497865      0.00103747979    -39.7497865      0.99920256       0.0380404766     
40.96            0.999199487      0.0332954501     0.000989062773   -35.9494272      0.000989062773   -35.9494272      0.999199487      0.0332954501     
41.08            0.99919639       0.0285647429     0.00094558975    -31.7903156      0.00094558975    -31.7903156      0.99919639       0.0285647429     
41.2             0.999193269      0.0238482315     0.000907702244   -27.2699663      0.000907702244   -27.2699663      0.999193269      0.0238482315     
41.32            0.999190123      0.0191457939     0.000876054659   -22.4033977      0.000876054659   -22.4033977      0.999190123      0.0191457939     
41.44            0.999186953      0.0144573092     0.00085127163    -17.2278056      0.00085127163    -17.2278056      0.999186953      0.0144573092     
41.56            0.999183759      0.0097826583     0.00083389339    -11.8050767      0.00083389339    -11.8050767      0.999183759      0.0097826583     
41.68            0.999180541      0.00512172321    0.000824316583   -6.22041733      0.000824316583   -6.22041733      0.999180541      0.00512172321    
41.8             0.999177299      0.000474387381   0.000822742775   -0.576127928     0.000822742775   -0.576127928     0.999177299      0.000474387381   
41.92            0.999174033      -0.00415946439   0.000829148199   5.01882337       0.000829148199   5.01882337       0.999174033      -0.00415946439   
42.04            0.999170744      -0.00877994602   0.000843283855   10.461003        0.000843283855   10.461003        0.999170744      -0.00877994602   
42.16            0.999167432      -0.0133871701    0.000864706129   15.6632352       0.000864706129   15.6632352       0.999167432      -0.0133871701    
42.28            0.999164096      -0.0179812479    0.000892829012   20.5612847       0.000892829012   20.5612847       0.999164096      -0.0179812479    
42.4             0.999160737      -0.0225622896    0.000926984301   25.1156676       0.000926984301   25.1156676       0.999160737      -0.0225622896    
42.52            0.999157355      -0.0271304038    0.000966477277   29.3094382       0.000966477277   29.3094382       0.999157355      -0.0271304038    
42.64            0.99915395       -0.0316856983    0.00101063016    33.1436438       0.00101063016    33.1436438       0.99915395       -0.0316856983    
42.76            0.999150522      -0.0362282794    0.00105881101    36.6320997       0.00105881101    36.6320997       0.999150522      -0.0362282794    
42.88            0.999147071      -0.0407582522    0.00111044941    39.7966055       0.00111044941    39.7966055       0.999147071      -0.0407582522    
43               0.999143597      -0.0452757208    0.00116504227    42.6631321       0.00116504227    42.6631321       0.999143597      -0.0452757208    
43.12            0.999140101      -0.049780788     0.00122215288    45.2590791       0.00122215288    45.2590791       0.999140101      -0.049780788     
43.24            0.999136582      -0.0542735555    0.00128140622    47.6114703       0.00128140622    47.6114703       0.999136582      -0.0542735555    
43.36            0.999133041      -0.0587541239    0.00134248242    49.7458741       0.00134248242    49.7458741       0.999133041      -0.0587541239    
43.48            0.999129478      -0.0632225926    0.00140510971    51.685838        0.00140510971    51.685838        0.999129478      -0.0632225926    
43.6             0.999125893      -0.0676790599    0.00146905756    53.4526626       0.00146905756    53.4526626       0.999125893      -0.0676790599    
43.72            0.999122285      -0.0721236233    0.00153413046    55.0653875       0.00153413046    55.0653875       0.999122285      -0.0721236233    
43.84            0.999118656      -0.0765563787    0.00160016244    56.5408978       0.00160016244    56.5408978       0.999118656      -0.0765563787    
43.96            0.999115004      -0.0809774215    0.00166701232    57.8940945       0.00166701232    57.8940945       0.999115004      -0.0809774215    
44.08            0.999111331      -0.0853868458    0.00173455974    59.138089        0.00173455974    59.138089        0.999111331      -0.0853868458    
44.2             0.999107636      -0.0897847445    0.00180270181    60.2844023       0.00180270181    60.2844023       0.999107636      -0.0897847445    
44.32            0.99910392       -0.0941712098    0.00187135029    61.343155        0.00187135029    61.343155        0.99910392       -0.0941712098    
44.44            0.999100182      -0.0985463328    0.0019404293     62.3232415       0.0019404293     62.3232415       0.999100182      -0.0985463328    
44.56            0.999096422      -0.102910204     0.00200987335    63.2324873       0.00200987335    63.2324873       0.999096422      -0.102910204     
44.68            0.999092641      -0.107262911     0.00207962575    64.0777875       0.00207962575    64.0777875       0.999092641      -0.107262911     
44.8             0.999088839      -0.111604544     0.00214963729    64.8652282       0.00214963729    64.8652282       0.999088839      -0.111604544     
44.92            0.999085016      -0.115935189     0.00221986511    65.6001923       0.00221986511    65.6001923       0.999085016      -0.115935189     
45.04            0.999081172      -0.120254933     0.00229027176    66.2874508       0.00229027176    66.2874508       0.999081172      -0.120254933     
45.16            0.999077306      -0.12456386      0.00236082443    66.9312421       0.00236082443    66.9312421       0.999077306      -0.12456386      
45.28            0.99907342       -0.128862056     0.00243149432    67.5353392       0.00243149432    67.5353392       0.99907342       -0.128862056     
45.4             0.999069513      -0.133149604     0.00250225606    68.1031095       0.00250225606    68.1031095       0.999069513      -0.133149604     
45.52            0.999065585      -0.137426587     0.00257308726    68.6375645       0.00257308726    68.6375645       0.999065585      -0.137426587     
45.64            0.999061636      -0.141693086     0.00264396809    69.141404        0.00264396809    69.141404        0.999061636      -0.141693086     
45.76            0.999057667      -0.145949182     0.002714881      69.6170537       0.002714881      69.6170537       0.999057667      -0.145949182     
45.88            0.999053677      -0.150194956     0.00278581036    70.0666977       0.00278581036    70.0666977       0.999053677      -0.150194956     
46               0.999049667      -0.154430487     0.00285674229    70.4923068       0.00285674229    70.4923068       0.999049667      -0.154430487     
46.12            0.999045637      -0.158655853     0.00292766441    70.8956634       0.00292766441    70.8956634       0.999045637      -0.158655853     
46.24            0.999041586      -0.162871132     0.00299856563    71.2783823       0.00299856563    71.2783823       0.999041586      -0.162871132     
46.36            0.999037515      -0.1670764       0.00306943608    71.6419298       0.00306943608    71.6419298       0.999037515      -0.1670764       
46.48            0.999033423      -0.171271734     0.00314026689    71.98764         0.00314026689    71.98764         0.999033423      -0.171271734     
46.6             0.999029312      -0.175457209     0.00321105012    72.3167284       0.00321105012    72.3167284       0.999029312      -0.175457209     
46.72            0.999025181      -0.179632899     0.00328177864    72.6303052       0.00328177864    72.6303052       0.999025181      -0.179632899     
46.84            0.999021029      -0.183798879     0.00335244605    72.9293858       0.00335244605    72.9293858       0.999021029      -0.183798879     
46.96            0.999016858      -0.18795522      0.00342304658    73.2149006       0.00342304658    73.2149006       0.999016858      -0.18795522      
47.08            0.999012667      -0.192101995     0.00349357507    73.4877035       0.00349357507    73.4877035       0.999012667      -0.192101995     
47.2             0.999008457      -0.196239276     0.00356402686    73.7485796       0.00356402686    73.7485796       0.999008457      -0.196239276     
47.32            0.999004226      -0.200367133     0.00363439776    73.9982516       0.00363439776    73.9982516       0.999004226      -0.200367133     
47.44            0.998999976      -0.204485637     0.003704684      74.237386        0.003704684      74.237386        0.998999976      -0.204485637     
47.56            0.998995707      -0.208594856     0.00377488218    74.4665983       0.00377488218    74.4665983       0.998995707      -0.208594856     
47.68            0.998991418      -0.212694859     0.00384498925    74.6864578       0.00384498925    74.6864578       0.998991418      -0.212694859     
47.8             0.998987109      -0.216785714     0.00391500246    74.8974914       0.00391500246    74.8974914       0.998987109      -0.216785714     
47.92            0.998982782      -0.220867489     0.00398491936    75.1001881       0.00398491936    75.1001881       0.998982782      -0.220867489     
48.04            0.998978435      -0.224940249     0.00405473774    75.2950017       0.00405473774    75.2950017       0.998978435      -0.224940249     
48.16            0.998974068      -0.229004061     0.0041244556     75.482354        0.0041244556     75.482354        0.998974068      -0.229004061     
48.28            0.998969683      -0.23305899      0.00419407118    75.6626378       0.00419407118    75.6626378       0.998969683      -0.23305899      
48.4             0.998965278      -0.237105101     0.00426358289    75.8362192       0.00426358289    75.8362192       0.998965278      -0.237105101     
48.52            0.998960855      -0.241142456     0.00433298932    76.0034394       0.00433298932    76.0034394       0.998960855      -0.241142456     
48.64            0.998956412      -0.245171121     0.00440228923    76.1646175       0.00440228923    76.1646175       0.998956412      -0.245171121     
48.76            0.998951951      -0.249191157     0.0044714815     76.3200516       0.0044714815     76.3200516       0.998951951      -0.249191157     
48.88            0.998947471      -0.253202626     0.00454056517    76.4700208       0.00454056517    76.4700208       0.998947471      -0.253202626     
49               0.998942971      -0.25720559      0.00460953937    76.6147866       0.00460953937    76.6147866       0.998942971      -0.25720559      
49.12            0.998938454      -0.26120011      0.00467840337    76.7545942       0.00467840337    76.7545942       0.998938454      -0.26120011      
49.24            0.998933917      -0.265186245     0.00474715652    76.8896739       0.00474715652    76.8896739       0.998933917      -0.265186245     
49.36            0.998929362      -0.269164057     0.00481579827    77.020242        0.00481579827    77.020242        0.998929362      -0.269164057     
49.48            0.998924788      -0.273133602     0.00488432817    77.146502        0.00488432817    77.146502        0.998924788      -0.273133602     
49.6             0.998920196      -0.277094941     0.00495274583    77.2686454       0.00495274583    77.2686454       0.998920196      -0.277094941     
49.72            0.998915585      -0.281048131     0.00502105093    77.3868526       0.00502105093    77.3868526       0.998915585      -0.281048131     
49.84            0.998910956      -0.284993229     0.00508924324    77.5012939       0.00508924324    77.5012939       0.998910956      -0.284993229     
49.96            0.998906308      -0.288930293     0.00515732256    77.6121296       0.00515732256    77.6121296       0.998906308      -0.288930293     
50               0.998904755      -0.290240872     0.00517999054    77.6483001       0.00517999054    77.6483001       0.998904755      -0.290240872     
