! Coilcraft 1812CS-223 Chip Inductor				
! 31 July 2002			
# MHZ S MA R 50
!Freq             MagS11           AngS11           MagS21           AngS21           MagS12           AngS12           MagS22           AngS22
1                0.762702738      32.688254        0.545803441      -48.9980959      0.545803441      -48.9980959      0.762702738      32.688254        
1.17             0.807682569      29.4059839       0.495081347      -53.2271967      0.495081347      -53.2271967      0.807682569      29.4059839       
1.34             0.841778831      26.6241436       0.451164238      -56.7335239      0.451164238      -56.7335239      0.841778831      26.6241436       
1.51             0.867984891      24.2626957       0.413236543      -59.6688275      0.413236543      -59.6688275      0.867984891      24.2626957       
1.68             0.888424526      22.247369        0.380422763      -62.1510256      0.380422763      -62.1510256      0.888424526      22.247369        
1.85             0.904598901      20.5155361       0.351917278      -64.2708747      0.351917278      -64.2708747      0.904598901      20.5155361       
2.02             0.91757508       19.0163066       0.327025341      -66.0982355      0.327025341      -66.0982355      0.91757508       19.0163066       
2.19             0.928119392      17.7088981       0.305165665      -67.6871647      0.305165665      -67.6871647      0.928119392      17.7088981       
2.36             0.93678908       16.5607312       0.285858541      -69.0798183      0.285858541      -69.0798183      0.93678908       16.5607312       
2.53             0.943994735      15.5457224       0.268710103      -70.3093696      0.268710103      -70.3093696      0.943994735      15.5457224       
2.7              0.950042929      14.6428848       0.253397041      -71.4021706      0.253397041      -71.4021706      0.950042929      14.6428848       
2.87             0.955165532      13.8352247       0.239653306      -72.3793534      0.239653306      -72.3793534      0.955165532      13.8352247       
3.04             0.959540083      13.1088857       0.227259077      -73.2580194      0.227259077      -73.2580194      0.959540083      13.1088857       
3.21             0.963304106      12.4524879       0.216031834      -74.0521306      0.216031834      -74.0521306      0.963304106      12.4524879       
3.38             0.9665653        11.8566192       0.205819217      -74.773181       0.205819217      -74.773181       0.9665653        11.8566192       
3.55             0.969408873      11.3134406       0.19649334       -75.4307072      0.19649334       -75.4307072      0.969408873      11.3134406       
3.72             0.971902882      10.8163799       0.187946264      -76.0326802      0.187946264      -76.0326802      0.971902882      10.8163799       
3.89             0.974102174      10.3598917       0.180086394      -76.585809       0.180086394      -76.585809       0.974102174      10.3598917       
4.06             0.976051318      9.9392689        0.17283559       -77.0957769      0.17283559       -77.0957769      0.976051318      9.9392689        
4.23             0.977786815      9.55049321       0.166126857      -77.5674276      0.166126857      -77.5674276      0.977786815      9.55049321       
4.4              0.979338776      9.19011557       0.159902469      -78.0049129      0.159902469      -78.0049129      0.979338776      9.19011557       
4.57             0.980732208      8.8551605        0.154112459      -78.4118107      0.154112459      -78.4118107      0.980732208      8.8551605        
4.74             0.981988017      8.5430487        0.148713385      -78.7912197      0.148713385      -78.7912197      0.981988017      8.5430487        
4.91             0.983123779      8.2515341        0.143667315      -79.1458365      0.143667315      -79.1458365      0.983123779      8.2515341        
5.08             0.984154361      7.97865238       0.138940995      -79.4780178      0.138940995      -79.4780178      0.984154361      7.97865238       
5.25             0.985092398      7.72267866       0.134505164      -79.7898325      0.134505164      -79.7898325      0.985092398      7.72267866       
5.42             0.985948688      7.48209247       0.130333979      -80.0831035      0.130333979      -80.0831035      0.985948688      7.48209247       
5.59             0.986732497      7.25554865       0.126404534      -80.3594432      0.126404534      -80.3594432      0.986732497      7.25554865       
5.76             0.987451817      7.04185301       0.122696465      -80.6202828      0.122696465      -80.6202828      0.987451817      7.04185301       
5.93             0.988113568      6.83994191       0.119191605      -80.8668969      0.119191605      -80.8668969      0.988113568      6.83994191       
6.1              0.988723763      6.64886506       0.115873704      -81.1004242      0.115873704      -81.1004242      0.988723763      6.64886506       
6.27             0.989287652      6.46777091       0.112728181      -81.3218852      0.112728181      -81.3218852      0.989287652      6.46777091       
6.44             0.98980983       6.29589426       0.109741922      -81.532197       0.109741922      -81.532197       0.98980983       6.29589426       
6.61             0.990294337      6.13254564       0.106903095      -81.7321859      0.106903095      -81.7321859      0.990294337      6.13254564       
6.78             0.990744735      5.97710225       0.104201005      -81.9225984      0.104201005      -81.9225984      0.990744735      5.97710225       
6.95             0.99116417       5.82900011       0.101625958      -82.1041107      0.101625958      -82.1041107      0.99116417       5.82900011       
7.12             0.991555437      5.68772735       0.0991691483     -82.2773364      0.0991691483     -82.2773364      0.991555437      5.68772735       
7.29             0.991921019      5.55281836       0.0968225602     -82.4428342      0.0968225602     -82.4428342      0.991921019      5.55281836       
7.46             0.992263131      5.42384867       0.0945788815     -82.601113       0.0945788815     -82.601113       0.992263131      5.42384867       
7.63             0.992583755      5.30043057       0.0924314286     -82.7526382      0.0924314286     -82.7526382      0.992583755      5.30043057       
7.8              0.992884665      5.1822092        0.0903740811     -82.8978355      0.0903740811     -82.8978355      0.992884665      5.1822092        
7.97             0.993167457      5.0688592        0.0884012235     -83.0370956      0.0884012235     -83.0370956      0.993167457      5.0688592        
8.14             0.993433567      4.96008168       0.0865076951     -83.1707774      0.0865076951     -83.1707774      0.993433567      4.96008168       
8.31             0.993684291      4.85560161       0.0846887446     -83.2992111      0.0846887446     -83.2992111      0.993684291      4.85560161       
8.48             0.993920801      4.7551655        0.0829399909     -83.4227012      0.0829399909     -83.4227012      0.993920801      4.7551655        
8.65             0.994144159      4.65853932       0.0812573877     -83.541529       0.0812573877     -83.541529       0.994144159      4.65853932       
8.82             0.99435533       4.56550671       0.0796371924     -83.6559546      0.0796371924     -83.6559546      0.99435533       4.56550671       
8.99             0.99455519       4.47586733       0.078075938      -83.7662188      0.078075938      -83.7662188      0.99455519       4.47586733       
9.16             0.994744538      4.38943538       0.0765704088     -83.8725449      0.0765704088     -83.8725449      0.994744538      4.38943538       
9.33             0.994924104      4.30603838       0.0751176176     -83.9751406      0.0751176176     -83.9751406      0.994924104      4.30603838       
9.5              0.995094555      4.22551591       0.0737147862     -84.0741986      0.0737147862     -84.0741986      0.995094555      4.22551591       
9.67             0.995256501      4.14771866       0.0723593274     -84.1698988      0.0723593274     -84.1698988      0.995256501      4.14771866       
9.84             0.995410502      4.07250745       0.0710488288     -84.2624087      0.0710488288     -84.2624087      0.995410502      4.07250745       
10.01            0.995557073      3.99975238       0.0697810386     -84.3518846      0.0697810386     -84.3518846      0.995557073      3.99975238       
10.18            0.995696686      3.92933209       0.0685538522     -84.4384726      0.0685538522     -84.4384726      0.995696686      3.92933209       
10.35            0.995829779      3.86113306       0.0673653009     -84.5223095      0.0673653009     -84.5223095      0.995829779      3.86113306       
10.52            0.995956751      3.79504899       0.0662135404     -84.6035232      0.0662135404     -84.6035232      0.995956751      3.79504899       
10.69            0.996077976      3.73098025       0.0650968419     -84.6822338      0.0650968419     -84.6822338      0.996077976      3.73098025       
10.86            0.996193796      3.66883334       0.0640135826     -84.758554       0.0640135826     -84.758554       0.996193796      3.66883334       
11.03            0.996304529      3.60852046       0.0629622383     -84.8325894      0.0629622383     -84.8325894      0.996304529      3.60852046       
11.2             0.99641047       3.54995905       0.0619413757     -84.9044397      0.0619413757     -84.9044397      0.99641047       3.54995905       
11.37            0.996511892      3.49307144       0.0609496457     -84.9741983      0.0609496457     -84.9741983      0.996511892      3.49307144       
11.54            0.99660905       3.43778444       0.0599857774     -85.0419535      0.0599857774     -85.0419535      0.99660905       3.43778444       
11.71            0.996702179      3.3840291        0.0590485729     -85.1077883      0.0590485729     -85.1077883      0.996702179      3.3840291        
11.88            0.9967915        3.33174033       0.0581369014     -85.1717812      0.0581369014     -85.1717812      0.9967915        3.33174033       
12.05            0.996877217      3.28085669       0.0572496952     -85.2340062      0.0572496952     -85.2340062      0.996877217      3.28085669       
12.22            0.996959523      3.23132012       0.0563859452     -85.2945333      0.0563859452     -85.2945333      0.996959523      3.23132012       
12.39            0.997038596      3.18307569       0.0555446968     -85.3534286      0.0555446968     -85.3534286      0.997038596      3.18307569       
12.56            0.997114602      3.13607143       0.0547250465     -85.4107547      0.0547250465     -85.4107547      0.997114602      3.13607143       
12.73            0.997187698      3.0902581        0.0539261383     -85.466571       0.0539261383     -85.466571       0.997187698      3.0902581        
12.9             0.997258031      3.04558904       0.0531471608     -85.5209335      0.0531471608     -85.5209335      0.997258031      3.04558904       
13.07            0.997325738      3.00201999       0.0523873443     -85.5738955      0.0523873443     -85.5738955      0.997325738      3.00201999       
13.24            0.997390946      2.95950894       0.051645958      -85.6255077      0.051645958      -85.6255077      0.997390946      2.95950894       
13.41            0.997453778      2.91801598       0.0509223081     -85.675818       0.0509223081     -85.675818       0.997453778      2.91801598       
13.58            0.997514346      2.87750318       0.0502157346     -85.7248719      0.0502157346     -85.7248719      0.997514346      2.87750318       
13.75            0.997572758      2.83793449       0.0495256102     -85.7727129      0.0495256102     -85.7727129      0.997572758      2.83793449       
13.92            0.997629113      2.79927557       0.0488513378     -85.8193821      0.0488513378     -85.8193821      0.997629113      2.79927557       
14.09            0.997683507      2.76149375       0.0481923486     -85.8649188      0.0481923486     -85.8649188      0.997683507      2.76149375       
14.26            0.997736029      2.72455789       0.0475481009     -85.9093603      0.0475481009     -85.9093603      0.997736029      2.72455789       
14.43            0.997786761      2.68843832       0.0469180781     -85.9527423      0.0469180781     -85.9527423      0.997786761      2.68843832       
14.6             0.997835785      2.65310671       0.0463017874     -85.9950985      0.0463017874     -85.9950985      0.997835785      2.65310671       
14.77            0.997883175      2.61853605       0.0456987587     -86.0364614      0.0456987587     -86.0364614      0.997883175      2.61853605       
14.94            0.997929001      2.58470054       0.0451085427     -86.0768618      0.0451085427     -86.0768618      0.997929001      2.58470054       
15.11            0.997973331      2.55157554       0.0445307105     -86.1163292      0.0445307105     -86.1163292      0.997973331      2.55157554       
15.28            0.998016228      2.51913748       0.0439648519     -86.1548916      0.0439648519     -86.1548916      0.998016228      2.51913748       
15.45            0.998057752      2.48736384       0.0434105746     -86.1925759      0.0434105746     -86.1925759      0.998057752      2.48736384       
15.62            0.99809796       2.45623306       0.0428675033     -86.2294078      0.0428675033     -86.2294078      0.99809796       2.45623306       
15.79            0.998136906      2.4257245        0.0423352787     -86.2654118      0.0423352787     -86.2654118      0.998136906      2.4257245        
15.96            0.998174641      2.39581841       0.0418135567     -86.3006113      0.0418135567     -86.3006113      0.998174641      2.39581841       
16.13            0.998211213      2.36649584       0.0413020074     -86.3350289      0.0413020074     -86.3350289      0.998211213      2.36649584       
16.3             0.998246668      2.33773865       0.0408003149     -86.368686       0.0408003149     -86.368686       0.998246668      2.33773865       
16.47            0.998281051      2.30952942       0.0403081758     -86.4016031      0.0403081758     -86.4016031      0.998281051      2.30952942       
16.64            0.998314403      2.28185147       0.0398252994     -86.4338         0.0398252994     -86.4338         0.998314403      2.28185147       
16.81            0.998346764      2.25468876       0.0393514065     -86.4652955      0.0393514065     -86.4652955      0.998346764      2.25468876       
16.98            0.99837817       2.2280259        0.0388862289     -86.4961077      0.0388862289     -86.4961077      0.99837817       2.2280259        
17.15            0.998408658      2.2018481        0.0384295091     -86.5262539      0.0384295091     -86.5262539      0.998408658      2.2018481        
17.32            0.998438263      2.17614116       0.0379809996     -86.5557507      0.0379809996     -86.5557507      0.998438263      2.17614116       
17.49            0.998467016      2.15089142       0.0375404624     -86.5846141      0.0375404624     -86.5846141      0.998467016      2.15089142       
17.66            0.998494949      2.12608574       0.0371076687     -86.6128593      0.0371076687     -86.6128593      0.998494949      2.12608574       
17.83            0.998522092      2.10171149       0.0366823983     -86.6405011      0.0366823983     -86.6405011      0.998522092      2.10171149       
18               0.998548472      2.0777565        0.0362644391     -86.6675533      0.0362644391     -86.6675533      0.998548472      2.0777565        
18.17            0.998574117      2.05420905       0.0358535873     -86.6940296      0.0358535873     -86.6940296      0.998574117      2.05420905       
18.34            0.998599052      2.03105788       0.0354496462     -86.7199429      0.0354496462     -86.7199429      0.998599052      2.03105788       
18.51            0.998623302      2.00829212       0.0350524265     -86.7453056      0.0350524265     -86.7453056      0.998623302      2.00829212       
18.68            0.99864689       1.98590128       0.0346617457     -86.7701297      0.0346617457     -86.7701297      0.99864689       1.98590128       
18.85            0.99866984       1.96387528       0.0342774277     -86.7944266      0.0342774277     -86.7944266      0.99866984       1.96387528       
19.02            0.998692172      1.94220437       0.0338993029     -86.8182073      0.0338993029     -86.8182073      0.998692172      1.94220437       
19.19            0.998713907      1.92087917       0.0335272076     -86.8414825      0.0335272076     -86.8414825      0.998713907      1.92087917       
19.36            0.998735065      1.89989059       0.0331609836     -86.8642622      0.0331609836     -86.8642622      0.998735065      1.89989059       
19.53            0.998755666      1.8792299        0.0328004785     -86.8865562      0.0328004785     -86.8865562      0.998755666      1.8792299        
19.7             0.998775726      1.85888863       0.032445545      -86.9083739      0.032445545      -86.9083739      0.998775726      1.85888863       
19.87            0.998795263      1.83885862       0.0320960406     -86.9297242      0.0320960406     -86.9297242      0.998795263      1.83885862       
20.04            0.998814295      1.81913199       0.031751828      -86.9506159      0.031751828      -86.9506159      0.998814295      1.81913199       
20.21            0.998832836      1.79970111       0.0314127742     -86.9710571      0.0314127742     -86.9710571      0.998832836      1.79970111       
20.38            0.998850903      1.7805586        0.0310787507     -86.9910559      0.0310787507     -86.9910559      0.998850903      1.7805586        
20.55            0.99886851       1.76169735       0.0307496332     -87.0106199      0.0307496332     -87.0106199      0.99886851       1.76169735       
20.72            0.998885671      1.74311045       0.0304253017     -87.0297565      0.0304253017     -87.0297565      0.998885671      1.74311045       
20.89            0.9989024        1.72479123       0.0301056396     -87.0484726      0.0301056396     -87.0484726      0.9989024        1.72479123       
21.06            0.99891871       1.70673324       0.0297905346     -87.0667751      0.0297905346     -87.0667751      0.99891871       1.70673324       
21.23            0.998934613      1.68893022       0.0294798775     -87.0846705      0.0294798775     -87.0846705      0.998934613      1.68893022       
21.4             0.998950122      1.67137612       0.0291735629     -87.1021648      0.0291735629     -87.1021648      0.998950122      1.67137612       
21.57            0.998965248      1.65406508       0.0288714885     -87.1192642      0.0288714885     -87.1192642      0.998965248      1.65406508       
21.74            0.998980001      1.63699141       0.0285735552     -87.1359744      0.0285735552     -87.1359744      0.998980001      1.63699141       
21.91            0.998994394      1.62014961       0.0282796671     -87.1523007      0.0282796671     -87.1523007      0.998994394      1.62014961       
22.08            0.999008437      1.60353434       0.0279897311     -87.1682485      0.0279897311     -87.1682485      0.999008437      1.60353434       
22.25            0.999022138      1.58714043       0.0277036571     -87.1838227      0.0277036571     -87.1838227      0.999022138      1.58714043       
22.42            0.999035509      1.57096286       0.0274213575     -87.1990282      0.0274213575     -87.1990282      0.999035509      1.57096286       
22.59            0.999048557      1.55499676       0.0271427474     -87.2138695      0.0271427474     -87.2138695      0.999048557      1.55499676       
22.76            0.999061293      1.53923741       0.0268677446     -87.2283511      0.0268677446     -87.2283511      0.999061293      1.53923741       
22.93            0.999073724      1.52368023       0.026596269      -87.242477       0.026596269      -87.242477       0.999073724      1.52368023       
23.1             0.99908586       1.50832077       0.0263282432     -87.2562514      0.0263282432     -87.2562514      0.99908586       1.50832077       
23.27            0.999097707      1.4931547        0.0260635918     -87.2696779      0.0260635918     -87.2696779      0.999097707      1.4931547        
23.44            0.999109274      1.47817785       0.0258022418     -87.2827602      0.0258022418     -87.2827602      0.999109274      1.47817785       
23.61            0.999120568      1.46338612       0.0255441219     -87.2955018      0.0255441219     -87.2955018      0.999120568      1.46338612       
23.78            0.999131597      1.44877557       0.0252891633     -87.3079058      0.0252891633     -87.3079058      0.999131597      1.44877557       
23.95            0.999142366      1.43434235       0.0250372989     -87.3199754      0.0250372989     -87.3199754      0.999142366      1.43434235       
24.12            0.999152884      1.42008271       0.0247884635     -87.3317135      0.0247884635     -87.3317135      0.999152884      1.42008271       
24.29            0.999163156      1.40599303       0.0245425937     -87.3431228      0.0245425937     -87.3431228      0.999163156      1.40599303       
24.46            0.999173189      1.39206978       0.024299628      -87.354206       0.024299628      -87.354206       0.999173189      1.39206978       
24.63            0.999182989      1.37830952       0.0240595064     -87.3649654      0.0240595064     -87.3649654      0.999182989      1.37830952       
24.8             0.999192561      1.3647089        0.0238221706     -87.3754035      0.0238221706     -87.3754035      0.999192561      1.3647089        
24.97            0.999201912      1.35126468       0.023587564      -87.3855222      0.023587564      -87.3855222      0.999201912      1.35126468       
25.14            0.999211046      1.33797369       0.0233556315     -87.3953236      0.0233556315     -87.3953236      0.999211046      1.33797369       
25.31            0.999219969      1.32483286       0.0231263192     -87.4048096      0.0231263192     -87.4048096      0.999219969      1.32483286       
25.48            0.999228687      1.31183918       0.022899575      -87.4139818      0.022899575      -87.4139818      0.999228687      1.31183918       
25.65            0.999237204      1.29898975       0.022675348      -87.4228419      0.022675348      -87.4228419      0.999237204      1.29898975       
25.82            0.999245525      1.28628171       0.0224535886     -87.4313911      0.0224535886     -87.4313911      0.999245525      1.28628171       
25.99            0.999253654      1.27371231       0.0222342486     -87.4396309      0.0222342486     -87.4396309      0.999253654      1.27371231       
26.16            0.999261597      1.26127885       0.022017281      -87.4475624      0.022017281      -87.4475624      0.999261597      1.26127885       
26.33            0.999269357      1.24897869       0.02180264       -87.4551866      0.02180264       -87.4551866      0.999269357      1.24897869       
26.5             0.999276938      1.2368093        0.021590281      -87.4625043      0.021590281      -87.4625043      0.999276938      1.2368093        
26.67            0.999284346      1.22476816       0.0213801605     -87.4695164      0.0213801605     -87.4695164      0.999284346      1.22476816       
26.84            0.999291583      1.21285285       0.0211722362     -87.4762235      0.0211722362     -87.4762235      0.999291583      1.21285285       
27.01            0.999298654      1.201061         0.0209664667     -87.4826261      0.0209664667     -87.4826261      0.999298654      1.201061         
27.18            0.999305563      1.18939031       0.0207628116     -87.4887245      0.0207628116     -87.4887245      0.999305563      1.18939031       
27.35            0.999312312      1.17783851       0.0205612318     -87.4945191      0.0205612318     -87.4945191      0.999312312      1.17783851       
27.52            0.999318906      1.16640341       0.020361689      -87.5000098      0.020361689      -87.5000098      0.999318906      1.16640341       
27.69            0.999325348      1.15508287       0.0201641456     -87.5051969      0.0201641456     -87.5051969      0.999325348      1.15508287       
27.86            0.999331642      1.14387479       0.0199685654     -87.51008        0.0199685654     -87.51008        0.999331642      1.14387479       
28.03            0.999337789      1.13277714       0.0197749126     -87.5146589      0.0197749126     -87.5146589      0.999337789      1.13277714       
28.2             0.999343795      1.12178792       0.0195831525     -87.5189334      0.0195831525     -87.5189334      0.999343795      1.12178792       
28.37            0.999349661      1.11090519       0.0193932513     -87.5229029      0.0193932513     -87.5229029      0.999349661      1.11090519       
28.54            0.99935539       1.10012705       0.0192051758     -87.5265667      0.0192051758     -87.5265667      0.99935539       1.10012705       
28.71            0.999360986      1.08945165       0.0190188938     -87.5299241      0.0190188938     -87.5299241      0.999360986      1.08945165       
28.88            0.999366451      1.07887717       0.0188343736     -87.5329743      0.0188343736     -87.5329743      0.999366451      1.07887717       
29.05            0.999371789      1.06840186       0.0186515845     -87.5357162      0.0186515845     -87.5357162      0.999371789      1.06840186       
29.22            0.999377         1.05802398       0.0184704964     -87.5381488      0.0184704964     -87.5381488      0.999377         1.05802398       
29.39            0.999382089      1.04774185       0.0182910799     -87.5402707      0.0182910799     -87.5402707      0.999382089      1.04774185       
29.56            0.999387058      1.03755382       0.0181133061     -87.5420806      0.0181133061     -87.5420806      0.999387058      1.03755382       
29.73            0.999391908      1.02745829       0.0179371472     -87.543577       0.0179371472     -87.543577       0.999391908      1.02745829       
29.9             0.999396643      1.01745367       0.0177625756     -87.5447582      0.0177625756     -87.5447582      0.999396643      1.01745367       
30.07            0.999401264      1.00753843       0.0175895644     -87.5456226      0.0175895644     -87.5456226      0.999401264      1.00753843       
30.24            0.999405774      0.99771106       0.0174180876     -87.5461681      0.0174180876     -87.5461681      0.999405774      0.99771106       
30.41            0.999410175      0.9879701        0.0172481195     -87.5463927      0.0172481195     -87.5463927      0.999410175      0.9879701        
30.58            0.99941447       0.978314109      0.017079635      -87.5462943      0.017079635      -87.5462943      0.99941447       0.978314109      
30.75            0.999418659      0.968741681      0.0169126095     -87.5458705      0.0169126095     -87.5458705      0.999418659      0.968741681      
30.92            0.999422746      0.959251441      0.0167470193     -87.545119       0.0167470193     -87.545119       0.999422746      0.959251441      
31.09            0.999426731      0.949842044      0.0165828407     -87.5440371      0.0165828407     -87.5440371      0.999426731      0.949842044      
31.26            0.999430618      0.940512175      0.0164200509     -87.542622       0.0164200509     -87.542622       0.999430618      0.940512175      
31.43            0.999434407      0.931260546      0.0162586275     -87.5408709      0.0162586275     -87.5408709      0.999434407      0.931260546      
31.6             0.999438101      0.922085899      0.0160985484     -87.5387808      0.0160985484     -87.5387808      0.999438101      0.922085899      
31.77            0.999441701      0.912987         0.0159397922     -87.5363484      0.0159397922     -87.5363484      0.999441701      0.912987         
31.94            0.99944521       0.903962643      0.0157823379     -87.5335705      0.0157823379     -87.5335705      0.99944521       0.903962643      
32.11            0.999448628      0.895011647      0.0156261649     -87.5304435      0.0156261649     -87.5304435      0.999448628      0.895011647      
32.28            0.999451957      0.886132856      0.0154712531     -87.5269637      0.0154712531     -87.5269637      0.999451957      0.886132856      
32.45            0.999455199      0.877325139      0.0153175826     -87.5231274      0.0153175826     -87.5231274      0.999455199      0.877325139      
32.62            0.999458356      0.868587386      0.0151651343     -87.5189305      0.0151651343     -87.5189305      0.999458356      0.868587386      
32.79            0.999461428      0.859918513      0.0150138892     -87.5143689      0.0150138892     -87.5143689      0.999461428      0.859918513      
32.96            0.999464418      0.851317456      0.0148638288     -87.5094383      0.0148638288     -87.5094383      0.999464418      0.851317456      
33.13            0.999467327      0.842783174      0.0147149349     -87.504134       0.0147149349     -87.504134       0.999467327      0.842783174      
33.3             0.999470156      0.834314647      0.0145671898     -87.4984514      0.0145671898     -87.4984514      0.999470156      0.834314647      
33.47            0.999472906      0.825910876      0.0144205761     -87.4923855      0.0144205761     -87.4923855      0.999472906      0.825910876      
33.64            0.999475579      0.817570881      0.0142750767     -87.4859314      0.0142750767     -87.4859314      0.999475579      0.817570881      
33.81            0.999478177      0.809293704      0.0141306749     -87.4790836      0.0141306749     -87.4790836      0.999478177      0.809293704      
33.98            0.9994807        0.801078403      0.0139873543     -87.4718367      0.0139873543     -87.4718367      0.9994807        0.801078403      
34.15            0.999483149      0.792924056      0.0138450989     -87.4641849      0.0138450989     -87.4641849      0.999483149      0.792924056      
34.32            0.999485526      0.784829762      0.0137038929     -87.4561223      0.0137038929     -87.4561223      0.999485526      0.784829762      
34.49            0.999487832      0.776794633      0.013563721      -87.4476428      0.013563721      -87.4476428      0.999487832      0.776794633      
34.66            0.999490069      0.768817802      0.013424568      -87.4387399      0.013424568      -87.4387399      0.999490069      0.768817802      
34.83            0.999492236      0.760898417      0.0132864192     -87.4294069      0.0132864192     -87.4294069      0.999492236      0.760898417      
35               0.999494336      0.753035644      0.0131492599     -87.4196371      0.0131492599     -87.4196371      0.999494336      0.753035644      
35.17            0.999496369      0.745228663      0.0130130759     -87.4094233      0.0130130759     -87.4094233      0.999496369      0.745228663      
35.34            0.999498337      0.737476672      0.0128778533     -87.398758       0.0128778533     -87.398758       0.999498337      0.737476672      
35.51            0.99950024       0.729778883      0.0127435783     -87.3876337      0.0127435783     -87.3876337      0.99950024       0.729778883      
35.68            0.99950208       0.722134523      0.0126102376     -87.3760422      0.0126102376     -87.3760422      0.99950208       0.722134523      
35.85            0.999503857      0.714542835      0.0124778179     -87.3639755      0.0124778179     -87.3639755      0.999503857      0.714542835      
36.02            0.999505572      0.707003074      0.0123463064     -87.3514249      0.0123463064     -87.3514249      0.999505572      0.707003074      
36.19            0.999507226      0.699514511      0.0122156902     -87.3383816      0.0122156902     -87.3383816      0.999507226      0.699514511      
36.36            0.999508821      0.692076429      0.0120859571     -87.3248364      0.0120859571     -87.3248364      0.999508821      0.692076429      
36.53            0.999510357      0.684688126      0.0119570947     -87.3107798      0.0119570947     -87.3107798      0.999510357      0.684688126      
36.7             0.999511835      0.677348913      0.0118290911     -87.2962019      0.0118290911     -87.2962019      0.999511835      0.677348913      
36.87            0.999513255      0.670058111      0.0117019346     -87.2810925      0.0117019346     -87.2810925      0.999513255      0.670058111      
37.04            0.999514619      0.662815056      0.0115756135     -87.2654411      0.0115756135     -87.2654411      0.999514619      0.662815056      
37.21            0.999515928      0.655619096      0.0114501166     -87.2492366      0.0114501166     -87.2492366      0.999515928      0.655619096      
37.38            0.999517182      0.64846959       0.0113254328     -87.2324677      0.0113254328     -87.2324677      0.999517182      0.64846959       
37.55            0.999518381      0.641365909      0.011201551      -87.2151226      0.011201551      -87.2151226      0.999518381      0.641365909      
37.72            0.999519528      0.634307434      0.0110784607     -87.1971891      0.0110784607     -87.1971891      0.999519528      0.634307434      
37.89            0.999520621      0.62729356       0.0109561513     -87.1786545      0.0109561513     -87.1786545      0.999520621      0.62729356       
38.06            0.999521663      0.62032369       0.0108346124     -87.1595056      0.0108346124     -87.1595056      0.999521663      0.62032369       
38.23            0.999522654      0.613397239      0.010713834      -87.1397288      0.010713834      -87.1397288      0.999522654      0.613397239      
38.4             0.999523595      0.606513632      0.010593806      -87.11931        0.010593806      -87.11931        0.999523595      0.606513632      
38.57            0.999524486      0.599672305      0.0104745188     -87.0982345      0.0104745188     -87.0982345      0.999524486      0.599672305      
38.74            0.999525327      0.592872701      0.0103559626     -87.0764871      0.0103559626     -87.0764871      0.999525327      0.592872701      
38.91            0.999526121      0.586114277      0.010238128      -87.0540521      0.010238128      -87.0540521      0.999526121      0.586114277      
39.08            0.999526866      0.579396496      0.0101210059     -87.0309129      0.0101210059     -87.0309129      0.999526866      0.579396496      
39.25            0.999527564      0.572718831      0.0100045871     -87.0070527      0.0100045871     -87.0070527      0.999527564      0.572718831      
39.42            0.999528216      0.566080767      0.00988886264    -86.9824538      0.00988886264    -86.9824538      0.999528216      0.566080767      
39.59            0.999528822      0.559481793      0.00977382376    -86.9570977      0.00977382376    -86.9570977      0.999528822      0.559481793      
39.76            0.999529383      0.552921409      0.00965946186    -86.9309655      0.00965946186    -86.9309655      0.999529383      0.552921409      
39.93            0.999529898      0.546399126      0.00954576845    -86.9040374      0.00954576845    -86.9040374      0.999529898      0.546399126      
40.1             0.99953037       0.539914459      0.00943273521    -86.8762927      0.00943273521    -86.8762927      0.99953037       0.539914459      
40.27            0.999530797      0.533466934      0.00932035398    -86.8477101      0.00932035398    -86.8477101      0.999530797      0.533466934      
40.44            0.999531182      0.527056084      0.00920861673    -86.8182674      0.00920861673    -86.8182674      0.999531182      0.527056084      
40.61            0.999531524      0.52068145       0.00909751555    -86.7879413      0.00909751555    -86.7879413      0.999531524      0.52068145       
40.78            0.999531824      0.514342579      0.00898704272    -86.7567079      0.00898704272    -86.7567079      0.999531824      0.514342579      
40.95            0.999532082      0.50803903       0.0088771906     -86.7245421      0.0088771906     -86.7245421      0.999532082      0.50803903       
41.12            0.999532299      0.501770364      0.00876795171    -86.6914177      0.00876795171    -86.6914177      0.999532299      0.501770364      
41.29            0.999532476      0.495536152      0.00865931871    -86.6573076      0.00865931871    -86.6573076      0.999532476      0.495536152      
41.46            0.999532612      0.489335973      0.00855128438    -86.6221836      0.00855128438    -86.6221836      0.999532612      0.489335973      
41.63            0.999532709      0.48316941       0.00844384162    -86.5860161      0.00844384162    -86.5860161      0.999532709      0.48316941       
41.8             0.999532767      0.477036054      0.00833698345    -86.5487744      0.00833698345    -86.5487744      0.999532767      0.477036054      
41.97            0.999532786      0.470935505      0.00823070303    -86.5104263      0.00823070303    -86.5104263      0.999532786      0.470935505      
42.14            0.999532766      0.464867365      0.00812499363    -86.4709386      0.00812499363    -86.4709386      0.999532766      0.464867365      
42.31            0.999532709      0.458831246      0.00801984864    -86.4302762      0.00801984864    -86.4302762      0.999532709      0.458831246      
42.48            0.999532614      0.452826765      0.00791526157    -86.3884027      0.00791526157    -86.3884027      0.999532614      0.452826765      
42.65            0.999532482      0.446853544      0.00781122604    -86.3452801      0.00781122604    -86.3452801      0.999532482      0.446853544      
42.82            0.999532314      0.440911213      0.00770773578    -86.3008686      0.00770773578    -86.3008686      0.999532314      0.440911213      
42.99            0.999532109      0.434999407      0.00760478464    -86.2551265      0.00760478464    -86.2551265      0.999532109      0.434999407      
43.16            0.999531869      0.429117766      0.00750236658    -86.2080104      0.00750236658    -86.2080104      0.999531869      0.429117766      
43.33            0.999531593      0.423265937      0.00740047567    -86.1594748      0.00740047567    -86.1594748      0.999531593      0.423265937      
43.5             0.999531282      0.417443571      0.00729910607    -86.1094721      0.00729910607    -86.1094721      0.999531282      0.417443571      
43.67            0.999530936      0.411650325      0.00719825207    -86.0579523      0.00719825207    -86.0579523      0.999530936      0.411650325      
43.84            0.999530556      0.405885863      0.00709790806    -86.0048633      0.00709790806    -86.0048633      0.999530556      0.405885863      
44.01            0.999530142      0.400149852      0.00699806851    -85.9501501      0.00699806851    -85.9501501      0.999530142      0.400149852      
44.18            0.999529694      0.394441964      0.00689872804    -85.8937554      0.00689872804    -85.8937554      0.999529694      0.394441964      
44.35            0.999529213      0.388761878      0.00679988132    -85.8356188      0.00679988132    -85.8356188      0.999529213      0.388761878      
44.52            0.999528699      0.383109276      0.00670152316    -85.7756769      0.00670152316    -85.7756769      0.999528699      0.383109276      
44.69            0.999528153      0.377483847      0.00660364845    -85.7138633      0.00660364845    -85.7138633      0.999528153      0.377483847      
44.86            0.999527574      0.371885282      0.0065062522     -85.6501081      0.0065062522     -85.6501081      0.999527574      0.371885282      
45.03            0.999526963      0.366313278      0.0064093295     -85.5843375      0.0064093295     -85.5843375      0.999526963      0.366313278      
45.2             0.999526321      0.360767537      0.00631287555    -85.5164743      0.00631287555    -85.5164743      0.999526321      0.360767537      
45.37            0.999525647      0.355247765      0.00621688564    -85.4464369      0.00621688564    -85.4464369      0.999525647      0.355247765      
45.54            0.999524943      0.349753673      0.00612135519    -85.3741393      0.00612135519    -85.3741393      0.999524943      0.349753673      
45.71            0.999524207      0.344284975      0.00602627967    -85.299491       0.00602627967    -85.299491       0.999524207      0.344284975      
45.88            0.999523441      0.338841389      0.00593165469    -85.2223963      0.00593165469    -85.2223963      0.999523441      0.338841389      
46.05            0.999522645      0.33342264       0.00583747596    -85.1427543      0.00583747596    -85.1427543      0.999522645      0.33342264       
46.22            0.999521819      0.328028455      0.00574373926    -85.0604584      0.00574373926    -85.0604584      0.999521819      0.328028455      
46.39            0.999520963      0.322658563      0.0056504405     -84.9753957      0.0056504405     -84.9753957      0.999520963      0.322658563      
46.56            0.999520079      0.317312702      0.00555757568    -84.8874469      0.00555757568    -84.8874469      0.999520079      0.317312702      
46.73            0.999519165      0.311990609      0.00546514092    -84.7964856      0.00546514092    -84.7964856      0.999519165      0.311990609      
46.9             0.999518222      0.306692027      0.00537313242    -84.7023778      0.00537313242    -84.7023778      0.999518222      0.306692027      
47.07            0.999517251      0.301416702      0.00528154652    -84.6049813      0.00528154652    -84.6049813      0.999517251      0.301416702      
47.24            0.999516251      0.296164386      0.00519037964    -84.5041452      0.00519037964    -84.5041452      0.999516251      0.296164386      
47.41            0.999515223      0.290934831      0.00509962833    -84.3997093      0.00509962833    -84.3997093      0.999515223      0.290934831      
47.58            0.999514168      0.285727795      0.00500928925    -84.291503       0.00500928925    -84.291503       0.999514168      0.285727795      
47.75            0.999513085      0.280543038      0.00491935919    -84.1793447      0.00491935919    -84.1793447      0.999513085      0.280543038      
47.92            0.999511975      0.275380325      0.00482983505    -84.0630411      0.00482983505    -84.0630411      0.999511975      0.275380325      
48.09            0.999510837      0.270239422      0.00474071384    -83.9423858      0.00474071384    -83.9423858      0.999510837      0.270239422      
48.26            0.999509673      0.265120101      0.00465199274    -83.8171585      0.00465199274    -83.8171585      0.999509673      0.265120101      
48.43            0.999508482      0.260022135      0.00456366905    -83.6871239      0.00456366905    -83.6871239      0.999508482      0.260022135      
48.6             0.999507265      0.254945302      0.0044757402     -83.5520301      0.0044757402     -83.5520301      0.999507265      0.254945302      
48.77            0.999506022      0.249889381      0.00438820378    -83.4116072      0.00438820378    -83.4116072      0.999506022      0.249889381      
48.94            0.999504752      0.244854156      0.00430105754    -83.265566       0.00430105754    -83.265566       0.999504752      0.244854156      
49.11            0.999503457      0.239839413      0.0042142994     -83.1135959      0.0042142994     -83.1135959      0.999503457      0.239839413      
49.28            0.999502136      0.234844941      0.00412792744    -82.955363       0.00412792744    -82.955363       0.999502136      0.234844941      
49.45            0.99950079       0.229870533      0.00404193994    -82.790508       0.00404193994    -82.790508       0.99950079       0.229870533      
49.62            0.999499419      0.224915982      0.00395633538    -82.6186436      0.00395633538    -82.6186436      0.999499419      0.224915982      
49.79            0.999498023      0.219981087      0.00387111245    -82.4393519      0.00387111245    -82.4393519      0.999498023      0.219981087      
49.96            0.999496602      0.215065649      0.00378627006    -82.2521813      0.00378627006    -82.2521813      0.999496602      0.215065649      
50.13            0.999495157      0.210169471      0.00370180739    -82.0566431      0.00370180739    -82.0566431      0.999495157      0.210169471      
50.3             0.999493687      0.205292357      0.00361772386    -81.8522075      0.00361772386    -81.8522075      0.999493687      0.205292357      
50.47            0.999492193      0.200434118      0.00353401919    -81.6382994      0.00353401919    -81.6382994      0.999492193      0.200434118      
50.64            0.999490674      0.195594563      0.00345069344    -81.4142936      0.00345069344    -81.4142936      0.999490674      0.195594563      
50.81            0.999489133      0.190773507      0.00336774698    -81.179509       0.00336774698    -81.179509       0.999489133      0.190773507      
50.98            0.999487567      0.185970765      0.00328518058    -80.9332028      0.00328518058    -80.9332028      0.999487567      0.185970765      
51.15            0.999485978      0.181186156      0.00320299542    -80.6745629      0.00320299542    -80.6745629      0.999485978      0.181186156      
51.32            0.999484366      0.176419501      0.00312119316    -80.4026999      0.00312119316    -80.4026999      0.999484366      0.176419501      
51.49            0.99948273       0.171670624      0.00303977595    -80.1166382      0.00303977595    -80.1166382      0.99948273       0.171670624      
51.66            0.999481071      0.166939348      0.00295874652    -79.8153051      0.00295874652    -79.8153051      0.999481071      0.166939348      
51.83            0.99947939       0.162225504      0.00287810826    -79.497519       0.00287810826    -79.497519       0.99947939       0.162225504      
52               0.999477686      0.15752892       0.00279786524    -79.1619749      0.00279786524    -79.1619749      0.999477686      0.15752892       
52.17            0.99947596       0.15284943       0.00271802238    -78.807229       0.00271802238    -78.807229       0.99947596       0.15284943       
52.34            0.999474211      0.148186867      0.00263858547    -78.4316794      0.00263858547    -78.4316794      0.999474211      0.148186867      
52.51            0.99947244       0.143541068      0.00255956137    -78.0335451      0.00255956137    -78.0335451      0.99947244       0.143541068      
52.68            0.999470647      0.138911872      0.00248095812    -77.6108404      0.00248095812    -77.6108404      0.999470647      0.138911872      
52.85            0.999468832      0.134299121      0.00240278509    -77.1613456      0.00240278509    -77.1613456      0.999468832      0.134299121      
53.02            0.999466995      0.129702656      0.00232505322    -76.6825727      0.00232505322    -76.6825727      0.999466995      0.129702656      
53.19            0.999465136      0.125122323      0.00224777525    -76.1717249      0.00224777525    -76.1717249      0.999465136      0.125122323      
53.36            0.999463257      0.120557969      0.00217096597    -75.6256487      0.00217096597    -75.6256487      0.999463257      0.120557969      
53.53            0.999461355      0.116009442      0.00209464261    -75.0407778      0.00209464261    -75.0407778      0.999461355      0.116009442      
53.7             0.999459433      0.111476593      0.0020188252     -74.4130657      0.0020188252     -74.4130657      0.999459433      0.111476593      
53.87            0.99945749       0.106959275      0.0019435371     -73.7379064      0.0019435371     -73.7379064      0.99945749       0.106959275      
54.04            0.999455525      0.102457343      0.00186880559    -73.010039       0.00186880559    -73.010039       0.999455525      0.102457343      
54.21            0.99945354       0.0979706518     0.00179466256    -72.223434       0.00179466256    -72.223434       0.99945354       0.0979706518     
54.38            0.999451534      0.0934990608     0.00172114544    -71.3711568      0.00172114544    -71.3711568      0.999451534      0.0934990608     
54.55            0.999449508      0.0890424294     0.00164829828    -70.4452038      0.00164829828    -70.4452038      0.999449508      0.0890424294     
54.72            0.999447461      0.0846006194     0.0015761731     -69.4363054      0.0015761731     -69.4363054      0.999447461      0.0846006194     
54.89            0.999445394      0.080173494      0.00150483155    -68.3336895      0.00150483155    -68.3336895      0.999445394      0.080173494      
55.06            0.999443307      0.0757609183     0.00143434702    -67.1247981      0.00143434702    -67.1247981      0.999443307      0.0757609183     
55.23            0.9994412        0.071362759      0.00136480721    -65.7949498      0.00136480721    -65.7949498      0.9994412        0.071362759      
55.4             0.999439072      0.0669788844     0.00129631745    -64.3269412      0.00129631745    -64.3269412      0.999439072      0.0669788844     
55.57            0.999436925      0.0626091645     0.00122900476    -62.7005837      0.00122900476    -62.7005837      0.999436925      0.0626091645     
55.74            0.999434759      0.0582534708     0.00116302303    -60.8921792      0.00116302303    -60.8921792      0.999434759      0.0582534708     
55.91            0.999432572      0.0539116763     0.00109855942    -58.873952       0.00109855942    -58.873952       0.999432572      0.0539116763     
56.08            0.999430366      0.0495836558     0.0010358424     -56.6134841      0.0010358424     -56.6134841      0.999430366      0.0495836558     
56.25            0.999428141      0.0452692855     0.000975151428   -54.0732458      0.000975151428   -54.0732458      0.999428141      0.0452692855     
56.42            0.999425897      0.0409684428     0.000916828643   -51.2104017      0.000916828643   -51.2104017      0.999425897      0.0409684428     
56.59            0.999423633      0.0366810071     0.000861292004   -47.9772001      0.000861292004   -47.9772001      0.999423633      0.0366810071     
56.76            0.999421351      0.0324068588     0.000809049125   -44.3224456      0.000809049125   -44.3224456      0.999421351      0.0324068588     
56.93            0.999419049      0.0281458799     0.000760709392   -40.1947881      0.000760709392   -40.1947881      0.999419049      0.0281458799     
57.1             0.999416729      0.0238979539     0.000716990003   -35.5487473      0.000716990003   -35.5487473      0.999416729      0.0238979539     
57.27            0.99941439       0.0196629655     0.000678708737   -30.3543003      0.000678708737   -30.3543003      0.99941439       0.0196629655     
57.44            0.999412032      0.015440801      0.000646753706   -24.610057       0.000646753706   -24.610057       0.999412032      0.015440801      
57.61            0.999409655      0.0112313478     0.000622020486   -18.3580791      0.000622020486   -18.3580791      0.999409655      0.0112313478     
57.78            0.999407261      0.00703449471    0.0006053138     -11.6953961      0.0006053138     -11.6953961      0.999407261      0.00703449471    
57.95            0.999404847      0.00285013193    0.000597226575   -4.7749643       0.000597226575   -4.7749643       0.999404847      0.00285013193    
58.12            0.999402416      -0.00132184914   0.000598028878   2.2095701        0.000598028878   2.2095701        0.999402416      -0.00132184914   
58.29            0.999399966      -0.0054815558    0.000607608219   9.05374787       0.000607608219   9.05374787       0.999399966      -0.0054815558    
58.46            0.999397499      -0.00962909412   0.000625487528   15.5764291       0.000625487528   15.5764291       0.999397499      -0.00962909412   
58.63            0.999395013      -0.0137645689    0.000650913213   21.6449354       0.000650913213   21.6449354       0.999395013      -0.0137645689    
58.8             0.99939251       -0.0178880838    0.000682977248   27.183854        0.000682977248   27.183854        0.99939251       -0.0178880838    
58.97            0.999389988      -0.0219997412    0.000720732788   32.1692171       0.000720732788   32.1692171       0.999389988      -0.0219997412    
59.14            0.999387449      -0.0260996423    0.000763278547   36.6149606       0.000763278547   36.6149606       0.999387449      -0.0260996423    
59.31            0.999384892      -0.0301878872    0.00080980675    40.5583185       0.00080980675    40.5583185       0.999384892      -0.0301878872    
59.48            0.999382318      -0.0342645748    0.000859621634   44.04791         0.000859621634   44.04791         0.999382318      -0.0342645748    
59.65            0.999379726      -0.038329803     0.000912139023   47.1355661       0.000912139023   47.1355661       0.999379726      -0.038329803     
59.82            0.999377117      -0.0423836684    0.000966875995   49.8714507       0.000966875995   49.8714507       0.999377117      -0.0423836684    
59.99            0.999374491      -0.0464262666    0.00102343675    52.3015594       0.00102343675    52.3015594       0.999374491      -0.0464262666    
60.16            0.999371847      -0.0504576921    0.00108149812    54.4667284       0.00108149812    54.4667284       0.999371847      -0.0504576921    
60.33            0.999369186      -0.0544780383    0.00114079635    56.4025133       0.00114079635    56.4025133       0.999369186      -0.0544780383    
60.5             0.999366508      -0.0584873977    0.00120111581    58.1395152       0.00120111581    58.1395152       0.999366508      -0.0584873977    
60.67            0.999363814      -0.0624858615    0.00126227965    59.703901        0.00126227965    59.703901        0.999363814      -0.0624858615    
60.84            0.999361102      -0.0664735201    0.00132414224    61.1179779       0.00132414224    61.1179779       0.999361102      -0.0664735201    
61.01            0.999358373      -0.0704504629    0.00138658309    62.4007482       0.00138658309    62.4007482       0.999358373      -0.0704504629    
61.18            0.999355628      -0.074416778     0.00144950205    63.5684115       0.00144950205    63.5684115       0.999355628      -0.074416778     
61.35            0.999352865      -0.0783725529    0.00151281542    64.6348036       0.00151281542    64.6348036       0.999352865      -0.0783725529    
61.52            0.999350087      -0.082317874     0.00157645294    65.6117711       0.00157645294    65.6117711       0.999350087      -0.082317874     
61.69            0.999347291      -0.0862528266    0.00164035531    66.5094879       0.00164035531    66.5094879       0.999347291      -0.0862528266    
61.86            0.999344479      -0.0901774952    0.00170447228    67.3367199       0.00170447228    67.3367199       0.999344479      -0.0901774952    
62.03            0.999341651      -0.0940919635    0.00176876106    68.1010457       0.00176876106    68.1010457       0.999341651      -0.0940919635    
62.2             0.999338807      -0.0979963139    0.00183318504    68.8090402       0.00183318504    68.8090402       0.999338807      -0.0979963139    
62.37            0.999335946      -0.101890628     0.00189771282    69.4664279       0.00189771282    69.4664279       0.999335946      -0.101890628     
62.54            0.999333069      -0.105774987     0.00196231731    70.0782101       0.00196231731    70.0782101       0.999333069      -0.105774987     
62.71            0.999330175      -0.109649471     0.0020269751     70.6487711       0.0020269751     70.6487711       0.999330175      -0.109649471     
62.88            0.999327266      -0.113514159     0.00209166588    71.1819675       0.00209166588    71.1819675       0.999327266      -0.113514159     
63.05            0.999324341      -0.117369129     0.00215637197    71.6812025       0.00215637197    71.6812025       0.999324341      -0.117369129     
63.22            0.999321399      -0.121214458     0.00222107793    72.1494888       0.00222107793    72.1494888       0.999321399      -0.121214458     
63.39            0.999318442      -0.125050224     0.00228577026    72.5895014       0.00228577026    72.5895014       0.999318442      -0.125050224     
63.56            0.999315469      -0.128876501     0.00235043713    73.0036226       0.00235043713    73.0036226       0.999315469      -0.128876501     
63.73            0.99931248       -0.132693365     0.00241506812    73.3939801       0.00241506812    73.3939801       0.99931248       -0.132693365     
63.9             0.999309475      -0.13650089      0.00247965408    73.7624791       0.00247965408    73.7624791       0.999309475      -0.13650089      
64.07            0.999306455      -0.140299149     0.00254418692    74.1108303       0.00254418692    74.1108303       0.999306455      -0.140299149     
64.24            0.999303419      -0.144088214     0.00260865951    74.4405736       0.00260865951    74.4405736       0.999303419      -0.144088214     
64.41            0.999300368      -0.147868159     0.00267306554    74.7530985       0.00267306554    74.7530985       0.999300368      -0.147868159     
64.58            0.999297301      -0.151639053     0.00273739942    75.0496617       0.00273739942    75.0496617       0.999297301      -0.151639053     
64.75            0.999294218      -0.155400967     0.0028016562     75.3314023       0.0028016562     75.3314023       0.999294218      -0.155400967     
64.92            0.999291121      -0.15915397      0.00286583151    75.5993551       0.00286583151    75.5993551       0.999291121      -0.15915397      
65.09            0.999288008      -0.162898131     0.00292992146    75.854462        0.00292992146    75.854462        0.999288008      -0.162898131     
65.26            0.999284879      -0.166633519     0.00299392261    76.0975824       0.00299392261    76.0975824       0.999284879      -0.166633519     
65.43            0.999281736      -0.170360201     0.0030578319     76.3295014       0.0030578319     76.3295014       0.999281736      -0.170360201     
65.6             0.999278577      -0.174078243     0.00312164665    76.5509379       0.00312164665    76.5509379       0.999278577      -0.174078243     
65.77            0.999275403      -0.177787712     0.00318536446    76.7625514       0.00318536446    76.7625514       0.999275403      -0.177787712     
65.94            0.999272214      -0.181488672     0.00324898323    76.9649477       0.00324898323    76.9649477       0.999272214      -0.181488672     
66.11            0.99926901       -0.185181189     0.0033125011     77.1586843       0.0033125011     77.1586843       0.99926901       -0.185181189     
66.28            0.999265792      -0.188865327     0.00337591644    77.3442751       0.00337591644    77.3442751       0.999265792      -0.188865327     
66.45            0.999262558      -0.192541148     0.00343922783    77.5221947       0.00343922783    77.5221947       0.999262558      -0.192541148     
66.62            0.999259309      -0.196208716     0.00350243402    77.6928817       0.00350243402    77.6928817       0.999259309      -0.196208716     
66.79            0.999256046      -0.199868092     0.00356553392    77.8567423       0.00356553392    77.8567423       0.999256046      -0.199868092     
66.96            0.999252768      -0.203519338     0.0036285266     78.014153        0.0036285266     78.014153        0.999252768      -0.203519338     
67.13            0.999249475      -0.207162514     0.00369141128    78.1654635       0.00369141128    78.1654635       0.999249475      -0.207162514     
67.3             0.999246167      -0.210797682     0.00375418725    78.3109988       0.00375418725    78.3109988       0.999246167      -0.210797682     
67.47            0.999242845      -0.2144249       0.00381685397    78.4510614       0.00381685397    78.4510614       0.999242845      -0.2144249       
67.64            0.999239508      -0.218044227     0.00387941096    78.5859333       0.00387941096    78.5859333       0.999239508      -0.218044227     
67.81            0.999236157      -0.221655722     0.00394185785    78.7158775       0.00394185785    78.7158775       0.999236157      -0.221655722     
67.98            0.999232791      -0.225259442     0.00400419435    78.8411396       0.00400419435    78.8411396       0.999232791      -0.225259442     
68.15            0.999229411      -0.228855445     0.00406642022    78.9619496       0.00406642022    78.9619496       0.999229411      -0.228855445     
68.32            0.999226016      -0.232443787     0.00412853534    79.0785223       0.00412853534    79.0785223       0.999226016      -0.232443787     
68.49            0.999222607      -0.236024525     0.0041905396     79.1910594       0.0041905396     79.1910594       0.999222607      -0.236024525     
68.66            0.999219184      -0.239597714     0.00425243298    79.29975         0.00425243298    79.29975         0.999219184      -0.239597714     
68.83            0.999215746      -0.243163408     0.0043142155     79.4047715       0.0043142155     79.4047715       0.999215746      -0.243163408     
69               0.999212294      -0.246721663     0.00437588722    79.5062907       0.00437588722    79.5062907       0.999212294      -0.246721663     
69.17            0.999208828      -0.250272532     0.00443744827    79.6044646       0.00443744827    79.6044646       0.999208828      -0.250272532     
69.34            0.999205348      -0.253816068     0.00449889879    79.699441        0.00449889879    79.699441        0.999205348      -0.253816068     
69.51            0.999201854      -0.257352325     0.00456023897    79.7913591       0.00456023897    79.7913591       0.999201854      -0.257352325     
69.68            0.999198345      -0.260881354     0.00462146903    79.8803501       0.00462146903    79.8803501       0.999198345      -0.260881354     
69.85            0.999194823      -0.264403208     0.00468258923    79.9665381       0.00468258923    79.9665381       0.999194823      -0.264403208     
70               0.999191703      -0.267504808     0.00473642779    80.0403521       0.00473642779    80.0403521       0.999191703      -0.267504808     
