! Coilcraft 1812CS-182 Chip Inductor				
! 31 July 2002			
# MHZ S MA R 50
!Freq             MagS11           AngS11           MagS21           AngS21           MagS12           AngS12           MagS22           AngS22
1                0.113620531      70.7323202       0.968464856      -6.35848304      0.968464856      -6.35848304      0.113620531      70.7323202       
1.92             0.210521947      70.527692        0.95077021       -12.049564       0.95077021       -12.049564       0.210521947      70.527692        
2.84             0.301928012      67.1469111       0.925549137      -17.4941444      0.925549137      -17.4941444      0.301928012      67.1469111       
3.76             0.385687681      63.1180728       0.894413218      -22.6202302      0.894413218      -22.6202302      0.385687681      63.1180728       
4.68             0.460824945      59.0428374       0.859223854      -27.3824845      0.859223854      -27.3824845      0.460824945      59.0428374       
5.6              0.52714698       55.1380522       0.821734993      -31.760857       0.821734993      -31.760857       0.52714698       55.1380522       
6.52             0.585006461      51.4910137       0.783414824      -35.7557547      0.783414824      -35.7557547      0.585006461      51.4910137       
7.44             0.635086989      48.1319427       0.745385236      -39.3821175      0.745385236      -39.3821175      0.635086989      48.1319427       
8.36             0.678230426      45.0625741       0.708436264      -42.6639042      0.708436264      -42.6639042      0.678230426      45.0625741       
9.28             0.71531575       42.270056        0.673078024      -45.629697       0.673078024      -45.629697       0.71531575       42.270056        
10.2             0.747184562      39.7345067       0.639603724      -48.3095657      0.639603724      -48.3095657      0.747184562      39.7345067       
11.12            0.774601918      37.433301        0.608148873      -50.733035       0.608148873      -50.733035       0.774601918      37.433301        
12.04            0.798240775      35.343494        0.578740372      -52.9278951      0.578740372      -52.9278951      0.798240775      35.343494        
12.96            0.818680612      33.4431369       0.55133421       -54.9196011      0.55133421       -54.9196011      0.818680612      33.4431369       
13.88            0.83641365       31.711929        0.525842929      -56.7310566      0.525842929      -56.7310566      0.83641365       31.711929        
14.8             0.85185446       30.1314787       0.502154837      -58.3826271      0.502154837      -58.3826271      0.85185446       30.1314787       
15.72            0.865350525      28.6853394       0.480146988      -59.8922854      0.480146988      -59.8922854      0.865350525      28.6853394       
16.64            0.877192421      27.3589233       0.459693669      -61.2758179      0.459693669      -61.2758179      0.877192421      27.3589233       
17.56            0.887623022      26.1393551       0.440671707      -62.5470554      0.440671707      -62.5470554      0.887623022      26.1393551       
18.48            0.896845497      25.0153021       0.42296364       -63.7181018      0.42296364       -63.7181018      0.896845497      25.0153021       
19.4             0.905030094      23.9768017       0.406459418      -64.7995497      0.406459418      -64.7995497      0.905030094      23.9768017       
20.32            0.912319815      23.0150964       0.391057177      -65.8006761      0.391057177      -65.8006761      0.912319815      23.0150964       
21.24            0.918835116      22.1224834       0.376663404      -66.7296165      0.376663404      -66.7296165      0.918835116      22.1224834       
22.16            0.924677783      21.292179        0.363192734      -67.593518       0.363192734      -67.593518       0.924677783      21.292179        
23.08            0.92993411       20.5181997       0.350567532      -68.3986716      0.350567532      -68.3986716      0.92993411       20.5181997       
24               0.934677506      19.7952578       0.338717367      -69.150627       0.338717367      -69.150627       0.934677506      19.7952578       
24.92            0.938970642      19.1186706       0.327578433      -69.8542915      0.327578433      -69.8542915      0.938970642      19.1186706       
25.84            0.942867205      18.4842828       0.317092963      -70.5140146      0.317092963      -70.5140146      0.942867205      18.4842828       
26.76            0.946413348      17.8883981       0.30720867       -71.1336606      0.30720867       -71.1336606      0.946413348      17.8883981       
27.68            0.949648881      17.3277215       0.297878212      -71.7166716      0.297878212      -71.7166716      0.949648881      17.3277215       
28.6             0.952608259      16.7993085       0.289058695      -72.2661204      0.289058695      -72.2661204      0.952608259      16.7993085       
29.52            0.955321401      16.3005222       0.280711229      -72.7847571      0.280711229      -72.7847571      0.955321401      16.3005222       
30.44            0.957814368      15.8289956       0.272800513      -73.2750488      0.272800513      -73.2750488      0.957814368      15.8289956       
31.36            0.960109932      15.3825994       0.265294473      -73.7392136      0.265294473      -73.7392136      0.960109932      15.3825994       
32.28            0.962228052      14.9594137       0.258163924      -74.1792505      0.258163924      -74.1792505      0.962228052      14.9594137       
33.2             0.964186272      14.557704        0.251382281      -74.5969645      0.251382281      -74.5969645      0.964186272      14.557704        
34.12            0.966000053      14.1758997       0.244925293      -74.9939895      0.244925293      -74.9939895      0.966000053      14.1758997       
35.04            0.967683066      13.8125762       0.238770803      -75.3718073      0.238770803      -75.3718073      0.967683066      13.8125762       
35.96            0.96924742       13.4664381       0.232898548      -75.7317643      0.232898548      -75.7317643      0.96924742       13.4664381       
36.88            0.970703878      13.1363061       0.227289961      -76.0750865      0.227289961      -76.0750865      0.970703878      13.1363061       
37.8             0.972062024      12.8211037       0.221928012      -76.4028924      0.221928012      -76.4028924      0.972062024      12.8211037       
38.72            0.973330413      12.5198471       0.216797059      -76.716204       0.216797059      -76.716204       0.973330413      12.5198471       
39.64            0.974516702      12.2316355       0.211882708      -77.015957       0.211882708      -77.015957       0.974516702      12.2316355       
40.56            0.975627758      11.9556426       0.207171705      -77.3030096      0.207171705      -77.3030096      0.975627758      11.9556426       
41.48            0.976669749      11.6911091       0.202651823      -77.5781501      0.202651823      -77.5781501      0.976669749      11.6911091       
42.4             0.977648233      11.4373365       0.19831177       -77.8421037      0.19831177       -77.8421037      0.977648233      11.4373365       
43.32            0.978568224      11.193681        0.194141102      -78.0955387      0.194141102      -78.0955387      0.978568224      11.193681        
44.24            0.979434255      10.9595484       0.190130151      -78.339072       0.190130151      -78.339072       0.979434255      10.9595484       
45.16            0.980250431      10.7343893       0.186269951      -78.5732735      0.186269951      -78.5732735      0.980250431      10.7343893       
46.08            0.98102048       10.5176954       0.182552182      -78.7986709      0.182552182      -78.7986709      0.98102048       10.5176954       
47               0.981747787      10.3089954       0.178969112      -79.0157531      0.178969112      -79.0157531      0.981747787      10.3089954       
47.92            0.982435437      10.1078522       0.175513546      -79.2249738      0.175513546      -79.2249738      0.982435437      10.1078522       
48.84            0.983086241      9.9138592        0.172178784      -79.4267547      0.172178784      -79.4267547      0.983086241      9.9138592        
49.76            0.983702769      9.72663843       0.168958578      -79.621488       0.168958578      -79.621488       0.983702769      9.72663843       
50.68            0.984287372      9.54583765       0.165847095      -79.809539       0.165847095      -79.809539       0.984287372      9.54583765       
51.6             0.984842202      9.37112841       0.162838887      -79.9912485      0.162838887      -79.9912485      0.984842202      9.37112841       
52.52            0.985369236      9.20220406       0.159928855      -80.1669346      0.159928855      -80.1669346      0.985369236      9.20220406       
53.44            0.985870288      9.03877797       0.157112227      -80.3368945      0.157112227      -80.3368945      0.985870288      9.03877797       
54.36            0.98634703       8.88058196       0.15438453       -80.5014063      0.15438453       -80.5014063      0.98634703       8.88058196       
55.28            0.986801         8.72736485       0.151741568      -80.6607306      0.151741568      -80.6607306      0.986801         8.72736485       
56.2             0.987233617      8.57889113       0.1491794        -80.8151117      0.1491794        -80.8151117      0.987233617      8.57889113       
57.12            0.987646193      8.4349398        0.146694325      -80.9647786      0.146694325      -80.9647786      0.987646193      8.4349398        
58.04            0.98803994       8.29530326       0.144282859      -81.1099467      0.144282859      -81.1099467      0.98803994       8.29530326       
58.96            0.98841598       8.1597863        0.141941723      -81.2508184      0.141941723      -81.2508184      0.98841598       8.1597863        
59.88            0.988775353      8.02820525       0.139667828      -81.387584       0.139667828      -81.387584       0.988775353      8.02820525       
60.8             0.989119025      7.90038709       0.137458261      -81.5204231      0.137458261      -81.5204231      0.989119025      7.90038709       
61.72            0.989447891      7.77616872       0.135310273      -81.6495047      0.135310273      -81.6495047      0.989447891      7.77616872       
62.64            0.989762786      7.65539627       0.133221266      -81.7749883      0.133221266      -81.7749883      0.989762786      7.65539627       
63.56            0.990064485      7.53792445       0.131188787      -81.8970245      0.131188787      -81.8970245      0.990064485      7.53792445       
64.48            0.990353711      7.42361598       0.129210515      -82.0157557      0.129210515      -82.0157557      0.990353711      7.42361598       
65.4             0.990631139      7.31234101       0.127284251      -82.1313163      0.127284251      -82.1313163      0.990631139      7.31234101       
66.32            0.990897397      7.20397669       0.125407916      -82.2438339      0.125407916      -82.2438339      0.990897397      7.20397669       
67.24            0.991153073      7.09840665       0.123579536      -82.3534289      0.123579536      -82.3534289      0.991153073      7.09840665       
68.16            0.991398718      6.9955206        0.121797241      -82.4602156      0.121797241      -82.4602156      0.991398718      6.9955206        
69.08            0.991634845      6.89521397       0.120059253      -82.5643024      0.120059253      -82.5643024      0.991634845      6.89521397       
70               0.991861938      6.7973875        0.118363887      -82.6657922      0.118363887      -82.6657922      0.991861938      6.7973875        
70.92            0.992080446      6.70194694       0.11670954       -82.7647826      0.11670954       -82.7647826      0.992080446      6.70194694       
71.84            0.992290796      6.60880271       0.115094688      -82.8613663      0.115094688      -82.8613663      0.992290796      6.60880271       
72.76            0.992493385      6.51786966       0.11351788       -82.9556317      0.11351788       -82.9556317      0.992493385      6.51786966       
73.68            0.992688586      6.42906676       0.111977737      -83.0476625      0.111977737      -83.0476625      0.992688586      6.42906676       
74.6             0.992876753      6.34231687       0.110472942      -83.1375388      0.110472942      -83.1375388      0.992876753      6.34231687       
75.52            0.993058216      6.25754654       0.109002243      -83.2253364      0.109002243      -83.2253364      0.993058216      6.25754654       
76.44            0.993233287      6.17468573       0.107564443      -83.3111281      0.107564443      -83.3111281      0.993233287      6.17468573       
77.36            0.993402259      6.09366766       0.106158404      -83.3949828      0.106158404      -83.3949828      0.993402259      6.09366766       
78.28            0.993565412      6.01442862       0.104783036      -83.4769665      0.104783036      -83.4769665      0.993565412      6.01442862       
79.2             0.993723005      5.93690779       0.103437299      -83.5571421      0.103437299      -83.5571421      0.993723005      5.93690779       
80.12            0.993875286      5.86104708       0.102120199      -83.6355698      0.102120199      -83.6355698      0.993875286      5.86104708       
81.04            0.994022489      5.78679097       0.100830787      -83.7123069      0.100830787      -83.7123069      0.994022489      5.78679097       
81.96            0.994164834      5.71408638       0.0995681535     -83.7874084      0.0995681535     -83.7874084      0.994164834      5.71408638       
82.88            0.994302531      5.64288255       0.0983314293     -83.8609267      0.0983314293     -83.8609267      0.994302531      5.64288255       
83.8             0.994435776      5.57313087       0.0971197816     -83.9329122      0.0971197816     -83.9329122      0.994435776      5.57313087       
84.72            0.994564758      5.50478483       0.0959324128     -84.0034127      0.0959324128     -84.0034127      0.994564758      5.50478483       
85.64            0.994689654      5.43779987       0.0947685588     -84.0724744      0.0947685588     -84.0724744      0.994689654      5.43779987       
86.56            0.994810632      5.37213327       0.0936274868     -84.1401414      0.0936274868     -84.1401414      0.994810632      5.37213327       
87.48            0.994927852      5.3077441        0.092508494      -84.206456       0.092508494      -84.206456       0.994927852      5.3077441        
88.4             0.995041466      5.24459308       0.0914109063     -84.2714587      0.0914109063     -84.2714587      0.995041466      5.24459308       
89.32            0.995151618      5.18264252       0.0903340763     -84.3351883      0.0903340763     -84.3351883      0.995151618      5.18264252       
90.24            0.995258444      5.12185624       0.0892773826     -84.3976823      0.0892773826     -84.3976823      0.995258444      5.12185624       
91.16            0.995362076      5.06219952       0.0882402279     -84.4589764      0.0882402279     -84.4589764      0.995362076      5.06219952       
92.08            0.995462636      5.00363895       0.0872220385     -84.5191049      0.0872220385     -84.5191049      0.995462636      5.00363895       
93               0.995560244      4.94614247       0.0862222626     -84.5781011      0.0862222626     -84.5781011      0.995560244      4.94614247       
93.92            0.99565501       4.88967924       0.0852403697     -84.6359965      0.0852403697     -84.6359965      0.99565501       4.88967924       
94.84            0.995747043      4.83421957       0.0842758492     -84.6928218      0.0842758492     -84.6928218      0.995747043      4.83421957       
95.76            0.995836443      4.77973493       0.0833282098     -84.7486063      0.0833282098     -84.7486063      0.995836443      4.77973493       
96.68            0.995923309      4.72619785       0.0823969784     -84.8033783      0.0823969784     -84.8033783      0.995923309      4.72619785       
97.6             0.996007733      4.67358185       0.0814816994     -84.8571649      0.0814816994     -84.8571649      0.996007733      4.67358185       
98.52            0.996089803      4.62186146       0.0805819338     -84.9099924      0.0805819338     -84.9099924      0.996089803      4.62186146       
99.44            0.996169604      4.57101213       0.0796972584     -84.9618858      0.0796972584     -84.9618858      0.996169604      4.57101213       
100.36           0.996247217      4.52101018       0.0788272654     -85.0128696      0.0788272654     -85.0128696      0.996247217      4.52101018       
101.28           0.996322719      4.47183279       0.0779715613     -85.062967       0.0779715613     -85.062967       0.996322719      4.47183279       
102.2            0.996396184      4.42345796       0.0771297666     -85.1122006      0.0771297666     -85.1122006      0.996396184      4.42345796       
103.12           0.996467681      4.37586444       0.076301515      -85.1605922      0.076301515      -85.1605922      0.996467681      4.37586444       
104.04           0.99653728       4.32903175       0.075486453      -85.2081627      0.075486453      -85.2081627      0.99653728       4.32903175       
104.96           0.996605044      4.28294008       0.0746842392     -85.2549324      0.0746842392     -85.2549324      0.996605044      4.28294008       
105.88           0.996671035      4.23757035       0.0738945438     -85.3009206      0.0738945438     -85.3009206      0.996671035      4.23757035       
106.8            0.996735313      4.19290408       0.0731170482     -85.3461463      0.0731170482     -85.3461463      0.996735313      4.19290408       
107.72           0.996797934      4.14892344       0.0723514444     -85.3906276      0.0723514444     -85.3906276      0.996797934      4.14892344       
108.64           0.996858953      4.10561119       0.0715974347     -85.434382       0.0715974347     -85.434382       0.996858953      4.10561119       
109.56           0.996918421      4.06295067       0.0708547313     -85.4774266      0.0708547313     -85.4774266      0.996918421      4.06295067       
110.48           0.99697639       4.02092575       0.0701230557     -85.5197776      0.0701230557     -85.5197776      0.99697639       4.02092575       
111.4            0.997032906      3.97952084       0.0694021386     -85.5614509      0.0694021386     -85.5614509      0.997032906      3.97952084       
112.32           0.997088017      3.93872086       0.068691719      -85.6024617      0.068691719      -85.6024617      0.997088017      3.93872086       
113.24           0.997141766      3.89851119       0.0679915447     -85.6428249      0.0679915447     -85.6428249      0.997141766      3.89851119       
114.16           0.997194196      3.8588777        0.0673013713     -85.6825547      0.0673013713     -85.6825547      0.997194196      3.8588777        
115.08           0.997245348      3.8198067        0.066620962      -85.7216649      0.066620962      -85.7216649      0.997245348      3.8198067        
116              0.997295261      3.78128493       0.0659500875     -85.7601689      0.0659500875     -85.7601689      0.997295261      3.78128493       
116.92           0.997343972      3.74329953       0.0652885255     -85.7980796      0.0652885255     -85.7980796      0.997343972      3.74329953       
117.84           0.997391519      3.70583806       0.0646360608     -85.8354095      0.0646360608     -85.8354095      0.997391519      3.70583806       
118.76           0.997437936      3.66888844       0.0639924844     -85.8721706      0.0639924844     -85.8721706      0.997437936      3.66888844       
119.68           0.997483256      3.63243897       0.0633575938     -85.9083747      0.0633575938     -85.9083747      0.997483256      3.63243897       
120.6            0.997527513      3.59647831       0.0627311928     -85.9440332      0.0627311928     -85.9440332      0.997527513      3.59647831       
121.52           0.997570737      3.56099543       0.0621130906     -85.9791569      0.0621130906     -85.9791569      0.997570737      3.56099543       
122.44           0.997612958      3.52597966       0.0615031025     -86.0137565      0.0615031025     -86.0137565      0.997612958      3.52597966       
123.36           0.997654205      3.49142063       0.060901049      -86.0478423      0.060901049      -86.0478423      0.997654205      3.49142063       
124.28           0.997694507      3.45730829       0.0603067558     -86.0814243      0.0603067558     -86.0814243      0.997694507      3.45730829       
125.2            0.997733889      3.42363285       0.0597200538     -86.1145119      0.0597200538     -86.1145119      0.997733889      3.42363285       
126.12           0.997772378      3.39038483       0.0591407786     -86.1471147      0.0591407786     -86.1471147      0.997772378      3.39038483       
127.04           0.997809999      3.35755503       0.0585687707     -86.1792417      0.0585687707     -86.1792417      0.997809999      3.35755503       
127.96           0.997846776      3.32513447       0.058003875      -86.2109015      0.058003875      -86.2109015      0.997846776      3.32513447       
128.88           0.997882731      3.29311448       0.0574459408     -86.2421028      0.0574459408     -86.2421028      0.997882731      3.29311448       
129.8            0.997917889      3.26148658       0.0568948216     -86.2728536      0.0568948216     -86.2728536      0.997917889      3.26148658       
130.72           0.997952269      3.23024256       0.056350375      -86.3031621      0.056350375      -86.3031621      0.997952269      3.23024256       
131.64           0.997985894      3.19937444       0.0558124625     -86.3330358      0.0558124625     -86.3330358      0.997985894      3.19937444       
132.56           0.998018783      3.16887443       0.0552809494     -86.3624824      0.0552809494     -86.3624824      0.998018783      3.16887443       
133.48           0.998050957      3.13873499       0.0547557047     -86.391509       0.0547557047     -86.391509       0.998050957      3.13873499       
134.4            0.998082432      3.10894875       0.0542366009     -86.4201226      0.0542366009     -86.4201226      0.998082432      3.10894875       
135.32           0.998113229      3.07950856       0.053723514      -86.4483301      0.053723514      -86.4483301      0.998113229      3.07950856       
136.24           0.998143365      3.05040747       0.0532163233     -86.476138       0.0532163233     -86.476138       0.998143365      3.05040747       
137.16           0.998172856      3.02163868       0.0527149112     -86.5035528      0.0527149112     -86.5035528      0.998172856      3.02163868       
138.08           0.998201719      2.99319561       0.0522191633     -86.5305806      0.0522191633     -86.5305806      0.998201719      2.99319561       
139              0.998229971      2.96507182       0.0517289681     -86.5572275      0.0517289681     -86.5572275      0.998229971      2.96507182       
139.92           0.998257626      2.93726106       0.0512442172     -86.5834991      0.0512442172     -86.5834991      0.998257626      2.93726106       
140.84           0.9982847        2.90975723       0.0507648047     -86.6094013      0.0507648047     -86.6094013      0.9982847        2.90975723       
141.76           0.998311207      2.88255439       0.0502906276     -86.6349393      0.0502906276     -86.6349393      0.998311207      2.88255439       
142.68           0.998337161      2.85564676       0.0498215857     -86.6601185      0.0498215857     -86.6601185      0.998337161      2.85564676       
143.6            0.998362575      2.8290287        0.0493575809     -86.6849439      0.0493575809     -86.6849439      0.998362575      2.8290287        
144.52           0.998387463      2.80269472       0.048898518      -86.7094206      0.048898518      -86.7094206      0.998387463      2.80269472       
145.44           0.998411838      2.77663944       0.048444304      -86.7335533      0.048444304      -86.7335533      0.998411838      2.77663944       
146.36           0.998435712      2.75085765       0.0479948481     -86.7573466      0.0479948481     -86.7573466      0.998435712      2.75085765       
147.28           0.998459096      2.72534425       0.047550062      -86.7808051      0.047550062      -86.7808051      0.998459096      2.72534425       
148.2            0.998482003      2.70009428       0.0471098594     -86.803933       0.0471098594     -86.803933       0.998482003      2.70009428       
149.12           0.998504443      2.67510288       0.0466741561     -86.8267345      0.0466741561     -86.8267345      0.998504443      2.67510288       
150.04           0.998526428      2.65036533       0.0462428701     -86.8492136      0.0462428701     -86.8492136      0.998526428      2.65036533       
150.96           0.998547968      2.625877         0.0458159212     -86.8713744      0.0458159212     -86.8713744      0.998547968      2.625877         
151.88           0.998569074      2.60163341       0.0453932313     -86.8932205      0.0453932313     -86.8932205      0.998569074      2.60163341       
152.8            0.998589754      2.57763014       0.0449747239     -86.9147556      0.0449747239     -86.9147556      0.998589754      2.57763014       
153.72           0.99861002       2.55386291       0.0445603246     -86.9359832      0.0445603246     -86.9359832      0.99861002       2.55386291       
154.64           0.998629881      2.53032752       0.0441499606     -86.9569068      0.0441499606     -86.9569068      0.998629881      2.53032752       
155.56           0.998649344      2.5070199        0.0437435609     -86.9775295      0.0437435609     -86.9775295      0.998649344      2.5070199        
156.48           0.998668421      2.48393603       0.043341056      -86.9978545      0.043341056      -86.9978545      0.998668421      2.48393603       
157.4            0.998687118      2.46107202       0.0429423782     -87.0178848      0.0429423782     -87.0178848      0.998687118      2.46107202       
158.32           0.998705444      2.43842405       0.0425474612     -87.0376234      0.0425474612     -87.0376234      0.998705444      2.43842405       
159.24           0.998723408      2.4159884        0.0421562404     -87.057073       0.0421562404     -87.057073       0.998723408      2.4159884        
160.16           0.998741017      2.39376143       0.0417686524     -87.0762364      0.0417686524     -87.0762364      0.998741017      2.39376143       
161.08           0.99875828       2.37173958       0.0413846355     -87.0951161      0.0413846355     -87.0951161      0.99875828       2.37173958       
162              0.998775202      2.34991937       0.0410041293     -87.1137146      0.0410041293     -87.1137146      0.998775202      2.34991937       
162.92           0.998791792      2.3282974        0.0406270747     -87.1320342      0.0406270747     -87.1320342      0.998791792      2.3282974        
163.84           0.998808057      2.30687035       0.040253414      -87.1500772      0.040253414      -87.1500772      0.998808057      2.30687035       
164.76           0.998824004      2.28563498       0.0398830907     -87.1678457      0.0398830907     -87.1678457      0.998824004      2.28563498       
165.68           0.998839639      2.26458809       0.0395160495     -87.1853418      0.0395160495     -87.1853418      0.998839639      2.26458809       
166.6            0.998854968      2.2437266        0.0391522366     -87.2025675      0.0391522366     -87.2025675      0.998854968      2.2437266        
167.52           0.998869998      2.22304744       0.0387915991     -87.2195246      0.0387915991     -87.2195246      0.998869998      2.22304744       
168.44           0.998884736      2.20254766       0.0384340852     -87.2362148      0.0384340852     -87.2362148      0.998884736      2.20254766       
169.36           0.998899186      2.18222434       0.0380796444     -87.2526399      0.0380796444     -87.2526399      0.998899186      2.18222434       
170.28           0.998913356      2.16207463       0.0377282273     -87.2688012      0.0377282273     -87.2688012      0.998913356      2.16207463       
171.2            0.998927249      2.14209575       0.0373797853     -87.2847004      0.0373797853     -87.2847004      0.998927249      2.14209575       
172.12           0.998940873      2.12228497       0.0370342712     -87.3003388      0.0370342712     -87.3003388      0.998940873      2.12228497       
173.04           0.998954233      2.10263962       0.0366916384     -87.3157176      0.0366916384     -87.3157176      0.998954233      2.10263962       
173.96           0.998967333      2.08315709       0.0363518417     -87.3308381      0.0363518417     -87.3308381      0.998967333      2.08315709       
174.88           0.998980179      2.06383482       0.0360148364     -87.3457013      0.0360148364     -87.3457013      0.998980179      2.06383482       
175.8            0.998992775      2.04467031       0.0356805791     -87.3603082      0.0356805791     -87.3603082      0.998992775      2.04467031       
176.72           0.999005127      2.0256611        0.0353490271     -87.3746597      0.0353490271     -87.3746597      0.999005127      2.0256611        
177.64           0.999017239      2.00680478       0.0350201387     -87.3887566      0.0350201387     -87.3887566      0.999017239      2.00680478       
178.56           0.999029116      1.98809902       0.0346938729     -87.4025996      0.0346938729     -87.4025996      0.999029116      1.98809902       
179.48           0.999040762      1.96954149       0.0343701896     -87.4161894      0.0343701896     -87.4161894      0.999040762      1.96954149       
180.4            0.999052182      1.95112995       0.0340490496     -87.4295264      0.0340490496     -87.4295264      0.999052182      1.95112995       
181.32           0.999063379      1.93286217       0.0337304144     -87.4426112      0.0337304144     -87.4426112      0.999063379      1.93286217       
182.24           0.999074359      1.914736         0.0334142464     -87.455444       0.0334142464     -87.455444       0.999074359      1.914736         
183.16           0.999085125      1.8967493        0.0331005084     -87.4680251      0.0331005084     -87.4680251      0.999085125      1.8967493        
184.08           0.999095681      1.8789           0.0327891644     -87.4803547      0.0327891644     -87.4803547      0.999095681      1.8789           
185              0.99910603       1.86118605       0.0324801789     -87.4924328      0.0324801789     -87.4924328      0.99910603       1.86118605       
185.92           0.999116177      1.84360545       0.032173517      -87.5042594      0.032173517      -87.5042594      0.999116177      1.84360545       
186.84           0.999126126      1.82615623       0.0318691445     -87.5158344      0.0318691445     -87.5158344      0.999126126      1.82615623       
187.76           0.999135879      1.80883649       0.0315670282     -87.5271576      0.0315670282     -87.5271576      0.999135879      1.80883649       
188.68           0.999145441      1.79164432       0.0312671351     -87.5382286      0.0312671351     -87.5382286      0.999145441      1.79164432       
189.6            0.999154814      1.77457788       0.0309694331     -87.549047       0.0309694331     -87.549047       0.999154814      1.77457788       
190.52           0.999164002      1.75763535       0.0306738906     -87.5596124      0.0306738906     -87.5596124      0.999164002      1.75763535       
191.44           0.999173009      1.74081496       0.0303804768     -87.5699241      0.0303804768     -87.5699241      0.999173009      1.74081496       
192.36           0.999181837      1.72411496       0.0300891611     -87.5799813      0.0300891611     -87.5799813      0.999181837      1.72411496       
193.28           0.99919049       1.70753364       0.0297999139     -87.5897834      0.0297999139     -87.5897834      0.99919049       1.70753364       
194.2            0.99919897       1.69106932       0.0295127059     -87.5993293      0.0295127059     -87.5993293      0.99919897       1.69106932       
195.12           0.999207281      1.67472034       0.0292275084     -87.608618       0.0292275084     -87.608618       0.999207281      1.67472034       
196.04           0.999215425      1.65848509       0.0289442933     -87.6176485      0.0289442933     -87.6176485      0.999215425      1.65848509       
196.96           0.999223405      1.64236198       0.0286630331     -87.6264194      0.0286630331     -87.6264194      0.999223405      1.64236198       
197.88           0.999231224      1.62634946       0.0283837005     -87.6349295      0.0283837005     -87.6349295      0.999231224      1.62634946       
198.8            0.999238885      1.610446         0.028106269      -87.6431773      0.028106269      -87.6431773      0.999238885      1.610446         
199.72           0.999246391      1.59465009       0.0278307124     -87.6511611      0.0278307124     -87.6511611      0.999246391      1.59465009       
200.64           0.999253743      1.57896025       0.0275570052     -87.6588793      0.0275570052     -87.6588793      0.999253743      1.57896025       
201.56           0.999260944      1.56337505       0.0272851221     -87.6663302      0.0272851221     -87.6663302      0.999260944      1.56337505       
202.48           0.999267997      1.54789306       0.0270150385     -87.6735117      0.0270150385     -87.6735117      0.999267997      1.54789306       
203.4            0.999274905      1.53251289       0.0267467301     -87.6804218      0.0267467301     -87.6804218      0.999274905      1.53251289       
204.32           0.999281669      1.51723316       0.0264801729     -87.6870583      0.0264801729     -87.6870583      0.999281669      1.51723316       
205.24           0.999288291      1.50205253       0.0262153437     -87.6934189      0.0262153437     -87.6934189      0.999288291      1.50205253       
206.16           0.999294775      1.48696967       0.0259522195     -87.6995011      0.0259522195     -87.6995011      0.999294775      1.48696967       
207.08           0.999301122      1.4719833        0.0256907776     -87.7053024      0.0256907776     -87.7053024      0.999301122      1.4719833        
208              0.999307335      1.45709213       0.0254309958     -87.71082        0.0254309958     -87.71082        0.999307335      1.45709213       
208.92           0.999313415      1.44229491       0.0251728525     -87.7160511      0.0251728525     -87.7160511      0.999313415      1.44229491       
209.84           0.999319365      1.42759041       0.024916326      -87.7209926      0.024916326      -87.7209926      0.999319365      1.42759041       
210.76           0.999325186      1.41297742       0.0246613955     -87.7256413      0.0246613955     -87.7256413      0.999325186      1.41297742       
211.68           0.999330881      1.39845475       0.0244080402     -87.7299939      0.0244080402     -87.7299939      0.999330881      1.39845475       
212.6            0.999336452      1.38402123       0.0241562399     -87.7340469      0.0241562399     -87.7340469      0.999336452      1.38402123       
213.52           0.999341899      1.36967571       0.0239059745     -87.7377966      0.0239059745     -87.7377966      0.999341899      1.36967571       
214.44           0.999347226      1.35541707       0.0236572244     -87.7412392      0.0236572244     -87.7412392      0.999347226      1.35541707       
215.36           0.999352434      1.34124419       0.0234099703     -87.7443706      0.0234099703     -87.7443706      0.999352434      1.34124419       
216.28           0.999357525      1.32715598       0.0231641933     -87.7471867      0.0231641933     -87.7471867      0.999357525      1.32715598       
217.2            0.9993625        1.31315138       0.0229198748     -87.749683       0.0229198748     -87.749683       0.9993625        1.31315138       
218.12           0.999367362      1.29922933       0.0226769963     -87.7518549      0.0226769963     -87.7518549      0.999367362      1.29922933       
219.04           0.999372111      1.28538879       0.0224355399     -87.7536977      0.0224355399     -87.7536977      0.999372111      1.28538879       
219.96           0.99937675       1.27162874       0.0221954878     -87.7552063      0.0221954878     -87.7552063      0.99937675       1.27162874       
220.88           0.99938128       1.25794818       0.0219568227     -87.7563754      0.0219568227     -87.7563754      0.99938128       1.25794818       
221.8            0.999385703      1.24434612       0.0217195274     -87.7571997      0.0217195274     -87.7571997      0.999385703      1.24434612       
222.72           0.99939002       1.2308216        0.0214835851     -87.7576733      0.0214835851     -87.7576733      0.99939002       1.2308216        
223.64           0.999394232      1.21737366       0.0212489791     -87.7577905      0.0212489791     -87.7577905      0.999394232      1.21737366       
224.56           0.999398342      1.20400137       0.0210156932     -87.7575448      0.0210156932     -87.7575448      0.999398342      1.20400137       
225.48           0.99940235       1.19070379       0.0207837114     -87.7569299      0.0207837114     -87.7569299      0.99940235       1.19070379       
226.4            0.999406258      1.17748003       0.0205530178     -87.7559391      0.0205530178     -87.7559391      0.999406258      1.17748003       
227.32           0.999410068      1.16432918       0.020323597      -87.7545652      0.020323597      -87.7545652      0.999410068      1.16432918       
228.24           0.99941378       1.15125038       0.0200954337     -87.752801       0.0200954337     -87.752801       0.99941378       1.15125038       
229.16           0.999417396      1.13824275       0.0198685129     -87.7506387      0.0198685129     -87.7506387      0.999417396      1.13824275       
230.08           0.999420918      1.12530545       0.0196428197     -87.7480705      0.0196428197     -87.7480705      0.999420918      1.12530545       
231              0.999424346      1.11243763       0.0194183398     -87.745088       0.0194183398     -87.745088       0.999424346      1.11243763       
231.92           0.999427683      1.09963848       0.0191950587     -87.7416825      0.0191950587     -87.7416825      0.999427683      1.09963848       
232.84           0.999430928      1.08690718       0.0189729624     -87.7378451      0.0189729624     -87.7378451      0.999430928      1.08690718       
233.76           0.999434083      1.07424293       0.018752037      -87.7335662      0.018752037      -87.7335662      0.999434083      1.07424293       
234.68           0.99943715       1.06164495       0.0185322688     -87.728836       0.0185322688     -87.728836       0.99943715       1.06164495       
235.6            0.99944013       1.04911247       0.0183136446     -87.7236444      0.0183136446     -87.7236444      0.99944013       1.04911247       
236.52           0.999443024      1.03664472       0.018096151      -87.7179806      0.018096151      -87.7179806      0.999443024      1.03664472       
237.44           0.999445832      1.02424095       0.0178797751     -87.7118334      0.0178797751     -87.7118334      0.999445832      1.02424095       
238.36           0.999448556      1.01190043       0.017664504      -87.7051913      0.017664504      -87.7051913      0.999448556      1.01190043       
239.28           0.999451198      0.999622421      0.0174503251     -87.698042       0.0174503251     -87.698042       0.999451198      0.999622421      
240.2            0.999453757      0.987406216      0.0172372262     -87.6903729      0.0172372262     -87.6903729      0.999453757      0.987406216      
241.12           0.999456236      0.975251108      0.0170251948     -87.6821707      0.0170251948     -87.6821707      0.999456236      0.975251108      
242.04           0.999458634      0.963156402      0.0168142191     -87.6734217      0.0168142191     -87.6734217      0.999458634      0.963156402      
242.96           0.999460954      0.951121414      0.0166042871     -87.6641113      0.0166042871     -87.6641113      0.999460954      0.951121414      
243.88           0.999463196      0.939145471      0.0163953873     -87.6542245      0.0163953873     -87.6542245      0.999463196      0.939145471      
244.8            0.999465361      0.92722791       0.0161875081     -87.6437455      0.0161875081     -87.6437455      0.999465361      0.92722791       
245.72           0.99946745       0.915368076      0.0159806383     -87.6326578      0.0159806383     -87.6326578      0.99946745       0.915368076      
246.64           0.999469464      0.903565327      0.0157747667     -87.6209442      0.0157747667     -87.6209442      0.999469464      0.903565327      
247.56           0.999471403      0.891819028      0.0155698824     -87.6085865      0.0155698824     -87.6085865      0.999471403      0.891819028      
248.48           0.99947327       0.880128554      0.0153659745     -87.595566       0.0153659745     -87.595566       0.99947327       0.880128554      
249.4            0.999475063      0.868493289      0.0151630326     -87.5818628      0.0151630326     -87.5818628      0.999475063      0.868493289      
250.32           0.999476786      0.856912627      0.014961046      -87.5674562      0.014961046      -87.5674562      0.999476786      0.856912627      
251.24           0.999478437      0.84538597       0.0147600045     -87.5523245      0.0147600045     -87.5523245      0.999478437      0.84538597       
252.16           0.999480019      0.833912729      0.0145598979     -87.536445       0.0145598979     -87.536445       0.999480019      0.833912729      
253.08           0.999481531      0.822492323      0.0143607163     -87.5197938      0.0143607163     -87.5197938      0.999481531      0.822492323      
254              0.999482976      0.811124181      0.0141624498     -87.5023458      0.0141624498     -87.5023458      0.999482976      0.811124181      
254.92           0.999484352      0.799807739      0.0139650888     -87.4840748      0.0139650888     -87.4840748      0.999484352      0.799807739      
255.84           0.999485662      0.78854244       0.0137686236     -87.4649531      0.0137686236     -87.4649531      0.999485662      0.78854244       
256.76           0.999486906      0.777327737      0.0135730449     -87.4449518      0.0135730449     -87.4449518      0.999486906      0.777327737      
257.68           0.999488085      0.76616309       0.0133783435     -87.4240404      0.0133783435     -87.4240404      0.999488085      0.76616309       
258.6            0.999489199      0.755047966      0.0131845101     -87.4021869      0.0131845101     -87.4021869      0.999489199      0.755047966      
259.52           0.999490249      0.743981841      0.012991536      -87.3793574      0.012991536      -87.3793574      0.999490249      0.743981841      
260.44           0.999491237      0.732964198      0.0127994121     -87.3555164      0.0127994121     -87.3555164      0.999491237      0.732964198      
261.36           0.999492161      0.721994526      0.0126081299     -87.3306266      0.0126081299     -87.3306266      0.999492161      0.721994526      
262.28           0.999493024      0.711072321      0.0124176807     -87.3046484      0.0124176807     -87.3046484      0.999493024      0.711072321      
263.2            0.999493826      0.700197089      0.0122280562     -87.2775403      0.0122280562     -87.2775403      0.999493826      0.700197089      
264.12           0.999494568      0.689368341      0.012039248      -87.2492582      0.012039248      -87.2492582      0.999494568      0.689368341      
265.04           0.999495249      0.678585593      0.0118512479     -87.2197558      0.0118512479     -87.2197558      0.999495249      0.678585593      
265.96           0.999495872      0.66784837       0.011664048      -87.1889839      0.011664048      -87.1889839      0.999495872      0.66784837       
266.88           0.999496436      0.657156203      0.0114776403     -87.1568907      0.0114776403     -87.1568907      0.999496436      0.657156203      
267.8            0.999496942      0.64650863       0.011292017      -87.1234212      0.011292017      -87.1234212      0.999496942      0.64650863       
268.72           0.999497391      0.635905193      0.0111071705     -87.0885173      0.0111071705     -87.0885173      0.999497391      0.635905193      
269.64           0.999497783      0.625345444      0.0109230932     -87.0521172      0.0109230932     -87.0521172      0.999497783      0.625345444      
270.56           0.999498119      0.614828938      0.0107397778     -87.0141554      0.0107397778     -87.0141554      0.999498119      0.614828938      
271.48           0.999498399      0.604355237      0.010557217      -86.9745624      0.010557217      -86.9745624      0.999498399      0.604355237      
272.4            0.999498624      0.593923908      0.0103754036     -86.9332642      0.0103754036     -86.9332642      0.999498624      0.593923908      
273.32           0.999498795      0.583534526      0.0101943305     -86.8901823      0.0101943305     -86.8901823      0.999498795      0.583534526      
274.24           0.999498912      0.573186671      0.010013991      -86.8452329      0.010013991      -86.8452329      0.999498912      0.573186671      
275.16           0.999498975      0.562879926      0.00983437809    -86.7983268      0.00983437809    -86.7983268      0.999498975      0.562879926      
276.08           0.999498986      0.552613883      0.00965548528    -86.7493688      0.00965548528    -86.7493688      0.999498986      0.552613883      
277              0.999498944      0.542388138      0.00947730601    -86.6982571      0.00947730601    -86.6982571      0.999498944      0.542388138      
277.92           0.999498851      0.532202292      0.00929983387    -86.6448831      0.00929983387    -86.6448831      0.999498851      0.532202292      
278.84           0.999498706      0.522055951      0.0091230626     -86.5891305      0.0091230626     -86.5891305      0.999498706      0.522055951      
279.76           0.99949851       0.511948728      0.00894698607    -86.5308744      0.00894698607    -86.5308744      0.99949851       0.511948728      
280.68           0.999498264      0.501880239      0.00877159829    -86.4699813      0.00877159829    -86.4699813      0.999498264      0.501880239      
281.6            0.999497968      0.491850107      0.0085968934     -86.4063074      0.0085968934     -86.4063074      0.999497968      0.491850107      
282.52           0.999497623      0.481857957      0.00842286567    -86.3396983      0.00842286567    -86.3396983      0.999497623      0.481857957      
283.44           0.999497229      0.471903421      0.00824950954    -86.2699876      0.00824950954    -86.2699876      0.999497229      0.471903421      
284.36           0.999496786      0.461986137      0.00807681957    -86.1969959      0.00807681957    -86.1969959      0.999496786      0.461986137      
285.28           0.999496295      0.452105744      0.00790479051    -86.1205294      0.00790479051    -86.1205294      0.999496295      0.452105744      
286.2            0.999495757      0.442261889      0.00773341724    -86.0403788      0.00773341724    -86.0403788      0.999495757      0.442261889      
287.12           0.999495171      0.432454221      0.00756269482    -85.9563172      0.00756269482    -85.9563172      0.999495171      0.432454221      
288.04           0.999494539      0.422682396      0.00739261849    -85.8680983      0.00739261849    -85.8680983      0.999494539      0.422682396      
288.96           0.99949386       0.412946073      0.00722318366    -85.7754547      0.00722318366    -85.7754547      0.99949386       0.412946073      
289.88           0.999493136      0.403244914      0.00705438596    -85.6780954      0.00705438596    -85.6780954      0.999493136      0.403244914      
290.8            0.999492365      0.393578588      0.00688622121    -85.5757029      0.00688622121    -85.5757029      0.999492365      0.393578588      
291.72           0.99949155       0.383946766      0.00671868546    -85.4679305      0.00671868546    -85.4679305      0.99949155       0.383946766      
292.64           0.99949069       0.374349124      0.006551775      -85.3543984      0.006551775      -85.3543984      0.99949069       0.374349124      
293.56           0.999489786      0.364785342      0.00638548637    -85.2346905      0.00638548637    -85.2346905      0.999489786      0.364785342      
294.48           0.999488838      0.355255105      0.0062198164     -85.1083488      0.0062198164     -85.1083488      0.999488838      0.355255105      
295.4            0.999487846      0.3457581        0.00605476223    -84.9748693      0.00605476223    -84.9748693      0.999487846      0.3457581        
296.32           0.999486811      0.336294018      0.00589032133    -84.833695       0.00589032133    -84.833695       0.999486811      0.336294018      
297.24           0.999485733      0.326862556      0.00572649156    -84.6842096      0.00572649156    -84.6842096      0.999485733      0.326862556      
298.16           0.999484613      0.317463414      0.00556327115    -84.5257289      0.00556327115    -84.5257289      0.999484613      0.317463414      
299.08           0.999483451      0.308096293      0.00540065884    -84.3574914      0.00540065884    -84.3574914      0.999483451      0.308096293      
300              0.999482246      0.2987609        0.00523865387    -84.1786473      0.00523865387    -84.1786473      0.999482246      0.2987609        
300.92           0.999481001      0.289456947      0.00507725605    -83.9882451      0.00507725605    -83.9882451      0.999481001      0.289456947      
301.84           0.999479714      0.280184146      0.00491646587    -83.7852161      0.00491646587    -83.7852161      0.999479714      0.280184146      
302.76           0.999478387      0.270942216      0.00475628459    -83.5683562      0.00475628459    -83.5683562      0.999478387      0.270942216      
303.68           0.999477019      0.261730876      0.00459671432    -83.3363034      0.00459671432    -83.3363034      0.999477019      0.261730876      
304.6            0.999475611      0.25254985       0.00443775821    -83.0875115      0.00443775821    -83.0875115      0.999475611      0.25254985       
305.52           0.999474163      0.243398867      0.00427942056    -82.8202182      0.00427942056    -82.8202182      0.999474163      0.243398867      
306.44           0.999472676      0.234277657      0.00412170706    -82.532406       0.00412170706    -82.532406       0.999472676      0.234277657      
307.36           0.999471149      0.225185954      0.00396462503    -82.221755       0.00396462503    -82.221755       0.999471149      0.225185954      
308.28           0.999469584      0.216123494      0.00380818373    -81.8855842      0.00380818373    -81.8855842      0.999469584      0.216123494      
309.2            0.99946798       0.207090019      0.00365239472    -81.5207794      0.00365239472    -81.5207794      0.99946798       0.207090019      
310.12           0.999466338      0.19808527       0.00349727237    -81.1237031      0.00349727237    -81.1237031      0.999466338      0.19808527       
311.04           0.999464658      0.189108995      0.00334283443    -80.6900806      0.00334283443    -80.6900806      0.999464658      0.189108995      
311.96           0.99946294       0.180160944      0.0031891028     -80.2148567      0.0031891028     -80.2148567      0.99946294       0.180160944      
312.88           0.999461185      0.171240867      0.00303610456    -79.6920109      0.00303610456    -79.6920109      0.999461185      0.171240867      
313.8            0.999459393      0.16234852       0.00288387318    -79.1143202      0.00288387318    -79.1143202      0.999459393      0.16234852       
314.72           0.999457564      0.153483662      0.00273245026    -78.4730481      0.00273245026    -78.4730481      0.999457564      0.153483662      
315.64           0.999455698      0.144646052      0.00258188777    -77.7575351      0.00258188777    -77.7575351      0.999455698      0.144646052      
316.56           0.999453796      0.135835456      0.00243225102    -76.9546517      0.00243225102    -76.9546517      0.999453796      0.135835456      
317.48           0.999451858      0.127051638      0.00228362284    -76.048059       0.00228362284    -76.048059       0.999451858      0.127051638      
318.4            0.999449884      0.118294369      0.00213610928    -75.0171972      0.00213610928    -75.0171972      0.999449884      0.118294369      
319.32           0.999447874      0.109563419      0.00198984767    -73.8358811      0.00198984767    -73.8358811      0.999447874      0.109563419      
320.24           0.99944583       0.100858563      0.00184501823    -72.4703257      0.00184501823    -72.4703257      0.99944583       0.100858563      
321.16           0.99944375       0.0921795783     0.00170186102    -70.8763311      0.00170186102    -70.8763311      0.99944375       0.0921795783     
322.08           0.999441635      0.083526244      0.00156070122    -68.9952225      0.00156070122    -68.9952225      0.999441635      0.083526244      
323              0.999439486      0.0748983421     0.00142198765    -66.7479418      0.00142198765    -66.7479418      0.999439486      0.0748983421     
323.92           0.999437303      0.0662956571     0.00128635263    -64.0264373      0.00128635263    -64.0264373      0.999437303      0.0662956571     
324.84           0.999435085      0.0577179758     0.0011547065     -60.6812896      0.0011547065     -60.6812896      0.999435085      0.0577179758     
325.76           0.999432834      0.0491650875     0.00102838843    -56.5047784      0.00102838843    -56.5047784      0.999432834      0.0491650875     
326.68           0.999430549      0.0406367839     0.000909405028   -51.2108477      0.000909405028   -51.2108477      0.999430549      0.0406367839     
327.6            0.999428231      0.032132859      0.000800789745   -44.4220624      0.000800789745   -44.4220624      0.999428231      0.032132859      
328.52           0.999425879      0.0236531091     0.000707065198   -35.6985958      0.000707065198   -35.6985958      0.999425879      0.0236531091     
329.44           0.999423495      0.0151973328     0.000634564449   -24.6927439      0.000634564449   -24.6927439      0.999423495      0.0151973328     
330.36           0.999421077      0.00676533081    0.000590834629   -11.521323       0.000590834629   -11.521323       0.999421077      0.00676533081    
331.28           0.999418628      -0.00164309371   0.000582078763   2.82230316       0.000582078763   2.82230316       0.999418628      -0.00164309371   
332.2            0.999416146      -0.0100281356    0.000609509147   16.677716        0.000609509147   16.677716        0.999416146      -0.0100281356    
333.12           0.999413632      -0.0183899874    0.000668420999   28.6791039       0.000668420999   28.6791039       0.999413632      -0.0183899874    
334.04           0.999411086      -0.0267288398    0.000751212481   38.3627881       0.000751212481   38.3627881       0.999411086      -0.0267288398    
334.96           0.999408508      -0.035044881     0.000850738319   45.9338026       0.000850738319   45.9338026       0.999408508      -0.035044881     
335.88           0.999405899      -0.0433382976    0.000961639974   51.82266         0.000961639974   51.82266         0.999405899      -0.0433382976    
336.8            0.999403258      -0.0516092737    0.00108026405    56.4421215       0.00108026405    56.4421215       0.999403258      -0.0516092737    
337.72           0.999400586      -0.0598579917    0.00120419273    60.1173635       0.00120419273    60.1173635       0.999400586      -0.0598579917    
338.64           0.999397884      -0.0680846319    0.00133182305    63.0875196       0.00133182305    63.0875196       0.999397884      -0.0680846319    
339.56           0.999395151      -0.0762893727    0.00146207535    65.5248694       0.00146207535    65.5248694       0.999395151      -0.0762893727    
340.48           0.999392387      -0.0844723906    0.00159420701    67.55357         0.00159420701    67.55357         0.999392387      -0.0844723906    
341.4            0.999389593      -0.09263386      0.00172769579    69.2639614       0.00172769579    69.2639614       0.999389593      -0.09263386      
342.32           0.999386768      -0.100773954     0.00186216642    70.7226692       0.00186216642    70.7226692       0.999386768      -0.100773954     
343.24           0.999383914      -0.108892843     0.00199734387    71.9795604       0.00199734387    71.9795604       0.999383914      -0.108892843     
344.16           0.99938103       -0.116990695     0.00213302285    73.0725153       0.00213302285    73.0725153       0.99938103       -0.116990695     
345.08           0.999378116      -0.12506768      0.00226904762    74.0307201       0.00226904762    74.0307201       0.999378116      -0.12506768      
346              0.999375173      -0.13312396      0.00240529829    74.8769659       0.00240529829    74.8769659       0.999375173      -0.13312396      
346.92           0.9993722        -0.141159702     0.00254168134    75.6292722       0.00254168134    75.6292722       0.9993722        -0.141159702     
347.84           0.999369199      -0.149175065     0.002678123      76.3020515       0.002678123      76.3020515       0.999369199      -0.149175065     
348.76           0.999366168      -0.157170211     0.00281456445    76.9069543       0.00281456445    76.9069543       0.999366168      -0.157170211     
349.68           0.999363109      -0.165145298     0.00295095837    77.4534912       0.00295095837    77.4534912       0.999363109      -0.165145298     
350.6            0.99936002       -0.173100483     0.00308726641    77.9494964       0.00308726641    77.9494964       0.99936002       -0.173100483     
351.52           0.999356904      -0.181035921     0.00322345725    78.4014773       0.00322345725    78.4014773       0.999356904      -0.181035921     
352.44           0.999353759      -0.188951765     0.00335950515    78.814881        0.00335950515    78.814881        0.999353759      -0.188951765     
353.36           0.999350586      -0.196848168     0.00349538887    79.1943001       0.00349538887    79.1943001       0.999350586      -0.196848168     
354.28           0.999347385      -0.204725281     0.00363109081    79.543632        0.00363109081    79.543632        0.999347385      -0.204725281     
355.2            0.999344156      -0.212583251     0.00376659632    79.8662052       0.00376659632    79.8662052       0.999344156      -0.212583251     
356.12           0.999340899      -0.220422227     0.00390189316    80.164878        0.00390189316    80.164878        0.999340899      -0.220422227     
357.04           0.999337615      -0.228242354     0.00403697114    80.4421187       0.00403697114    80.4421187       0.999337615      -0.228242354     
357.96           0.999334303      -0.236043777     0.00417182173    80.7000692       0.00417182173    80.7000692       0.999334303      -0.236043777     
358.88           0.999330964      -0.243826637     0.00430643778    80.9405972       0.00430643778    80.9405972       0.999330964      -0.243826637     
359.8            0.999327598      -0.251591078     0.00444081336    81.165338        0.00444081336    81.165338        0.999327598      -0.251591078     
360.72           0.999324205      -0.259337238     0.00457494349    81.3757299       0.00457494349    81.3757299       0.999324205      -0.259337238     
361.64           0.999320785      -0.267065256     0.00470882408    81.5730424       0.00470882408    81.5730424       0.999320785      -0.267065256     
362.56           0.999317338      -0.274775269     0.00484245174    81.7584004       0.00484245174    81.7584004       0.999317338      -0.274775269     
363.48           0.999313865      -0.282467413     0.00497582371    81.9328043       0.00497582371    81.9328043       0.999313865      -0.282467413     
364.4            0.999310365      -0.290141822     0.00510893775    82.0971461       0.00510893775    82.0971461       0.999310365      -0.290141822     
365.32           0.999306839      -0.29779863      0.00524179209    82.2522243       0.00524179209    82.2522243       0.999306839      -0.29779863      
366.24           0.999303287      -0.305437967     0.00537438536    82.3987553       0.00537438536    82.3987553       0.999303287      -0.305437967     
367.16           0.999299708      -0.313059964     0.00550671653    82.537384        0.00550671653    82.537384        0.999299708      -0.313059964     
368.08           0.999296104      -0.320664751     0.00563878488    82.6686922       0.00563878488    82.6686922       0.999296104      -0.320664751     
369              0.999292474      -0.328252455     0.00577058994    82.7932063       0.00577058994    82.7932063       0.999292474      -0.328252455     
369.92           0.999288818      -0.335823202     0.00590213148    82.9114036       0.00590213148    82.9114036       0.999288818      -0.335823202     
370              0.999288499      -0.33648073      0.00591355741    82.9213977       0.00591355741    82.9213977       0.999288499      -0.33648073      
